disp_x,disp_y,id,stress_xx,stress_xy,stress_yy,x,y,z
82.584451558035,-12.337066052577,0,198397.79610265,-11453.207589511,3776544.2731506,5.2,0,0
82.58445167302,-12.354595642436,0.0044304430443045,198397.79610265,-11453.207589511,3776544.2731506,5.2044304430443,0,0
82.584451788006,-12.372125232295,0.008860886088609,198397.79610265,-11453.207589511,3776544.2731506,5.2088608860886,0,0
82.584451902991,-12.389654822154,0.013291329132914,198397.79610265,-11453.207589511,3776544.2731506,5.2132913291329,0,0
82.584452017976,-12.407184412013,0.017721772177218,198397.79610265,-11453.207589511,3776544.2731506,5.2177217721772,0,0
82.584452131402,-12.424714001331,0.022152215221523,163484.48491726,1502.3850482975,3756301.6913759,5.2221522152215,0,0
82.584452244138,-12.442243590408,0.026582658265826,163484.48491726,1502.3850482975,3756301.6913759,5.2265826582658,0,0
82.584452356873,-12.459773179485,0.031013101310131,163484.48491726,1502.3850482975,3756301.6913759,5.2310131013101,0,0
82.584452469608,-12.477302768563,0.035443544354435,163484.48491726,1502.3850482975,3756301.6913759,5.2354435443544,0,0
82.584452582344,-12.49483235764,0.03987398739874,163484.48491726,1502.3850482975,3756301.6913759,5.2398739873987,0,0
82.584452695079,-12.512361946717,0.044304430443044,163484.48491726,1502.3850482975,3756301.6913759,5.244304430443,0,0
82.584452807815,-12.529891535795,0.048734873487349,163484.48491726,1502.3850482975,3756301.6913759,5.2487348734873,0,0
82.58445292055,-12.547421124872,0.053165316531653,163484.48491726,1502.3850482975,3756301.6913759,5.2531653165317,0,0
82.584453033285,-12.564950713949,0.057595759575958,163484.48491726,1502.3850482975,3756301.6913759,5.257595759576,0,0
82.584453146021,-12.582480303026,0.062026202620262,163484.48491726,1502.3850482975,3756301.6913759,5.2620262026203,0,0
82.584453258756,-12.600009892104,0.066456645664567,163484.48491726,1502.3850482975,3756301.6913759,5.2664566456646,0,0
82.584453371492,-12.617539481181,0.070887088708871,163484.48491726,1502.3850482975,3756301.6913759,5.2708870887089,0,0
82.584453484227,-12.635069070258,0.075317531753175,163484.48491726,1502.3850482975,3756301.6913759,5.2753175317532,0,0
82.584453596962,-12.652598659336,0.079747974797479,163484.48491726,1502.3850482975,3756301.6913759,5.2797479747975,0,0
82.584453709698,-12.670128248413,0.084178417841784,163484.48491726,1502.3850482975,3756301.6913759,5.2841784178418,0,0
82.584453822433,-12.68765783749,0.088608860886088,163484.48491726,1502.3850482975,3756301.6913759,5.2886088608861,0,0
82.584453935912,-12.705187426744,0.093039303930393,278043.86773141,8528.4332772061,3784157.2472894,5.2930393039304,0,0
82.584454057056,-12.722717017811,0.097469746974697,278043.86773141,8528.4332772061,3784157.2472894,5.2974697469747,0,0
82.5844541782,-12.740246608878,0.101900190019,278043.86773141,8528.4332772061,3784157.2472894,5.301900190019,0,0
82.584454299345,-12.757776199946,0.10633063306331,278043.86773141,8528.4332772061,3784157.2472894,5.3063306330633,0,0
82.584454420489,-12.775305791013,0.11076107610761,278043.86773141,8528.4332772061,3784157.2472894,5.3107610761076,0,0
82.584454541633,-12.792835382081,0.11519151915192,278043.86773141,8528.4332772061,3784157.2472894,5.3151915191519,0,0
82.584454662777,-12.810364973148,0.11962196219622,278043.86773141,8528.4332772061,3784157.2472894,5.3196219621962,0,0
82.584454783922,-12.827894564215,0.12405240524052,278043.86773141,8528.4332772061,3784157.2472894,5.3240524052405,0,0
82.584454905066,-12.845424155283,0.12848284828483,278043.86773141,8528.4332772061,3784157.2472894,5.3284828482848,0,0
82.58445502621,-12.86295374635,0.13291329132913,278043.86773141,8528.4332772061,3784157.2472894,5.3329132913291,0,0
82.584455147354,-12.880483337418,0.13734373437344,278043.86773141,8528.4332772061,3784157.2472894,5.3373437343734,0,0
82.584455268499,-12.898012928485,0.14177417741774,278043.86773141,8528.4332772061,3784157.2472894,5.3417741774177,0,0
82.584455389643,-12.915542519552,0.14620462046205,278043.86773141,8528.4332772061,3784157.2472894,5.346204620462,0,0
82.584455510787,-12.93307211062,0.15063506350635,278043.86773141,8528.4332772061,3784157.2472894,5.3506350635064,0,0
82.584455631931,-12.950601701687,0.15506550655066,278043.86773141,8528.4332772061,3784157.2472894,5.3550655065507,0,0
82.584455753076,-12.968131292755,0.15949594959496,278043.86773141,8528.4332772061,3784157.2472894,5.359495949595,0,0
82.58445587422,-12.985660883822,0.16392639263926,278043.86773141,8528.4332772061,3784157.2472894,5.3639263926393,0,0
82.584455995364,-13.003190474889,0.16835683568357,278043.86773141,8528.4332772061,3784157.2472894,5.3683568356836,0,0
82.584456116508,-13.020720065957,0.17278727872787,278043.86773141,8528.4332772061,3784157.2472894,5.3727872787279,0,0
82.584456237653,-13.038249657024,0.17721772177218,278043.86773141,8528.4332772061,3784157.2472894,5.3772177217722,0,0
82.584456358797,-13.055779248092,0.18164816481648,278043.86773141,8528.4332772061,3784157.2472894,5.3816481648165,0,0
82.584456480258,-13.073308838283,0.18607860786079,282131.79406521,17031.748875524,3762962.7214665,5.3860786078608,0,0
82.584456602293,-13.090838426887,0.19050905090509,282131.79406521,17031.748875524,3762962.7214665,5.3905090509051,0,0
82.584456724328,-13.108368015492,0.19493949394939,282131.79406521,17031.748875524,3762962.7214665,5.3949394939494,0,0
82.584456846363,-13.125897604096,0.1993699369937,282131.79406521,17031.748875524,3762962.7214665,5.3993699369937,0,0
82.584456968398,-13.143427192701,0.203800380038,282131.79406521,17031.748875524,3762962.7214665,5.403800380038,0,0
82.584457090433,-13.160956781305,0.20823082308231,282131.79406521,17031.748875524,3762962.7214665,5.4082308230823,0,0
82.584457212468,-13.17848636991,0.21266126612661,282131.79406521,17031.748875524,3762962.7214665,5.4126612661266,0,0
82.584457334504,-13.196015958514,0.21709170917092,282131.79406521,17031.748875524,3762962.7214665,5.4170917091709,0,0
82.584457456539,-13.213545547119,0.22152215221522,282131.79406521,17031.748875524,3762962.7214665,5.4215221522152,0,0
82.584457578574,-13.231075135723,0.22595259525953,282131.79406521,17031.748875524,3762962.7214665,5.4259525952595,0,0
82.584457700609,-13.248604724328,0.23038303830383,282131.79406521,17031.748875524,3762962.7214665,5.4303830383038,0,0
82.584457824983,-13.266134313437,0.23481348134813,394978.8954651,23635.164568532,3791973.7402171,5.4348134813481,0,0
82.584457955259,-13.28366390382,0.23924392439244,394978.8954651,23635.164568532,3791973.7402171,5.4392439243924,0,0
82.584458085536,-13.301193494203,0.24367436743674,394978.8954651,23635.164568532,3791973.7402171,5.4436743674367,0,0
82.584458215812,-13.318723084586,0.24810481048105,394978.8954651,23635.164568532,3791973.7402171,5.448104810481,0,0
82.584458346089,-13.336252674969,0.25253525352535,394978.8954651,23635.164568532,3791973.7402171,5.4525352535254,0,0
82.584458476365,-13.353782265352,0.25696569656966,394978.8954651,23635.164568532,3791973.7402171,5.4569656965697,0,0
82.584458606641,-13.371311855735,0.26139613961396,394978.8954651,23635.164568532,3791973.7402171,5.461396139614,0,0
82.584458736918,-13.388841446118,0.26582658265827,394978.8954651,23635.164568532,3791973.7402171,5.4658265826583,0,0
82.584458867194,-13.4063710365,0.27025702570257,394978.8954651,23635.164568532,3791973.7402171,5.4702570257026,0,0
82.584458997471,-13.423900626883,0.27468746874687,394978.8954651,23635.164568532,3791973.7402171,5.4746874687469,0,0
82.584459127747,-13.441430217266,0.27911791179118,394978.8954651,23635.164568532,3791973.7402171,5.4791179117912,0,0
82.584459258023,-13.458959807649,0.28354835483548,394978.8954651,23635.164568532,3791973.7402171,5.4835483548355,0,0
82.5844593883,-13.476489398032,0.28797879787979,394978.8954651,23635.164568532,3791973.7402171,5.4879787978798,0,0
82.584459518576,-13.494018988415,0.29240924092409,394978.8954651,23635.164568532,3791973.7402171,5.4924092409241,0,0
82.584459648853,-13.511548578798,0.2968396839684,394978.8954651,23635.164568532,3791973.7402171,5.4968396839684,0,0
82.584459779129,-13.529078169181,0.3012701270127,394978.8954651,23635.164568532,3791973.7402171,5.5012701270127,0,0
82.584459909405,-13.546607759564,0.30570057005701,394978.8954651,23635.164568532,3791973.7402171,5.505700570057,0,0
82.584460039682,-13.564137349947,0.31013101310131,394978.8954651,23635.164568532,3791973.7402171,5.5101310131013,0,0
82.584460169958,-13.58166694033,0.31456145614561,394978.8954651,23635.164568532,3791973.7402171,5.5145614561456,0,0
82.584460300235,-13.599196530713,0.31899189918992,394978.8954651,23635.164568532,3791973.7402171,5.5189918991899,0,0
82.584460430511,-13.616726121096,0.32342234223422,394978.8954651,23635.164568532,3791973.7402171,5.5234223422342,0,0
82.584460560787,-13.634255711479,0.32785278527853,394978.8954651,23635.164568532,3791973.7402171,5.5278527852785,0,0
82.584460691064,-13.651785301861,0.33228322832283,394978.8954651,23635.164568532,3791973.7402171,5.5322832283228,0,0
82.58446082134,-13.669314892244,0.33671367136714,394978.8954651,23635.164568532,3791973.7402171,5.5367136713671,0,0
82.584460951617,-13.686844482627,0.34114411441144,394978.8954651,23635.164568532,3791973.7402171,5.5411441144114,0,0
82.584461081893,-13.70437407301,0.34557455745575,394978.8954651,23635.164568532,3791973.7402171,5.5455745574557,0,0
82.584461212169,-13.721903663393,0.35000500050005,394978.8954651,23635.164568532,3791973.7402171,5.5500050005001,0,0
82.584461343091,-13.739433252626,0.35443544354435,407619.08374179,31470.436947529,3768942.5028952,5.5544354435444,0,0
82.584461474991,-13.756962840118,0.35886588658866,407619.08374179,31470.436947529,3768942.5028952,5.5588658865887,0,0
82.58446160689,-13.774492427611,0.36329632963296,407619.08374179,31470.436947529,3768942.5028952,5.563296329633,0,0
82.584461738789,-13.792022015103,0.36772677267727,407619.08374179,31470.436947529,3768942.5028952,5.5677267726773,0,0
82.584461870688,-13.809551602595,0.37215721572157,407619.08374179,31470.436947529,3768942.5028952,5.5721572157216,0,0
82.584462002588,-13.827081190087,0.37658765876588,407619.08374179,31470.436947529,3768942.5028952,5.5765876587659,0,0
82.584462134487,-13.84461077758,0.38101810181018,407619.08374179,31470.436947529,3768942.5028952,5.5810181018102,0,0
82.584462267674,-13.862140365431,0.38544854485449,520938.57525733,35432.624194982,3795636.5403056,5.5854485448545,0,0
82.584462407914,-13.879669955251,0.38987898789879,520938.57525733,35432.624194982,3795636.5403056,5.5898789878988,0,0
82.584462548154,-13.897199545071,0.39430943094309,520938.57525733,35432.624194982,3795636.5403056,5.5943094309431,0,0
82.584462688394,-13.91472913489,0.3987398739874,520938.57525733,35432.624194982,3795636.5403056,5.5987398739874,0,0
82.584462828634,-13.93225872471,0.4031703170317,520938.57525733,35432.624194982,3795636.5403056,5.6031703170317,0,0
82.584462968874,-13.94978831453,0.40760076007601,520938.57525733,35432.624194982,3795636.5403056,5.607600760076,0,0
82.584463109114,-13.967317904349,0.41203120312031,520938.57525733,35432.624194982,3795636.5403056,5.6120312031203,0,0
82.584463249354,-13.984847494169,0.41646164616462,520938.57525733,35432.624194982,3795636.5403056,5.6164616461646,0,0
82.584463389594,-14.002377083989,0.42089208920892,520938.57525733,35432.624194982,3795636.5403056,5.6208920892089,0,0
82.584463529834,-14.019906673808,0.42532253225323,520938.57525733,35432.624194982,3795636.5403056,5.6253225322532,0,0
82.584463670074,-14.037436263628,0.42975297529753,520938.57525733,35432.624194982,3795636.5403056,5.6297529752975,0,0
82.584463810314,-14.054965853448,0.43418341834183,520938.57525733,35432.624194982,3795636.5403056,5.6341834183418,0,0
82.584463950554,-14.072495443268,0.43861386138614,520938.57525733,35432.624194982,3795636.5403056,5.6386138613861,0,0
82.584464090794,-14.090025033087,0.44304430443044,520938.57525733,35432.624194982,3795636.5403056,5.6430443044304,0,0
82.584464231034,-14.107554622907,0.44747474747475,520938.57525733,35432.624194982,3795636.5403056,5.6474747474747,0,0
82.584464371274,-14.125084212727,0.45190519051905,520938.57525733,35432.624194982,3795636.5403056,5.6519051905191,0,0
82.584464511514,-14.142613802546,0.45633563356336,520938.57525733,35432.624194982,3795636.5403056,5.6563356335634,0,0
82.584464651754,-14.160143392366,0.46076607660766,520938.57525733,35432.624194982,3795636.5403056,5.6607660766077,0,0
82.584464791994,-14.177672982186,0.46519651965196,520938.57525733,35432.624194982,3795636.5403056,5.665196519652,0,0
82.584464932234,-14.195202572005,0.46962696269627,520938.57525733,35432.624194982,3795636.5403056,5.6696269626963,0,0
82.584465072474,-14.212732161825,0.47405740574057,520938.57525733,35432.624194982,3795636.5403056,5.6740574057406,0,0
82.584465212714,-14.230261751645,0.47848784878488,520938.57525733,35432.624194982,3795636.5403056,5.6784878487849,0,0
82.584465352954,-14.247791341464,0.48291829182918,520938.57525733,35432.624194982,3795636.5403056,5.6829182918292,0,0
82.584465493194,-14.265320931284,0.48734873487349,520938.57525733,35432.624194982,3795636.5403056,5.6873487348735,0,0
82.584465633434,-14.282850521104,0.49177917791779,520938.57525733,35432.624194982,3795636.5403056,5.6917791779178,0,0
82.584465773674,-14.300380110924,0.4962096209621,520938.57525733,35432.624194982,3795636.5403056,5.6962096209621,0,0
82.584465913914,-14.317909700743,0.5006400640064,520938.57525733,35432.624194982,3795636.5403056,5.7006400640064,0,0
82.584466054154,-14.335439290563,0.50507050705071,520938.57525733,35432.624194982,3795636.5403056,5.7050705070507,0,0
82.584466194394,-14.352968880383,0.50950095009501,520938.57525733,35432.624194982,3795636.5403056,5.709500950095,0,0
82.584466334634,-14.370498470202,0.51393139313931,520938.57525733,35432.624194982,3795636.5403056,5.7139313931393,0,0
82.584466474874,-14.388028060022,0.51836183618362,520938.57525733,35432.624194982,3795636.5403056,5.7183618361836,0,0
82.584466615114,-14.405557649842,0.52279227922792,520938.57525733,35432.624194982,3795636.5403056,5.7227922792279,0,0
82.584466755354,-14.423087239661,0.52722272227223,520938.57525733,35432.624194982,3795636.5403056,5.7272227222722,0,0
82.584466895594,-14.440616829481,0.53165316531653,520938.57525733,35432.624194982,3795636.5403056,5.7316531653165,0,0
82.584467037143,-14.45814641681,0.53608360836084,534130.41881868,45316.036848248,3762967.1067771,5.7360836083608,0,0
82.584467179306,-14.475676002969,0.54051405140514,534130.41881868,45316.036848248,3762967.1067771,5.7405140514051,0,0
82.584467327644,-14.493205591529,0.54494449444945,635777.60719454,46742.59355852,3780898.3598461,5.7449444944494,0,0
82.584467477449,-14.51073518066,0.54937493749375,635777.60719454,46742.59355852,3780898.3598461,5.7493749374937,0,0
82.584467627254,-14.528264769791,0.55380538053805,635777.60719454,46742.59355852,3780898.3598461,5.7538053805381,0,0
82.58446777706,-14.545794358922,0.55823582358236,635777.60719454,46742.59355852,3780898.3598461,5.7582358235824,0,0
82.584467926865,-14.563323948053,0.56266626662666,635777.60719454,46742.59355852,3780898.3598461,5.7626662666267,0,0
82.58446807667,-14.580853537184,0.56709670967097,635777.60719454,46742.59355852,3780898.3598461,5.767096709671,0,0
82.584468226475,-14.598383126315,0.57152715271527,635777.60719454,46742.59355852,3780898.3598461,5.7715271527153,0,0
82.584468376281,-14.615912715445,0.57595759575958,635777.60719454,46742.59355852,3780898.3598461,5.7759575957596,0,0
82.584468526086,-14.633442304576,0.58038803880388,635777.60719454,46742.59355852,3780898.3598461,5.7803880388039,0,0
82.584468675891,-14.650971893707,0.58481848184818,635777.60719454,46742.59355852,3780898.3598461,5.7848184818482,0,0
82.584468825696,-14.668501482838,0.58924892489249,635777.60719454,46742.59355852,3780898.3598461,5.7892489248925,0,0
82.584468975502,-14.686031071969,0.59367936793679,635777.60719454,46742.59355852,3780898.3598461,5.7936793679368,0,0
82.584469124183,-14.703560661281,0.5981098109811,590594.5815266,-43168.208385396,3727871.6770652,5.7981098109811,0,0
82.584469271791,-14.721090250767,0.6025402540254,590594.5815266,-43168.208385396,3727871.6770652,5.8025402540254,0,0
82.584469419399,-14.738619840252,0.60697069706971,590594.5815266,-43168.208385396,3727871.6770652,5.8069706970697,0,0
82.584469567007,-14.756149429738,0.61140114011401,590594.5815266,-43168.208385396,3727871.6770652,5.811401140114,0,0
82.584469714615,-14.773679019223,0.61583158315832,590594.5815266,-43168.208385396,3727871.6770652,5.8158315831583,0,0
82.584469862223,-14.791208608708,0.62026202620262,590594.5815266,-43168.208385396,3727871.6770652,5.8202620262026,0,0
82.584470009831,-14.808738198194,0.62469246924692,590594.5815266,-43168.208385396,3727871.6770652,5.8246924692469,0,0
82.584470157439,-14.826267787679,0.62912291229123,590594.5815266,-43168.208385396,3727871.6770652,5.8291229122912,0,0
82.584470305047,-14.843797377165,0.63355335533553,590594.5815266,-43168.208385396,3727871.6770652,5.8335533553355,0,0
82.584470452655,-14.86132696665,0.63798379837984,590594.5815266,-43168.208385396,3727871.6770652,5.8379837983798,0,0
82.584470600264,-14.878856556135,0.64241424142414,590594.5815266,-43168.208385396,3727871.6770652,5.8424142414241,0,0
82.584470747872,-14.896386145621,0.64684468446845,590594.5815266,-43168.208385396,3727871.6770652,5.8468446844684,0,0
82.58447089548,-14.913915735106,0.65127512751275,590594.5815266,-43168.208385396,3727871.6770652,5.8512751275128,0,0
82.584471043088,-14.931445324592,0.65570557055706,590594.5815266,-43168.208385396,3727871.6770652,5.8557055705571,0,0
82.584471190696,-14.948974914077,0.66013601360136,590594.5815266,-43168.208385396,3727871.6770652,5.8601360136014,0,0
82.584471338304,-14.966504503562,0.66456645664566,590594.5815266,-43168.208385396,3727871.6770652,5.8645664566457,0,0
82.584471485912,-14.984034093048,0.66899689968997,590594.5815266,-43168.208385396,3727871.6770652,5.86899689969,0,0
82.58447163352,-15.001563682533,0.67342734273427,590594.5815266,-43168.208385396,3727871.6770652,5.8734273427343,0,0
82.584471781128,-15.019093272019,0.67785778577858,590594.5815266,-43168.208385396,3727871.6770652,5.8778577857786,0,0
82.584471928736,-15.036622861504,0.68228822882288,590594.5815266,-43168.208385396,3727871.6770652,5.8822882288229,0,0
82.584472076344,-15.054152450989,0.68671867186719,590594.5815266,-43168.208385396,3727871.6770652,5.8867186718672,0,0
82.584472223953,-15.071682040475,0.69114911491149,590594.5815266,-43168.208385396,3727871.6770652,5.8911491149115,0,0
82.584472376994,-15.089211631098,0.6955795579558,789106.17347901,-43081.791961868,3786144.8241438,5.8955795579558,0,0
82.584472538906,-15.106741223578,0.7000100010001,789106.17347901,-43081.791961868,3786144.8241438,5.9000100010001,0,0
82.584472700819,-15.124270816058,0.7044404440444,789106.17347901,-43081.791961868,3786144.8241438,5.9044404440444,0,0
82.584472862732,-15.141800408538,0.70887088708871,789106.17347901,-43081.791961868,3786144.8241438,5.9088708870887,0,0
82.584473024645,-15.159330001018,0.71330133013301,789106.17347901,-43081.791961868,3786144.8241438,5.913301330133,0,0
82.584473186558,-15.176859593498,0.71773177317732,789106.17347901,-43081.791961868,3786144.8241438,5.9177317731773,0,0
82.584473345239,-15.194389185543,0.72216221622162,691980.67573325,20393.139407133,3732418.4924864,5.9221622162216,0,0
82.584473500824,-15.211918777172,0.72659265926593,691980.67573325,20393.139407133,3732418.4924864,5.9265926592659,0,0
82.584473656409,-15.2294483688,0.73102310231023,691980.67573325,20393.139407133,3732418.4924864,5.9310231023102,0,0
82.584473811995,-15.246977960428,0.73545354535454,691980.67573325,20393.139407133,3732418.4924864,5.9354535453545,0,0
82.58447396758,-15.264507552057,0.73988398839884,691980.67573325,20393.139407133,3732418.4924864,5.9398839883988,0,0
82.584474123165,-15.282037143685,0.74431443144314,691980.67573325,20393.139407133,3732418.4924864,5.9443144314431,0,0
82.584474278751,-15.299566735313,0.74874487448745,691980.67573325,20393.139407133,3732418.4924864,5.9487448744874,0,0
82.584474434336,-15.317096326942,0.75317531753175,691980.67573325,20393.139407133,3732418.4924864,5.9531753175318,0,0
82.584474589921,-15.33462591857,0.75760576057606,691980.67573325,20393.139407133,3732418.4924864,5.9576057605761,0,0
82.584474745507,-15.352155510198,0.76203620362036,691980.67573325,20393.139407133,3732418.4924864,5.9620362036204,0,0
82.584474901092,-15.369685101827,0.76646664666467,691980.67573325,20393.139407133,3732418.4924864,5.9664666466647,0,0
82.584475056677,-15.387214693455,0.77089708970897,691980.67573325,20393.139407133,3732418.4924864,5.970897089709,0,0
82.584475212263,-15.404744285083,0.77532753275328,691980.67573325,20393.139407133,3732418.4924864,5.9753275327533,0,0
82.584475367848,-15.422273876712,0.77975797579758,691980.67573325,20393.139407133,3732418.4924864,5.9797579757976,0,0
82.584475523433,-15.43980346834,0.78418841884188,691980.67573325,20393.139407133,3732418.4924864,5.9841884188419,0,0
82.584475679019,-15.457333059968,0.78861886188619,691980.67573325,20393.139407133,3732418.4924864,5.9886188618862,0,0
82.584475834604,-15.474862651596,0.79304930493049,691980.67573325,20393.139407133,3732418.4924864,5.9930493049305,0,0
82.584475990189,-15.492392243225,0.7974797479748,691980.67573325,20393.139407133,3732418.4924864,5.9974797479748,0,0
82.584476145775,-15.509921834853,0.8019101910191,691980.67573325,20393.139407133,3732418.4924864,6.0019101910191,0,0
82.58447630136,-15.527451426481,0.80634063406341,691980.67573325,20393.139407133,3732418.4924864,6.0063406340634,0,0
82.584476456945,-15.54498101811,0.81077107710771,691980.67573325,20393.139407133,3732418.4924864,6.0107710771077,0,0
82.584476612531,-15.562510609738,0.81520152015201,691980.67573325,20393.139407133,3732418.4924864,6.015201520152,0,0
82.584476768116,-15.580040201366,0.81963196319632,691980.67573325,20393.139407133,3732418.4924864,6.0196319631963,0,0
82.584476923701,-15.597569792995,0.82406240624062,691980.67573325,20393.139407133,3732418.4924864,6.0240624062406,0,0
82.584477079287,-15.615099384623,0.82849284928493,691980.67573325,20393.139407133,3732418.4924864,6.0284928492849,0,0
82.584477234872,-15.632628976251,0.83292329232923,691980.67573325,20393.139407133,3732418.4924864,6.0329232923292,0,0
82.584477390457,-15.65015856788,0.83735373537354,691980.67573325,20393.139407133,3732418.4924864,6.0373537353735,0,0
82.584477546042,-15.667688159508,0.84178417841784,691980.67573325,20393.139407133,3732418.4924864,6.0417841784178,0,0
82.584477701628,-15.685217751136,0.84621462146215,691980.67573325,20393.139407133,3732418.4924864,6.0462146214621,0,0
82.584477858629,-15.702747342059,0.85064506450645,847884.86505204,24728.266048442,3753119.4785879,6.0506450645065,0,0
82.584478026116,-15.720276927754,0.85507550755076,847884.86505204,24728.266048442,3753119.4785879,6.0550755075508,0,0
82.584478193604,-15.737806513449,0.85950595059506,847884.86505204,24728.266048442,3753119.4785879,6.0595059505951,0,0
82.584478361091,-15.755336099144,0.86393639363936,847884.86505204,24728.266048442,3753119.4785879,6.0639363936394,0,0
82.584478528578,-15.772865684839,0.86836683668367,847884.86505204,24728.266048442,3753119.4785879,6.0683668366837,0,0
82.584478696065,-15.790395270534,0.87279727972797,847884.86505204,24728.266048442,3753119.4785879,6.072797279728,0,0
82.584478863552,-15.807924856229,0.87722772277228,847884.86505204,24728.266048442,3753119.4785879,6.0772277227723,0,0
82.584479031039,-15.825454441924,0.88165816581658,847884.86505204,24728.266048442,3753119.4785879,6.0816581658166,0,0
82.584479198526,-15.842984027619,0.88608860886089,847884.86505204,24728.266048442,3753119.4785879,6.0860886088609,0,0
82.584479366013,-15.860513613314,0.89051905190519,847884.86505204,24728.266048442,3753119.4785879,6.0905190519052,0,0
82.584479533501,-15.87804319901,0.8949494949495,847884.86505204,24728.266048442,3753119.4785879,6.0949494949495,0,0
82.584479700988,-15.895572784705,0.8993799379938,847884.86505204,24728.266048442,3753119.4785879,6.0993799379938,0,0
82.584479868475,-15.9131023704,0.9038103810381,847884.86505204,24728.266048442,3753119.4785879,6.1038103810381,0,0
82.584480035962,-15.930631956095,0.90824082408241,847884.86505204,24728.266048442,3753119.4785879,6.1082408240824,0,0
82.584480203449,-15.94816154179,0.91267126712671,847884.86505204,24728.266048442,3753119.4785879,6.1126712671267,0,0
82.584480370936,-15.965691127485,0.91710171017102,847884.86505204,24728.266048442,3753119.4785879,6.117101710171,0,0
82.584480538423,-15.98322071318,0.92153215321532,847884.86505204,24728.266048442,3753119.4785879,6.1215321532153,0,0
82.58448070591,-16.000750298875,0.92596259625963,847884.86505204,24728.266048442,3753119.4785879,6.1259625962596,0,0
82.584480873398,-16.01827988457,0.93039303930393,847884.86505204,24728.266048442,3753119.4785879,6.1303930393039,0,0
82.584481040885,-16.035809470265,0.93482348234823,847884.86505204,24728.266048442,3753119.4785879,6.1348234823482,0,0
82.584481209567,-16.053339057107,0.93925392539254,911511.17801701,16443.579436327,3729782.5706923,6.1392539253925,0,0
82.584481382757,-16.070868648275,0.94368436843684,911511.17801701,16443.579436327,3729782.5706923,6.1436843684368,0,0
82.584481555948,-16.088398239443,0.94811481148115,911511.17801701,16443.579436327,3729782.5706923,6.1481148114811,0,0
82.584481729139,-16.105927830611,0.95254525452545,911511.17801701,16443.579436327,3729782.5706923,6.1525452545255,0,0
82.584481902329,-16.123457421779,0.95697569756976,911511.17801701,16443.579436327,3729782.5706923,6.1569756975698,0,0
82.58448207552,-16.140987012947,0.96140614061406,911511.17801701,16443.579436327,3729782.5706923,6.1614061406141,0,0
82.584482248711,-16.158516604114,0.96583658365837,911511.17801701,16443.579436327,3729782.5706923,6.1658365836584,0,0
82.584482421902,-16.176046195282,0.97026702670267,911511.17801701,16443.579436327,3729782.5706923,6.1702670267027,0,0
82.584482595092,-16.19357578645,0.97469746974697,911511.17801701,16443.579436327,3729782.5706923,6.174697469747,0,0
82.584482768283,-16.211105377618,0.97912791279128,911511.17801701,16443.579436327,3729782.5706923,6.1791279127913,0,0
82.584482941474,-16.228634968786,0.98355835583558,911511.17801701,16443.579436327,3729782.5706923,6.1835583558356,0,0
82.584483114664,-16.246164559954,0.98798879887989,911511.17801701,16443.579436327,3729782.5706923,6.1879887988799,0,0
82.584483287855,-16.263694151122,0.99241924192419,911511.17801701,16443.579436327,3729782.5706923,6.1924192419242,0,0
82.584483461046,-16.28122374229,0.9968496849685,911511.17801701,16443.579436327,3729782.5706923,6.1968496849685,0,0
82.584483634236,-16.298753333458,1.0012801280128,911511.17801701,16443.579436327,3729782.5706923,6.2012801280128,0,0
82.584483807427,-16.316282924625,1.0057105710571,911511.17801701,16443.579436327,3729782.5706923,6.2057105710571,0,0
82.584483980618,-16.333812515793,1.0101410141014,911511.17801701,16443.579436327,3729782.5706923,6.2101410141014,0,0
82.584484153808,-16.351342106961,1.0145714571457,911511.17801701,16443.579436327,3729782.5706923,6.2145714571457,0,0
82.584484326999,-16.368871698129,1.01900190019,911511.17801701,16443.579436327,3729782.5706923,6.21900190019,0,0
82.58448450019,-16.386401289297,1.0234323432343,911511.17801701,16443.579436327,3729782.5706923,6.2234323432343,0,0
82.58448467338,-16.403930880465,1.0278627862786,911511.17801701,16443.579436327,3729782.5706923,6.2278627862786,0,0
82.584484846571,-16.421460471633,1.0322932293229,911511.17801701,16443.579436327,3729782.5706923,6.2322932293229,0,0
82.584485019762,-16.438990062801,1.0367236723672,911511.17801701,16443.579436327,3729782.5706923,6.2367236723672,0,0
82.584485192952,-16.456519653969,1.0411541154115,911511.17801701,16443.579436327,3729782.5706923,6.2411541154115,0,0
82.584485366143,-16.474049245136,1.0455845584558,911511.17801701,16443.579436327,3729782.5706923,6.2455845584558,0,0
82.584485539334,-16.491578836304,1.0500150015002,911511.17801701,16443.579436327,3729782.5706923,6.2500150015002,0,0
82.584485712524,-16.509108427472,1.0544454445445,911511.17801701,16443.579436327,3729782.5706923,6.2544454445445,0,0
82.584485885715,-16.52663801864,1.0588758875888,911511.17801701,16443.579436327,3729782.5706923,6.2588758875888,0,0
82.584486058906,-16.544167609808,1.0633063306331,911511.17801701,16443.579436327,3729782.5706924,6.2633063306331,0,0
82.584486232096,-16.561697200976,1.0677367736774,911511.17801701,16443.579436327,3729782.5706924,6.2677367736774,0,0
82.584486405287,-16.579226792144,1.0721672167217,911511.17801701,16443.579436327,3729782.5706924,6.2721672167217,0,0
82.584486578478,-16.596756383312,1.076597659766,911511.17801701,16443.579436327,3729782.5706924,6.276597659766,0,0
82.584486751668,-16.61428597448,1.0810281028103,911511.17801701,16443.579436327,3729782.5706924,6.2810281028103,0,0
82.584486924859,-16.631815565647,1.0854585458546,911511.17801701,16443.579436327,3729782.5706924,6.2854585458546,0,0
82.58448709805,-16.649345156815,1.0898889888989,911511.17801701,16443.579436327,3729782.5706924,6.2898889888989,0,0
82.58448727124,-16.666874747983,1.0943194319432,911511.17801701,16443.579436327,3729782.5706924,6.2943194319432,0,0
82.584487444431,-16.684404339151,1.0987498749875,911511.17801701,16443.579436327,3729782.5706924,6.2987498749875,0,0
82.584487617622,-16.701933930319,1.1031803180318,911511.17801701,16443.579436327,3729782.5706924,6.3031803180318,0,0
82.584487795709,-16.719463516855,1.1076107610761,970698.29878592,23434.571949394,3707546.7214459,6.3076107610761,0,0
82.584487974219,-16.73699310299,1.1120412041204,970698.29878592,23434.571949394,3707546.7214459,6.3120412041204,0,0
82.58448815273,-16.754522689126,1.1164716471647,970698.29878592,23434.571949394,3707546.7214459,6.3164716471647,0,0
82.58448833124,-16.772052275261,1.120902090209,970698.29878592,23434.571949394,3707546.7214459,6.320902090209,0,0
82.58448850975,-16.789581861397,1.1253325332533,970698.29878592,23434.571949394,3707546.7214459,6.3253325332533,0,0
82.584488688261,-16.807111447532,1.1297629762976,970698.29878592,23434.571949394,3707546.7214459,6.3297629762976,0,0
82.584488866771,-16.824641033668,1.1341934193419,970698.29878592,23434.571949394,3707546.7214459,6.3341934193419,0,0
82.584489045281,-16.842170619803,1.1386238623862,970698.29878592,23434.571949394,3707546.7214459,6.3386238623862,0,0
82.584489223792,-16.859700205939,1.1430543054305,970698.29878592,23434.571949394,3707546.7214459,6.3430543054305,0,0
82.584489402302,-16.877229792074,1.1474847484748,970698.29878592,23434.571949394,3707546.7214459,6.3474847484748,0,0
82.584489580812,-16.89475937821,1.1519151915192,970698.29878592,23434.571949394,3707546.7214459,6.3519151915192,0,0
82.584489759323,-16.912288964345,1.1563456345635,970698.29878592,23434.571949394,3707546.7214459,6.3563456345635,0,0
82.584489937833,-16.929818550481,1.1607760776078,970698.29878592,23434.571949394,3707546.7214459,6.3607760776078,0,0
82.584490116343,-16.947348136616,1.1652065206521,970698.29878592,23434.571949394,3707546.7214459,6.3652065206521,0,0
82.584490294854,-16.964877722752,1.1696369636964,970698.29878592,23434.571949394,3707546.7214459,6.3696369636964,0,0
82.584490473364,-16.982407308887,1.1740674067407,970698.29878592,23434.571949394,3707546.7214458,6.3740674067407,0,0
82.584490651874,-16.999936895023,1.178497849785,970698.29878592,23434.571949394,3707546.7214458,6.378497849785,0,0
82.584490830385,-17.017466481158,1.1829282928293,970698.29878592,23434.571949394,3707546.7214458,6.3829282928293,0,0
82.584491008895,-17.034996067294,1.1873587358736,970698.29878592,23434.571949394,3707546.7214458,6.3873587358736,0,0
82.584491189333,-17.05252565509,1.1917891789179,1062170.1045943,10722.945448833,3696621.8758175,6.3917891789179,0,0
82.584491375441,-17.070055247772,1.1962196219622,1062170.1045943,10722.945448833,3696621.8758175,6.3962196219622,0,0
82.584491561548,-17.087584840454,1.2006500650065,1062170.1045943,10722.945448833,3696621.8758175,6.4006500650065,0,0
82.584491747656,-17.105114433136,1.2050805080508,1062170.1045943,10722.945448833,3696621.8758175,6.4050805080508,0,0
82.584491933763,-17.122644025818,1.2095109510951,1062170.1045943,10722.945448833,3696621.8758175,6.4095109510951,0,0
82.584492119871,-17.140173618501,1.2139413941394,1062170.1045943,10722.945448833,3696621.8758175,6.4139413941394,0,0
82.584492305979,-17.157703211183,1.2183718371837,1062170.1045943,10722.945448833,3696621.8758175,6.4183718371837,0,0
82.584492492086,-17.175232803865,1.222802280228,1062170.1045943,10722.945448833,3696621.8758175,6.422802280228,0,0
82.584492678194,-17.192762396547,1.2272327232723,1062170.1045943,10722.945448833,3696621.8758175,6.4272327232723,0,0
82.584492864301,-17.210291989229,1.2316631663166,1062170.1045943,10722.945448833,3696621.8758175,6.4316631663166,0,0
82.584493050409,-17.227821581911,1.2360936093609,1062170.1045943,10722.945448833,3696621.8758175,6.4360936093609,0,0
82.584493236517,-17.245351174593,1.2405240524052,1062170.1045943,10722.945448833,3696621.8758175,6.4405240524052,0,0
82.584493422624,-17.262880767275,1.2449544954495,1062170.1045943,10722.945448833,3696621.8758175,6.4449544954495,0,0
82.584493608732,-17.280410359957,1.2493849384938,1062170.1045943,10722.945448833,3696621.8758175,6.4493849384938,0,0
82.584493794839,-17.297939952639,1.2538153815382,1062170.1045943,10722.945448833,3696621.8758175,6.4538153815382,0,0
82.584493980947,-17.315469545321,1.2582458245825,1062170.1045943,10722.945448833,3696621.8758175,6.4582458245825,0,0
82.584494167054,-17.332999138004,1.2626762676268,1062170.1045943,10722.945448833,3696621.8758175,6.4626762676268,0,0
82.584494353162,-17.350528730686,1.2671067106711,1062170.1045943,10722.945448833,3696621.8758175,6.4671067106711,0,0
82.58449453927,-17.368058323368,1.2715371537154,1062170.1045943,10722.945448833,3696621.8758175,6.4715371537154,0,0
82.584494725377,-17.38558791605,1.2759675967597,1062170.1045943,10722.945448833,3696621.8758175,6.4759675967597,0,0
82.584494911485,-17.403117508732,1.280398039804,1062170.1045943,10722.945448833,3696621.8758175,6.480398039804,0,0
82.584495097592,-17.420647101414,1.2848284828483,1062170.1045943,10722.945448833,3696621.8758175,6.4848284828483,0,0
82.5844952837,-17.438176694096,1.2892589258926,1062170.1045943,10722.945448833,3696621.8758175,6.4892589258926,0,0
82.584495469808,-17.455706286778,1.2936893689369,1062170.1045943,10722.945448833,3696621.8758175,6.4936893689369,0,0
82.584495655915,-17.47323587946,1.2981198119812,1062170.1045943,10722.945448833,3696621.8758175,6.4981198119812,0,0
82.584495842023,-17.490765472142,1.3025502550255,1062170.1045943,10722.945448833,3696621.8758175,6.5025502550255,0,0
82.58449602813,-17.508295064824,1.3069806980698,1062170.1045943,10722.945448833,3696621.8758175,6.5069806980698,0,0
82.584496214238,-17.525824657507,1.3114111411141,1062170.1045943,10722.945448833,3696621.8758175,6.5114111411141,0,0
82.584496400346,-17.543354250189,1.3158415841584,1062170.1045943,10722.945448833,3696621.8758175,6.5158415841584,0,0
82.584496586453,-17.560883842871,1.3202720272027,1062170.1045943,10722.945448833,3696621.8758175,6.5202720272027,0,0
82.584496772561,-17.578413435553,1.324702470247,1062170.1045943,10722.945448833,3696621.8758175,6.524702470247,0,0
82.584496958668,-17.595943028235,1.3291329132913,1062170.1045943,10722.945448833,3696621.8758175,6.5291329132913,0,0
82.584497144776,-17.613472620917,1.3335633563356,1062170.1045943,10722.945448833,3696621.8758175,6.5335633563356,0,0
82.584497330883,-17.631002213599,1.3379937993799,1062170.1045943,10722.945448833,3696621.8758175,6.5379937993799,0,0
82.584497516991,-17.648531806281,1.3424242424242,1062170.1045943,10722.945448833,3696621.8758175,6.5424242424242,0,0
82.584497703222,-17.666061398856,1.3468546854685,1157316.6407766,23383.465149891,3681209.6351946,6.5468546854685,0,0
82.58449789734,-17.683590984535,1.3512851285129,1157316.6407766,23383.465149891,3681209.6351946,6.5512851285129,0,0
82.584498091458,-17.701120570214,1.3557155715572,1157316.6407766,23383.465149891,3681209.6351946,6.5557155715572,0,0
82.584498285575,-17.718650155894,1.3601460146015,1157316.6407766,23383.465149891,3681209.6351946,6.5601460146015,0,0
82.584498479693,-17.736179741573,1.3645764576458,1157316.6407766,23383.465149891,3681209.6351946,6.5645764576458,0,0
82.584498673811,-17.753709327253,1.3690069006901,1157316.6407766,23383.465149891,3681209.6351946,6.5690069006901,0,0
82.584498867929,-17.771238912932,1.3734373437344,1157316.6407766,23383.465149891,3681209.6351946,6.5734373437344,0,0
82.584499062047,-17.788768498611,1.3778677867787,1157316.6407766,23383.465149891,3681209.6351946,6.5778677867787,0,0
82.584499256165,-17.806298084291,1.382298229823,1157316.6407766,23383.465149891,3681209.6351946,6.582298229823,0,0
82.584499450282,-17.82382766997,1.3867286728673,1157316.6407766,23383.465149891,3681209.6351946,6.5867286728673,0,0
82.5844996444,-17.841357255649,1.3911591159116,1157316.6407766,23383.465149891,3681209.6351946,6.5911591159116,0,0
82.584499838518,-17.858886841329,1.3955895589559,1157316.6407766,23383.465149891,3681209.6351946,6.5955895589559,0,0
82.584500032636,-17.876416427008,1.4000200020002,1157316.6407766,23383.465149891,3681209.6351946,6.6000200020002,0,0
82.584500226754,-17.893946012688,1.4044504450445,1157316.6407766,23383.465149891,3681209.6351946,6.6044504450445,0,0
82.584500420872,-17.911475598367,1.4088808880888,1157316.6407766,23383.465149891,3681209.6351946,6.6088808880888,0,0
82.58450061499,-17.929005184046,1.4133113311331,1157316.6407766,23383.465149891,3681209.6351946,6.6133113311331,0,0
82.584500809107,-17.946534769726,1.4177417741774,1157316.6407766,23383.465149891,3681209.6351946,6.6177417741774,0,0
82.584501003225,-17.964064355405,1.4221722172217,1157316.6407766,23383.465149891,3681209.6351946,6.6221722172217,0,0
82.584501197343,-17.981593941085,1.426602660266,1157316.6407766,23383.465149891,3681209.6351946,6.626602660266,0,0
82.584501391461,-17.999123526764,1.4310331033103,1157316.6407766,23383.465149891,3681209.6351946,6.6310331033103,0,0
82.584501585579,-18.016653112443,1.4354635463546,1157316.6407766,23383.465149891,3681209.6351946,6.6354635463546,0,0
82.584501779697,-18.034182698123,1.4398939893989,1157316.6407766,23383.465149891,3681209.6351946,6.6398939893989,0,0
82.584501973814,-18.051712283802,1.4443244324432,1157316.6407766,23383.465149891,3681209.6351946,6.6443244324432,0,0
82.584502168769,-18.069241871111,1.4487548754875,1192784.879529,-2459.1931816077,3637474.2145676,6.6487548754875,0,0
82.584502366885,-18.086771464574,1.4531853185319,1192784.879529,-2459.1931816077,3637474.2145676,6.6531853185319,0,0
82.584502565,-18.104301058037,1.4576157615762,1192784.879529,-2459.1931816077,3637474.2145676,6.6576157615762,0,0
82.584502763115,-18.1218306515,1.4620462046205,1192784.879529,-2459.1931816077,3637474.2145676,6.6620462046205,0,0
82.584502961231,-18.139360244963,1.4664766476648,1192784.879529,-2459.1931816077,3637474.2145676,6.6664766476648,0,0
82.584503159346,-18.156889838426,1.4709070907091,1192784.879529,-2459.1931816077,3637474.2145676,6.6709070907091,0,0
82.584503357461,-18.174419431889,1.4753375337534,1192784.879529,-2459.1931816077,3637474.2145676,6.6753375337534,0,0
82.584503555577,-18.191949025352,1.4797679767977,1192784.879529,-2459.1931816077,3637474.2145676,6.6797679767977,0,0
82.584503753692,-18.209478618815,1.484198419842,1192784.879529,-2459.1931816077,3637474.2145676,6.684198419842,0,0
82.584503951807,-18.227008212278,1.4886288628863,1192784.879529,-2459.1931816077,3637474.2145676,6.6886288628863,0,0
82.584504149923,-18.244537805741,1.4930593059306,1192784.879529,-2459.1931816077,3637474.2145676,6.6930593059306,0,0
82.584504348038,-18.262067399205,1.4974897489749,1192784.879529,-2459.1931816077,3637474.2145676,6.6974897489749,0,0
82.584504546154,-18.279596992668,1.5019201920192,1192784.879529,-2459.1931816077,3637474.2145676,6.7019201920192,0,0
82.584504744269,-18.297126586131,1.5063506350635,1192784.879529,-2459.1931816077,3637474.2145676,6.7063506350635,0,0
82.584504942384,-18.314656179594,1.5107810781078,1192784.879529,-2459.1931816077,3637474.2145676,6.7107810781078,0,0
82.5845051405,-18.332185773057,1.5152115211521,1192784.879529,-2459.1931816077,3637474.2145676,6.7152115211521,0,0
82.584505338615,-18.34971536652,1.5196419641964,1192784.879529,-2459.1931816077,3637474.2145676,6.7196419641964,0,0
82.58450553673,-18.367244959983,1.5240724072407,1192784.879529,-2459.1931816077,3637474.2145676,6.7240724072407,0,0
82.584505734846,-18.384774553446,1.528502850285,1192784.879529,-2459.1931816077,3637474.2145676,6.728502850285,0,0
82.584505932961,-18.402304146909,1.5329332933293,1192784.879529,-2459.1931816077,3637474.2145676,6.7329332933293,0,0
82.584506131076,-18.419833740372,1.5373637363736,1192784.879529,-2459.1931816077,3637474.2145676,6.7373637363736,0,0
82.584506329192,-18.437363333835,1.5417941794179,1192784.879529,-2459.1931816077,3637474.2145676,6.7417941794179,0,0
82.584506527307,-18.454892927298,1.5462246224622,1192784.879529,-2459.1931816077,3637474.2145676,6.7462246224622,0,0
82.584506725423,-18.472422520761,1.5506550655066,1192784.879529,-2459.1931816077,3637474.2145676,6.7506550655066,0,0
82.584506923538,-18.489952114224,1.5550855085509,1192784.879529,-2459.1931816077,3637474.2145676,6.7550855085509,0,0
82.584507121653,-18.507481707687,1.5595159515952,1192784.879529,-2459.1931816077,3637474.2145676,6.7595159515952,0,0
82.584507319769,-18.52501130115,1.5639463946395,1192784.879529,-2459.1931816077,3637474.2145676,6.7639463946395,0,0
82.584507517884,-18.542540894613,1.5683768376838,1192784.879529,-2459.1931816077,3637474.2145676,6.7683768376838,0,0
82.584507715999,-18.560070488077,1.5728072807281,1192784.879529,-2459.1931816077,3637474.2145676,6.7728072807281,0,0
82.584507914115,-18.57760008154,1.5772377237724,1192784.879529,-2459.1931816077,3637474.2145676,6.7772377237724,0,0
82.58450811223,-18.595129675003,1.5816681668167,1192784.879529,-2459.1931816077,3637474.2145676,6.7816681668167,0,0
82.584508310345,-18.612659268466,1.586098609861,1192784.879529,-2459.1931816077,3637474.2145676,6.786098609861,0,0
82.584508508461,-18.630188861929,1.5905290529053,1192784.879529,-2459.1931816077,3637474.2145676,6.7905290529053,0,0
82.584508706576,-18.647718455392,1.5949594959496,1192784.879529,-2459.1931816077,3637474.2145676,6.7949594959496,0,0
82.584508904692,-18.665248048855,1.5993899389939,1192784.879529,-2459.1931816077,3637474.2145676,6.7993899389939,0,0
82.584509102807,-18.682777642318,1.6038203820382,1192784.879529,-2459.1931816077,3637474.2145676,6.8038203820382,0,0
82.584509310941,-18.700307230029,1.6082508250825,1346090.4372687,2652.3918154452,3646905.916471,6.8082508250825,0,0
82.584509521051,-18.717836816606,1.6126812681268,1346090.4372687,2652.3918154452,3646905.916471,6.8126812681268,0,0
82.58450973116,-18.735366403183,1.6171117111711,1346090.4372687,2652.3918154452,3646905.916471,6.8171117111711,0,0
82.58450994127,-18.75289598976,1.6215421542154,1346090.4372687,2652.3918154452,3646905.916471,6.8215421542154,0,0
82.584510151379,-18.770425576337,1.6259725972597,1346090.4372687,2652.3918154452,3646905.916471,6.8259725972597,0,0
82.584510361489,-18.787955162913,1.630403040304,1346090.4372687,2652.3918154452,3646905.916471,6.830403040304,0,0
82.584510571599,-18.80548474949,1.6348334833483,1346090.4372687,2652.3918154452,3646905.916471,6.8348334833483,0,0
82.584510781708,-18.823014336067,1.6392639263926,1346090.4372687,2652.3918154452,3646905.916471,6.8392639263926,0,0
82.584510991818,-18.840543922644,1.6436943694369,1346090.4372687,2652.3918154452,3646905.916471,6.8436943694369,0,0
82.584511201928,-18.858073509221,1.6481248124812,1346090.4372687,2652.3918154452,3646905.916471,6.8481248124812,0,0
82.584511412037,-18.875603095798,1.6525552555256,1346090.4372687,2652.3918154452,3646905.916471,6.8525552555256,0,0
82.584511622147,-18.893132682375,1.6569856985699,1346090.4372687,2652.3918154452,3646905.916471,6.8569856985699,0,0
82.584511832257,-18.910662268951,1.6614161416142,1346090.4372687,2652.3918154452,3646905.916471,6.8614161416142,0,0
82.584512042366,-18.928191855528,1.6658465846585,1346090.4372687,2652.3918154452,3646905.916471,6.8658465846585,0,0
82.584512252476,-18.945721442105,1.6702770277028,1346090.4372687,2652.3918154452,3646905.916471,6.8702770277028,0,0
82.584512462586,-18.963251028682,1.6747074707471,1346090.4372687,2652.3918154452,3646905.916471,6.8747074707471,0,0
82.584512672695,-18.980780615259,1.6791379137914,1346090.4372687,2652.3918154452,3646905.916471,6.8791379137914,0,0
82.584512882805,-18.998310201836,1.6835683568357,1346090.4372687,2652.3918154452,3646905.916471,6.8835683568357,0,0
82.584513092914,-19.015839788413,1.68799879988,1346090.4372687,2652.3918154452,3646905.916471,6.88799879988,0,0
82.584513303024,-19.033369374989,1.6924292429243,1346090.4372687,2652.3918154452,3646905.916471,6.8924292429243,0,0
82.584513513134,-19.050898961566,1.6968596859686,1346090.4372687,2652.3918154452,3646905.916471,6.8968596859686,0,0
82.584513723243,-19.068428548143,1.7012901290129,1346090.4372687,2652.3918154452,3646905.916471,6.9012901290129,0,0
82.584513933353,-19.08595813472,1.7057205720572,1346090.4372687,2652.3918154452,3646905.916471,6.9057205720572,0,0
82.584514143463,-19.103487721297,1.7101510151015,1346090.4372687,2652.3918154452,3646905.916471,6.9101510151015,0,0
82.584514353572,-19.121017307874,1.7145814581458,1346090.4372687,2652.3918154452,3646905.916471,6.9145814581458,0,0
82.584514563682,-19.138546894451,1.7190119011901,1346090.4372687,2652.3918154452,3646905.916471,6.9190119011901,0,0
82.584514773792,-19.156076481027,1.7234423442344,1346090.4372687,2652.3918154452,3646905.916471,6.9234423442344,0,0
82.584514983901,-19.173606067604,1.7278727872787,1346090.4372687,2652.3918154452,3646905.916471,6.9278727872787,0,0
82.584515194011,-19.191135654181,1.732303230323,1346090.4372687,2652.3918154452,3646905.916471,6.932303230323,0,0
82.584515404121,-19.208665240758,1.7367336733673,1346090.4372687,2652.3918154452,3646905.916471,6.9367336733673,0,0
82.58451561423,-19.226194827335,1.7411641164116,1346090.4372687,2652.3918154452,3646905.916471,6.9411641164116,0,0
82.58451582434,-19.243724413912,1.7455945594559,1346090.4372687,2652.3918154452,3646905.916471,6.9455945594559,0,0
82.584516034449,-19.261254000489,1.7500250025002,1346090.4372687,2652.3918154452,3646905.916471,6.9500250025002,0,0
82.584516244559,-19.278783587065,1.7544554455446,1346090.4372687,2652.3918154452,3646905.916471,6.9544554455446,0,0
82.584516454669,-19.296313173642,1.7588858885889,1346090.4372687,2652.3918154452,3646905.916471,6.9588858885889,0,0
82.584516667637,-19.313842766592,1.7633163316332,1376019.4737665,-26912.266043837,3590675.8838587,6.9633163316332,0,0
82.584516881634,-19.331372361838,1.7677467746775,1376019.4737665,-26912.266043837,3590675.8838587,6.9677467746775,0,0
82.584517095631,-19.348901957084,1.7721772177218,1376019.4737665,-26912.266043837,3590675.8838587,6.9721772177218,0,0
82.584517309629,-19.36643155233,1.7766076607661,1376019.4737665,-26912.266043837,3590675.8838587,6.9766076607661,0,0
82.584517523626,-19.383961147576,1.7810381038104,1376019.4737665,-26912.266043837,3590675.8838587,6.9810381038104,0,0
82.584517737624,-19.401490742822,1.7854685468547,1376019.4737665,-26912.266043837,3590675.8838587,6.9854685468547,0,0
82.584517951621,-19.419020338067,1.789898989899,1376019.4737665,-26912.266043837,3590675.8838587,6.989898989899,0,0
82.584518165618,-19.436549933313,1.7943294329433,1376019.4737665,-26912.266043837,3590675.8838587,6.9943294329433,0,0
82.584518379616,-19.454079528559,1.7987598759876,1376019.4737665,-26912.266043837,3590675.8838587,6.9987598759876,0,0
82.584518593613,-19.471609123805,1.8031903190319,1376019.4737665,-26912.266043837,3590675.8838587,7.0031903190319,0,0
82.584518807611,-19.489138719051,1.8076207620762,1376019.4737665,-26912.266043837,3590675.8838587,7.0076207620762,0,0
82.584519021608,-19.506668314296,1.8120512051205,1376019.4737665,-26912.266043837,3590675.8838587,7.0120512051205,0,0
82.584519235605,-19.524197909542,1.8164816481648,1376019.4737665,-26912.266043837,3590675.8838587,7.0164816481648,0,0
82.584519449603,-19.541727504788,1.8209120912091,1376019.4737665,-26912.266043837,3590675.8838587,7.0209120912091,0,0
82.5845196636,-19.559257100034,1.8253425342534,1376019.4737665,-26912.266043837,3590675.8838587,7.0253425342534,0,0
82.584519877597,-19.57678669528,1.8297729772977,1376019.4737665,-26912.266043837,3590675.8838587,7.0297729772977,0,0
82.584520091595,-19.594316290526,1.834203420342,1376019.4737665,-26912.266043837,3590675.8838587,7.034203420342,0,0
82.584520305592,-19.611845885771,1.8386338633863,1376019.4737665,-26912.266043837,3590675.8838587,7.0386338633863,0,0
82.58452051959,-19.629375481017,1.8430643064306,1376019.4737665,-26912.266043837,3590675.8838587,7.0430643064306,0,0
82.584520733587,-19.646905076263,1.8474947494749,1376019.4737665,-26912.266043837,3590675.8838587,7.0474947494749,0,0
82.584520947584,-19.664434671509,1.8519251925193,1376019.4737665,-26912.266043837,3590675.8838587,7.0519251925193,0,0
82.584521161582,-19.681964266755,1.8563556355636,1376019.4737665,-26912.266043837,3590675.8838587,7.0563556355636,0,0
82.584521375579,-19.699493862,1.8607860786079,1376019.4737665,-26912.266043837,3590675.8838587,7.0607860786079,0,0
82.584521589577,-19.717023457246,1.8652165216522,1376019.4737665,-26912.266043837,3590675.8838587,7.0652165216522,0,0
82.584521803574,-19.734553052492,1.8696469646965,1376019.4737665,-26912.266043837,3590675.8838587,7.0696469646965,0,0
82.584522017571,-19.752082647738,1.8740774077408,1376019.4737665,-26912.266043837,3590675.8838587,7.0740774077408,0,0
82.584522231569,-19.769612242984,1.8785078507851,1376019.4737665,-26912.266043837,3590675.8838587,7.0785078507851,0,0
82.584522445566,-19.78714183823,1.8829382938294,1376019.4737665,-26912.266043837,3590675.8838587,7.0829382938294,0,0
82.584522659564,-19.804671433475,1.8873687368737,1376019.4737665,-26912.266043837,3590675.8838587,7.0873687368737,0,0
82.584522873561,-19.822201028721,1.891799179918,1376019.4737665,-26912.266043837,3590675.8838587,7.091799179918,0,0
82.584523096382,-19.839730615174,1.8962296229623,1481736.4594614,-6215.8185141926,3568628.6818895,7.0962296229623,0,0
82.584523319411,-19.85726020142,1.9006600660066,1481736.4594614,-6215.8185141926,3568628.6818895,7.1006600660066,0,0
82.584523542439,-19.874789787665,1.9050905090509,1481736.4594614,-6215.8185141926,3568628.6818895,7.1050905090509,0,0
82.584523765468,-19.892319373911,1.9095209520952,1481736.4594614,-6215.8185141926,3568628.6818895,7.1095209520952,0,0
82.584523988496,-19.909848960157,1.9139513951395,1481736.4594614,-6215.8185141926,3568628.6818895,7.1139513951395,0,0
82.584524211525,-19.927378546403,1.9183818381838,1481736.4594614,-6215.8185141926,3568628.6818895,7.1183818381838,0,0
82.584524434554,-19.944908132649,1.9228122812281,1481736.4594614,-6215.8185141926,3568628.6818895,7.1228122812281,0,0
82.584524657582,-19.962437718894,1.9272427242724,1481736.4594614,-6215.8185141926,3568628.6818895,7.1272427242724,0,0
82.584524880611,-19.97996730514,1.9316731673167,1481736.4594614,-6215.8185141926,3568628.6818895,7.1316731673167,0,0
82.58452510364,-19.997496891386,1.936103610361,1481736.4594614,-6215.8185141926,3568628.6818895,7.136103610361,0,0
82.584525326668,-20.015026477632,1.9405340534053,1481736.4594614,-6215.8185141926,3568628.6818895,7.1405340534053,0,0
82.584525549697,-20.032556063877,1.9449644964496,1481736.4594614,-6215.8185141926,3568628.6818895,7.1449644964496,0,0
82.584525772725,-20.050085650123,1.9493949394939,1481736.4594614,-6215.8185141926,3568628.6818895,7.1493949394939,0,0
82.584525995754,-20.067615236369,1.9538253825383,1481736.4594614,-6215.8185141926,3568628.6818895,7.1538253825383,0,0
82.584526218783,-20.085144822615,1.9582558255826,1481736.4594614,-6215.8185141926,3568628.6818895,7.1582558255826,0,0
82.584526441811,-20.102674408861,1.9626862686269,1481736.4594614,-6215.8185141926,3568628.6818895,7.1626862686269,0,0
82.58452666484,-20.120203995106,1.9671167116712,1481736.4594614,-6215.8185141926,3568628.6818895,7.1671167116712,0,0
82.584526887869,-20.137733581352,1.9715471547155,1481736.4594614,-6215.8185141926,3568628.6818895,7.1715471547155,0,0
82.584527110897,-20.155263167598,1.9759775977598,1481736.4594614,-6215.8185141926,3568628.6818895,7.1759775977598,0,0
82.584527333926,-20.172792753844,1.9804080408041,1481736.4594614,-6215.8185141926,3568628.6818895,7.1804080408041,0,0
82.584527556954,-20.19032234009,1.9848384838484,1481736.4594614,-6215.8185141926,3568628.6818895,7.1848384838484,0,0
82.584527779983,-20.207851926335,1.9892689268927,1481736.4594614,-6215.8185141926,3568628.6818895,7.1892689268927,0,0
82.584528003012,-20.225381512581,1.993699369937,1481736.4594614,-6215.8185141926,3568628.6818895,7.193699369937,0,0
82.58452822604,-20.242911098827,1.9981298129813,1481736.4594614,-6215.8185141926,3568628.6818895,7.1981298129813,0,0
82.584528449069,-20.260440685073,2.0025602560256,1481736.4594614,-6215.8185141926,3568628.6818895,7.2025602560256,0,0
82.584528672098,-20.277970271318,2.0069906990699,1481736.4594614,-6215.8185141926,3568628.6818895,7.2069906990699,0,0
82.584528895126,-20.295499857564,2.0114211421142,1481736.4594614,-6215.8185141926,3568628.6818895,7.2114211421142,0,0
82.584529118155,-20.31302944381,2.0158515851585,1481736.4594614,-6215.8185141926,3568628.6818895,7.2158515851585,0,0
82.584529341183,-20.330559030056,2.0202820282028,1481736.4594614,-6215.8185141926,3568628.6818895,7.2202820282028,0,0
82.584529564212,-20.348088616302,2.0247124712471,1481736.4594614,-6215.8185141926,3568628.6818895,7.2247124712471,0,0
82.584529787241,-20.365618202547,2.0291429142914,1481736.4594614,-6215.8185141926,3568628.6818895,7.2291429142914,0,0
82.584530010269,-20.383147788793,2.0335733573357,1481736.4594614,-6215.8185141926,3568628.6818895,7.2335733573357,0,0
82.584530233298,-20.400677375039,2.03800380038,1481736.4594614,-6215.8185141926,3568628.6818895,7.23800380038,0,0
82.584530456327,-20.418206961285,2.0424342434243,1481736.4594614,-6215.8185141926,3568628.6818895,7.2424342434243,0,0
82.584530679355,-20.435736547531,2.0468646864686,1481736.4594614,-6215.8185141926,3568628.6818896,7.2468646864686,0,0
82.584530902384,-20.453266133776,2.051295129513,1481736.4594614,-6215.8185141926,3568628.6818896,7.251295129513,0,0
82.584531125413,-20.470795720022,2.0557255725573,1481736.4594614,-6215.8185141926,3568628.6818896,7.2557255725573,0,0
82.584531348441,-20.488325306268,2.0601560156016,1481736.4594614,-6215.8185141926,3568628.6818896,7.2601560156016,0,0
82.58453157147,-20.505854892514,2.0645864586459,1481736.4594614,-6215.8185141926,3568628.6818896,7.2645864586459,0,0
82.584531794498,-20.523384478759,2.0690169016902,1481736.4594614,-6215.8185141926,3568628.6818896,7.2690169016902,0,0
82.584532017527,-20.540914065005,2.0734473447345,1481736.4594614,-6215.8185141926,3568628.6818896,7.2734473447345,0,0
82.584532240556,-20.558443651251,2.0778777877788,1481736.4594614,-6215.8185141926,3568628.6818896,7.2778777877788,0,0
82.584532463584,-20.575973237497,2.0823082308231,1481736.4594614,-6215.8185141926,3568628.6818896,7.2823082308231,0,0
82.584532686613,-20.593502823743,2.0867386738674,1481736.4594614,-6215.8185141926,3568628.6818896,7.2867386738674,0,0
82.584532909642,-20.611032409988,2.0911691169117,1481736.4594614,-6215.8185141926,3568628.6818896,7.2911691169117,0,0
82.58453313267,-20.628561996234,2.095599559956,1481736.4594614,-6215.8185141926,3568628.6818896,7.295599559956,0,0
82.584533355699,-20.64609158248,2.1000300030003,1481736.4594614,-6215.8185141926,3568628.6818896,7.3000300030003,0,0
82.584533578727,-20.663621168726,2.1044604460446,1481736.4594614,-6215.8185141926,3568628.6818896,7.3044604460446,0,0
82.584533807995,-20.681150759911,2.1088908890889,1619931.7308997,-22860.33791961,3561781.1387988,7.3088908890889,0,0
82.584534042244,-20.69868035504,2.1133213321332,1619931.7308997,-22860.33791961,3561781.1387988,7.3133213321332,0,0
82.584534276493,-20.716209950169,2.1177517751775,1619931.7308997,-22860.33791961,3561781.1387988,7.3177517751775,0,0
82.584534510743,-20.733739545299,2.1221822182218,1619931.7308997,-22860.33791961,3561781.1387988,7.3221822182218,0,0
82.584534744992,-20.751269140428,2.1266126612661,1619931.7308997,-22860.33791961,3561781.1387988,7.3266126612661,0,0
82.584534979242,-20.768798735558,2.1310431043104,1619931.7308997,-22860.33791961,3561781.1387988,7.3310431043104,0,0
82.584535213491,-20.786328330687,2.1354735473547,1619931.7308997,-22860.33791961,3561781.1387988,7.3354735473547,0,0
82.58453544774,-20.803857925817,2.139903990399,1619931.7308997,-22860.33791961,3561781.1387988,7.339903990399,0,0
82.58453568199,-20.821387520946,2.1443344334433,1619931.7308997,-22860.33791961,3561781.1387988,7.3443344334433,0,0
82.584535916239,-20.838917116076,2.1487648764876,1619931.7308997,-22860.33791961,3561781.1387988,7.3487648764876,0,0
82.584536150489,-20.856446711205,2.153195319532,1619931.7308997,-22860.33791961,3561781.1387988,7.353195319532,0,0
82.584536384738,-20.873976306334,2.1576257625763,1619931.7308997,-22860.33791961,3561781.1387988,7.3576257625763,0,0
82.584536618987,-20.891505901464,2.1620562056206,1619931.7308997,-22860.33791961,3561781.1387988,7.3620562056206,0,0
82.584536853237,-20.909035496593,2.1664866486649,1619931.7308997,-22860.33791961,3561781.1387988,7.3664866486649,0,0
82.584537087486,-20.926565091723,2.1709170917092,1619931.7308997,-22860.33791961,3561781.1387988,7.3709170917092,0,0
82.584537321736,-20.944094686852,2.1753475347535,1619931.7308997,-22860.33791961,3561781.1387988,7.3753475347535,0,0
82.584537555985,-20.961624281982,2.1797779777978,1619931.7308997,-22860.33791961,3561781.1387988,7.3797779777978,0,0
82.584537790234,-20.979153877111,2.1842084208421,1619931.7308997,-22860.33791961,3561781.1387988,7.3842084208421,0,0
82.584538024484,-20.99668347224,2.1886388638864,1619931.7308997,-22860.33791961,3561781.1387988,7.3886388638864,0,0
82.584538258733,-21.01421306737,2.1930693069307,1619931.7308997,-22860.33791961,3561781.1387988,7.3930693069307,0,0
82.584538492983,-21.031742662499,2.197499749975,1619931.7308997,-22860.33791961,3561781.1387988,7.397499749975,0,0
82.584538727232,-21.049272257629,2.2019301930193,1619931.7308997,-22860.33791961,3561781.1387988,7.4019301930193,0,0
82.584538961481,-21.066801852758,2.2063606360636,1619931.7308997,-22860.33791961,3561781.1387988,7.4063606360636,0,0
82.584539195731,-21.084331447888,2.2107910791079,1619931.7308997,-22860.33791961,3561781.1387988,7.4107910791079,0,0
82.58453942998,-21.101861043017,2.2152215221522,1619931.7308997,-22860.33791961,3561781.1387988,7.4152215221522,0,0
82.58453966423,-21.119390638146,2.2196519651965,1619931.7308997,-22860.33791961,3561781.1387988,7.4196519651965,0,0
82.584539898479,-21.136920233276,2.2240824082408,1619931.7308997,-22860.33791961,3561781.1387988,7.4240824082408,0,0
82.584540132728,-21.154449828405,2.2285128512851,1619931.7308997,-22860.33791961,3561781.1387988,7.4285128512851,0,0
82.584540366978,-21.171979423535,2.2329432943294,1619931.7308997,-22860.33791961,3561781.1387988,7.4329432943294,0,0
82.584540601227,-21.189509018664,2.2373737373737,1619931.7308997,-22860.33791961,3561781.1387988,7.4373737373737,0,0
82.584540835477,-21.207038613794,2.241804180418,1619931.7308997,-22860.33791961,3561781.1387988,7.441804180418,0,0
82.584541069726,-21.224568208923,2.2462346234623,1619931.7308997,-22860.33791961,3561781.1387988,7.4462346234623,0,0
82.584541303975,-21.242097804053,2.2506650665067,1619931.7308997,-22860.33791961,3561781.1387988,7.4506650665067,0,0
82.584541538225,-21.259627399182,2.255095509551,1619931.7308997,-22860.33791961,3561781.1387988,7.455095509551,0,0
82.584541772474,-21.277156994311,2.2595259525953,1619931.7308997,-22860.33791961,3561781.1387988,7.4595259525953,0,0
82.584542006724,-21.294686589441,2.2639563956396,1619931.7308997,-22860.33791961,3561781.1387988,7.4639563956396,0,0
82.584542242998,-21.312216180209,2.2683868386839,1646832.8154326,2951.0001058951,3502506.0068472,7.4683868386839,0,0
82.584542480974,-21.32974576731,2.2728172817282,1646832.8154326,2951.0001058951,3502506.0068472,7.4728172817282,0,0
82.58454271895,-21.347275354411,2.2772477247725,1646832.8154326,2951.0001058951,3502506.0068472,7.4772477247725,0,0
82.584542956927,-21.364804941512,2.2816781678168,1646832.8154326,2951.0001058951,3502506.0068472,7.4816781678168,0,0
82.584543194903,-21.382334528613,2.2861086108611,1646832.8154326,2951.0001058951,3502506.0068472,7.4861086108611,0,0
82.584543432879,-21.399864115715,2.2905390539054,1646832.8154326,2951.0001058951,3502506.0068472,7.4905390539054,0,0
82.584543670856,-21.417393702816,2.2949694969497,1646832.8154326,2951.0001058951,3502506.0068472,7.4949694969497,0,0
82.584543908832,-21.434923289917,2.299399939994,1646832.8154326,2951.0001058951,3502506.0068472,7.499399939994,0,0
82.584544146808,-21.452452877018,2.3038303830383,1646832.8154326,2951.0001058951,3502506.0068472,7.5038303830383,0,0
82.584544384785,-21.469982464119,2.3082608260826,1646832.8154326,2951.0001058951,3502506.0068472,7.5082608260826,0,0
82.584544622761,-21.48751205122,2.3126912691269,1646832.8154326,2951.0001058951,3502506.0068472,7.5126912691269,0,0
82.584544860738,-21.505041638321,2.3171217121712,1646832.8154326,2951.0001058951,3502506.0068472,7.5171217121712,0,0
82.584545098714,-21.522571225422,2.3215521552155,1646832.8154326,2951.0001058951,3502506.0068472,7.5215521552155,0,0
82.58454533669,-21.540100812523,2.3259825982598,1646832.8154326,2951.0001058951,3502506.0068472,7.5259825982598,0,0
82.584545574667,-21.557630399625,2.3304130413041,1646832.8154326,2951.0001058951,3502506.0068472,7.5304130413041,0,0
82.584545812643,-21.575159986726,2.3348434843484,1646832.8154326,2951.0001058951,3502506.0068472,7.5348434843484,0,0
82.584546050619,-21.592689573827,2.3392739273927,1646832.8154326,2951.0001058951,3502506.0068472,7.5392739273927,0,0
82.584546288596,-21.610219160928,2.343704370437,1646832.8154326,2951.0001058951,3502506.0068472,7.543704370437,0,0
82.584546526572,-21.627748748029,2.3481348134813,1646832.8154326,2951.0001058951,3502506.0068472,7.5481348134813,0,0
82.584546764548,-21.64527833513,2.3525652565257,1646832.8154326,2951.0001058951,3502506.0068472,7.5525652565257,0,0
82.584547002525,-21.662807922231,2.35699569957,1646832.8154326,2951.0001058951,3502506.0068472,7.55699569957,0,0
82.584547240501,-21.680337509332,2.3614261426143,1646832.8154326,2951.0001058951,3502506.0068472,7.5614261426143,0,0
82.584547478478,-21.697867096433,2.3658565856586,1646832.8154326,2951.0001058951,3502506.0068472,7.5658565856586,0,0
82.584547716454,-21.715396683535,2.3702870287029,1646832.8154326,2951.0001058951,3502506.0068472,7.5702870287029,0,0
82.58454795443,-21.732926270636,2.3747174717472,1646832.8154326,2951.0001058951,3502506.0068472,7.5747174717472,0,0
82.584548192407,-21.750455857737,2.3791479147915,1646832.8154326,2951.0001058951,3502506.0068472,7.5791479147915,0,0
82.584548430383,-21.767985444838,2.3835783578358,1646832.8154326,2951.0001058951,3502506.0068472,7.5835783578358,0,0
82.584548668359,-21.785515031939,2.3880088008801,1646832.8154326,2951.0001058951,3502506.0068472,7.5880088008801,0,0
82.584548906336,-21.80304461904,2.3924392439244,1646832.8154326,2951.0001058951,3502506.0068472,7.5924392439244,0,0
82.584549144312,-21.820574206141,2.3968696869687,1646832.8154326,2951.0001058951,3502506.0068472,7.5968696869687,0,0
82.584549382288,-21.838103793242,2.401300130013,1646832.8154326,2951.0001058951,3502506.0068472,7.601300130013,0,0
82.584549620265,-21.855633380344,2.4057305730573,1646832.8154326,2951.0001058951,3502506.0068472,7.6057305730573,0,0
82.584549858241,-21.873162967445,2.4101610161016,1646832.8154326,2951.0001058951,3502506.0068472,7.6101610161016,0,0
82.584550096217,-21.890692554546,2.4145914591459,1646832.8154326,2951.0001058951,3502506.0068472,7.6145914591459,0,0
82.584550334194,-21.908222141647,2.4190219021902,1646832.8154326,2951.0001058951,3502506.0068472,7.6190219021902,0,0
82.58455057217,-21.925751728748,2.4234523452345,1646832.8154326,2951.0001058951,3502506.0068472,7.6234523452345,0,0
82.584550810147,-21.943281315849,2.4278827882788,1646832.8154326,2951.0001058951,3502506.0068472,7.6278827882788,0,0
82.584551048123,-21.96081090295,2.4323132313231,1646832.8154326,2951.0001058951,3502506.0068472,7.6323132313231,0,0
82.584551286099,-21.978340490051,2.4367436743674,1646832.8154326,2951.0001058951,3502506.0068472,7.6367436743674,0,0
82.584551524076,-21.995870077152,2.4411741174117,1646832.8154326,2951.0001058951,3502506.0068472,7.6411741174117,0,0
82.584551762052,-22.013399664254,2.445604560456,1646832.8154326,2951.0001058951,3502506.0068472,7.645604560456,0,0
82.584552000028,-22.030929251355,2.4500350035003,1646832.8154326,2951.0001058951,3502506.0068472,7.6500350035004,0,0
82.584552238005,-22.048458838456,2.4544654465447,1646832.8154326,2951.0001058951,3502506.0068472,7.6544654465447,0,0
82.584552479654,-22.065988431133,2.458895889589,1710432.0026385,-26132.027035146,3469657.0402809,7.658895889589,0,0
82.584552723585,-22.083518027273,2.4633263326333,1710432.0026385,-26132.027035146,3469657.0402809,7.6633263326333,0,0
82.584552967516,-22.101047623413,2.4677567756776,1710432.0026385,-26132.027035146,3469657.0402809,7.6677567756776,0,0
82.584553211447,-22.118577219553,2.4721872187219,1710432.0026385,-26132.027035146,3469657.0402809,7.6721872187219,0,0
82.584553455379,-22.136106815693,2.4766176617662,1710432.0026385,-26132.027035146,3469657.0402809,7.6766176617662,0,0
82.584553699309,-22.153636411833,2.4810481048105,1710432.0026385,-26132.027035146,3469657.0402809,7.6810481048105,0,0
82.584553943241,-22.171166007973,2.4854785478548,1710432.0026385,-26132.027035146,3469657.0402809,7.6854785478548,0,0
82.584554187172,-22.188695604113,2.4899089908991,1710432.0026385,-26132.027035146,3469657.0402809,7.6899089908991,0,0
82.584554431103,-22.206225200253,2.4943394339434,1710432.0026385,-26132.027035146,3469657.0402809,7.6943394339434,0,0
82.584554675034,-22.223754796393,2.4987698769877,1710432.0026385,-26132.027035146,3469657.0402809,7.6987698769877,0,0
82.584554918965,-22.241284392532,2.503200320032,1710432.0026385,-26132.027035146,3469657.0402809,7.703200320032,0,0
82.584555162896,-22.258813988672,2.5076307630763,1710432.0026385,-26132.027035146,3469657.0402809,7.7076307630763,0,0
82.584555406827,-22.276343584812,2.5120612061206,1710432.0026385,-26132.027035146,3469657.0402809,7.7120612061206,0,0
82.584555650758,-22.293873180952,2.5164916491649,1710432.0026385,-26132.027035146,3469657.0402809,7.7164916491649,0,0
82.584555894689,-22.311402777092,2.5209220922092,1710432.0026385,-26132.027035146,3469657.0402809,7.7209220922092,0,0
82.58455613862,-22.328932373232,2.5253525352535,1710432.0026385,-26132.027035146,3469657.0402809,7.7253525352535,0,0
82.584556382551,-22.346461969372,2.5297829782978,1710432.0026385,-26132.027035146,3469657.0402809,7.7297829782978,0,0
82.584556626482,-22.363991565512,2.5342134213421,1710432.0026385,-26132.027035146,3469657.0402809,7.7342134213421,0,0
82.584556870413,-22.381521161652,2.5386438643864,1710432.0026385,-26132.027035146,3469657.0402809,7.7386438643864,0,0
82.584557114344,-22.399050757792,2.5430743074307,1710432.0026385,-26132.027035146,3469657.0402809,7.7430743074307,0,0
82.584557358275,-22.416580353932,2.547504750475,1710432.0026385,-26132.027035146,3469657.0402809,7.747504750475,0,0
82.584557602206,-22.434109950072,2.5519351935194,1710432.0026385,-26132.027035146,3469657.0402809,7.7519351935194,0,0
82.584557846137,-22.451639546212,2.5563656365637,1710432.0026385,-26132.027035146,3469657.0402809,7.7563656365637,0,0
82.584558090068,-22.469169142352,2.560796079608,1710432.0026385,-26132.027035146,3469657.0402809,7.760796079608,0,0
82.584558333999,-22.486698738492,2.5652265226523,1710432.0026385,-26132.027035146,3469657.0402809,7.7652265226523,0,0
82.58455857793,-22.504228334632,2.5696569656966,1710432.0026385,-26132.027035146,3469657.0402809,7.7696569656966,0,0
82.584558821861,-22.521757930772,2.5740874087409,1710432.0026385,-26132.027035146,3469657.0402809,7.7740874087409,0,0
82.584559065792,-22.539287526912,2.5785178517852,1710432.0026385,-26132.027035146,3469657.0402809,7.7785178517852,0,0
82.584559309723,-22.556817123052,2.5829482948295,1710432.0026385,-26132.027035146,3469657.0402809,7.7829482948295,0,0
82.584559553654,-22.574346719192,2.5873787378738,1710432.0026385,-26132.027035146,3469657.0402809,7.7873787378738,0,0
82.584559797585,-22.591876315332,2.5918091809181,1710432.0026385,-26132.027035146,3469657.0402809,7.7918091809181,0,0
82.584560041516,-22.609405911471,2.5962396239624,1710432.0026385,-26132.027035146,3469657.0402809,7.7962396239624,0,0
82.584560285447,-22.626935507611,2.6006700670067,1710432.0026385,-26132.027035146,3469657.0402809,7.8006700670067,0,0
82.584560529378,-22.644465103751,2.605100510051,1710432.0026385,-26132.027035146,3469657.0402809,7.805100510051,0,0
82.584560773309,-22.661994699891,2.6095309530953,1710432.0026385,-26132.027035146,3469657.0402809,7.8095309530953,0,0
82.58456101724,-22.679524296031,2.6139613961396,1710432.0026385,-26132.027035146,3469657.0402809,7.8139613961396,0,0
82.584561261171,-22.697053892171,2.6183918391839,1710432.0026385,-26132.027035146,3469657.0402809,7.8183918391839,0,0
82.584561505102,-22.714583488311,2.6228222822282,1710432.0026385,-26132.027035146,3469657.0402809,7.8228222822282,0,0
82.584561751846,-22.732113081513,2.6272527252725,1829819.7019342,-1472.4546045387,3435482.7876663,7.8272527252725,0,0
82.584562006223,-22.749642666743,2.6316831683168,1829819.7019342,-1472.4546045387,3435482.7876663,7.8316831683168,0,0
82.5845622606,-22.767172251974,2.6361136113611,1829819.7019342,-1472.4546045387,3435482.7876663,7.8361136113611,0,0
82.584562514977,-22.784701837204,2.6405440544054,1829819.7019342,-1472.4546045387,3435482.7876663,7.8405440544054,0,0
82.584562769354,-22.802231422434,2.6449744974497,1829819.7019342,-1472.4546045387,3435482.7876663,7.8449744974497,0,0
82.584563023731,-22.819761007664,2.649404940494,1829819.7019342,-1472.4546045387,3435482.7876663,7.849404940494,0,0
82.584563278108,-22.837290592894,2.6538353835384,1829819.7019342,-1472.4546045387,3435482.7876663,7.8538353835384,0,0
82.584563532485,-22.854820178124,2.6582658265827,1829819.7019342,-1472.4546045387,3435482.7876663,7.8582658265827,0,0
82.584563786862,-22.872349763354,2.662696269627,1829819.7019342,-1472.4546045387,3435482.7876663,7.862696269627,0,0
82.58456404124,-22.889879348585,2.6671267126713,1829819.7019342,-1472.4546045387,3435482.7876663,7.8671267126713,0,0
82.584564295617,-22.907408933815,2.6715571557156,1829819.7019342,-1472.4546045387,3435482.7876663,7.8715571557156,0,0
82.584564549994,-22.924938519045,2.6759875987599,1829819.7019342,-1472.4546045387,3435482.7876663,7.8759875987599,0,0
82.584564804371,-22.942468104275,2.6804180418042,1829819.7019342,-1472.4546045387,3435482.7876663,7.8804180418042,0,0
82.584565058748,-22.959997689505,2.6848484848485,1829819.7019342,-1472.4546045387,3435482.7876663,7.8848484848485,0,0
82.584565313125,-22.977527274735,2.6892789278928,1829819.7019342,-1472.4546045387,3435482.7876663,7.8892789278928,0,0
82.584565567502,-22.995056859965,2.6937093709371,1829819.7019342,-1472.4546045387,3435482.7876663,7.8937093709371,0,0
82.584565821879,-23.012586445195,2.6981398139814,1829819.7019342,-1472.4546045387,3435482.7876663,7.8981398139814,0,0
82.584566076256,-23.030116030426,2.7025702570257,1829819.7019342,-1472.4546045387,3435482.7876663,7.9025702570257,0,0
82.584566330633,-23.047645615656,2.70700070007,1829819.7019342,-1472.4546045387,3435482.7876663,7.90700070007,0,0
82.58456658501,-23.065175200886,2.7114311431143,1829819.7019342,-1472.4546045387,3435482.7876663,7.9114311431143,0,0
82.584566839388,-23.082704786116,2.7158615861586,1829819.7019342,-1472.4546045387,3435482.7876663,7.9158615861586,0,0
82.584567093765,-23.100234371346,2.7202920292029,1829819.7019342,-1472.4546045387,3435482.7876663,7.9202920292029,0,0
82.584567348142,-23.117763956576,2.7247224722472,1829819.7019342,-1472.4546045387,3435482.7876663,7.9247224722472,0,0
82.584567602519,-23.135293541806,2.7291529152915,1829819.7019342,-1472.4546045387,3435482.7876663,7.9291529152915,0,0
82.584567856896,-23.152823127037,2.7335833583358,1829819.7019342,-1472.4546045387,3435482.7876663,7.9335833583358,0,0
82.584568111273,-23.170352712267,2.7380138013801,1829819.7019342,-1472.4546045387,3435482.7876663,7.9380138013801,0,0
82.58456836565,-23.187882297497,2.7424442444244,1829819.7019342,-1472.4546045387,3435482.7876663,7.9424442444244,0,0
82.584568620027,-23.205411882727,2.7468746874687,1829819.7019342,-1472.4546045387,3435482.7876663,7.9468746874687,0,0
82.584568874404,-23.222941467957,2.7513051305131,1829819.7019342,-1472.4546045387,3435482.7876663,7.9513051305131,0,0
82.584569128781,-23.240471053187,2.7557355735574,1829819.7019342,-1472.4546045387,3435482.7876663,7.9557355735574,0,0
82.584569383158,-23.258000638417,2.7601660166017,1829819.7019342,-1472.4546045387,3435482.7876663,7.9601660166017,0,0
82.584569637536,-23.275530223647,2.764596459646,1829819.7019342,-1472.4546045387,3435482.7876663,7.964596459646,0,0
82.584569891913,-23.293059808878,2.7690269026903,1829819.7019342,-1472.4546045387,3435482.7876663,7.9690269026903,0,0
82.58457014629,-23.310589394108,2.7734573457346,1829819.7019342,-1472.4546045387,3435482.7876663,7.9734573457346,0,0
82.584570400667,-23.328118979338,2.7778877887789,1829819.7019342,-1472.4546045387,3435482.7876663,7.9778877887789,0,0
82.584570655044,-23.345648564568,2.7823182318232,1829819.7019342,-1472.4546045387,3435482.7876663,7.9823182318232,0,0
82.584570909421,-23.363178149798,2.7867486748675,1829819.7019342,-1472.4546045387,3435482.7876663,7.9867486748675,0,0
82.584571163798,-23.380707735028,2.7911791179118,1829819.7019342,-1472.4546045387,3435482.7876663,7.9911791179118,0,0
82.584571418175,-23.398237320258,2.7956095609561,1829819.7019342,-1472.4546045387,3435482.7876663,7.9956095609561,0,0
82.584571672552,-23.415766905489,2.8000400040004,1829819.7019342,-1472.4546045387,3435482.7876663,8.0000400040004,0,0
82.584571926929,-23.433296490719,2.8044704470447,1829819.7019342,-1472.4546045387,3435482.7876663,8.0044704470447,0,0
82.584572181306,-23.450826075949,2.808900890089,1829819.7019342,-1472.4546045387,3435482.7876663,8.008900890089,0,0
82.584572435684,-23.468355661179,2.8133313331333,1829819.7019342,-1472.4546045387,3435482.7876663,8.0133313331333,0,0
82.584572690061,-23.485885246409,2.8177617761776,1829819.7019342,-1472.4546045387,3435482.7876663,8.0177617761776,0,0
82.584572944438,-23.503414831639,2.8221922192219,1829819.7019342,-1472.4546045387,3435482.7876663,8.0221922192219,0,0
82.584573198815,-23.520944416869,2.8266226622662,1829819.7019342,-1472.4546045387,3435482.7876663,8.0266226622662,0,0
82.584573453192,-23.538474002099,2.8310531053105,1829819.7019342,-1472.4546045387,3435482.7876663,8.0310531053105,0,0
82.584573707569,-23.55600358733,2.8354835483548,1829819.7019342,-1472.4546045387,3435482.7876663,8.0354835483548,0,0
82.584573961946,-23.57353317256,2.8399139913991,1829819.7019342,-1472.4546045387,3435482.7876663,8.0399139913991,0,0
82.584574216323,-23.59106275779,2.8443444344434,1829819.7019342,-1472.4546045387,3435482.7876663,8.0443444344434,0,0
82.5845744707,-23.60859234302,2.8487748774877,1829819.7019342,-1472.4546045387,3435482.7876663,8.0487748774877,0,0
82.584574725077,-23.62612192825,2.8532053205321,1829819.7019342,-1472.4546045387,3435482.7876663,8.0532053205321,0,0
82.584574979454,-23.64365151348,2.8576357635764,1829819.7019342,-1472.4546045387,3435482.7876663,8.0576357635764,0,0
82.584575233832,-23.66118109871,2.8620662066207,1829819.7019342,-1472.4546045387,3435482.7876663,8.0620662066207,0,0
82.584575488209,-23.678710683941,2.866496649665,1829819.7019342,-1472.4546045387,3435482.7876663,8.066496649665,0,0
82.584575742586,-23.696240269171,2.8709270927093,1829819.7019342,-1472.4546045387,3435482.7876663,8.0709270927093,0,0
82.584576003234,-23.71376985999,2.8753575357536,1974355.1730153,-28203.270921949,3431250.3697856,8.0753575357536,0,0
82.584576269269,-23.731299455611,2.8797879787979,1974355.1730153,-28203.270921949,3431250.3697856,8.0797879787979,0,0
82.584576535303,-23.748829051232,2.8842184218422,1974355.1730153,-28203.270921949,3431250.3697856,8.0842184218422,0,0
82.584576801338,-23.766358646853,2.8886488648865,1974355.1730153,-28203.270921949,3431250.3697856,8.0886488648865,0,0
82.584577067373,-23.783888242473,2.8930793079308,1974355.1730153,-28203.270921949,3431250.3697856,8.0930793079308,0,0
82.584577333407,-23.801417838094,2.8975097509751,1974355.1730153,-28203.270921949,3431250.3697856,8.0975097509751,0,0
82.584577599442,-23.818947433715,2.9019401940194,1974355.1730153,-28203.270921949,3431250.3697856,8.1019401940194,0,0
82.584577865477,-23.836477029335,2.9063706370637,1974355.1730153,-28203.270921949,3431250.3697856,8.1063706370637,0,0
82.584578131511,-23.854006624956,2.910801080108,1974355.1730153,-28203.270921949,3431250.3697856,8.110801080108,0,0
82.584578397546,-23.871536220577,2.9152315231523,1974355.1730153,-28203.270921949,3431250.3697856,8.1152315231523,0,0
82.584578663581,-23.889065816197,2.9196619661966,1974355.1730153,-28203.270921949,3431250.3697856,8.1196619661966,0,0
82.584578929615,-23.906595411818,2.9240924092409,1974355.1730153,-28203.270921949,3431250.3697856,8.1240924092409,0,0
82.58457919565,-23.924125007439,2.9285228522852,1974355.1730153,-28203.270921949,3431250.3697856,8.1285228522852,0,0
82.584579461685,-23.941654603059,2.9329532953295,1974355.1730153,-28203.270921949,3431250.3697856,8.1329532953295,0,0
82.584579727719,-23.95918419868,2.9373837383738,1974355.1730153,-28203.270921949,3431250.3697856,8.1373837383738,0,0
82.584579993754,-23.976713794301,2.9418141814181,1974355.1730153,-28203.270921949,3431250.3697856,8.1418141814181,0,0
82.584580259789,-23.994243389922,2.9462446244624,1974355.1730153,-28203.270921949,3431250.3697856,8.1462446244624,0,0
82.584580525823,-24.011772985542,2.9506750675067,1974355.1730153,-28203.270921949,3431250.3697856,8.1506750675068,0,0
82.584580791858,-24.029302581163,2.9551055105511,1974355.1730153,-28203.270921949,3431250.3697856,8.1551055105511,0,0
82.584581057893,-24.046832176784,2.9595359535954,1974355.1730153,-28203.270921949,3431250.3697856,8.1595359535954,0,0
82.584581323927,-24.064361772404,2.9639663966397,1974355.1730153,-28203.270921949,3431250.3697856,8.1639663966397,0,0
82.584581589962,-24.081891368025,2.968396839684,1974355.1730153,-28203.270921949,3431250.3697856,8.168396839684,0,0
82.584581855997,-24.099420963646,2.9728272827283,1974355.1730153,-28203.270921949,3431250.3697856,8.1728272827283,0,0
82.584582122031,-24.116950559266,2.9772577257726,1974355.1730153,-28203.270921949,3431250.3697856,8.1772577257726,0,0
82.584582388066,-24.134480154887,2.9816881688169,1974355.1730153,-28203.270921949,3431250.3697856,8.1816881688169,0,0
82.584582654101,-24.152009750508,2.9861186118612,1974355.1730153,-28203.270921949,3431250.3697856,8.1861186118612,0,0
82.584582920135,-24.169539346129,2.9905490549055,1974355.1730153,-28203.270921949,3431250.3697856,8.1905490549055,0,0
82.58458318617,-24.187068941749,2.9949794979498,1974355.1730153,-28203.270921949,3431250.3697856,8.1949794979498,0,0
82.584583452205,-24.20459853737,2.9994099409941,1974355.1730153,-28203.270921949,3431250.3697856,8.1994099409941,0,0
82.584583718239,-24.222128132991,3.0038403840384,1974355.1730153,-28203.270921949,3431250.3697856,8.2038403840384,0,0
82.584583984274,-24.239657728611,3.0082708270827,1974355.1730153,-28203.270921949,3431250.3697856,8.2082708270827,0,0
82.584584250309,-24.257187324232,3.012701270127,1974355.1730153,-28203.270921949,3431250.3697856,8.212701270127,0,0
82.584584516343,-24.274716919853,3.0171317131713,1974355.1730153,-28203.270921949,3431250.3697856,8.2171317131713,0,0
82.584584782378,-24.292246515473,3.0215621562156,1974355.1730153,-28203.270921949,3431250.3697856,8.2215621562156,0,0
82.584585048413,-24.309776111094,3.0259925992599,1974355.1730153,-28203.270921949,3431250.3697856,8.2259925992599,0,0
82.584585314447,-24.327305706715,3.0304230423042,1974355.1730153,-28203.270921949,3431250.3697856,8.2304230423042,0,0
82.584585580482,-24.344835302335,3.0348534853485,1974355.1730153,-28203.270921949,3431250.3697856,8.2348534853485,0,0
82.584585846517,-24.362364897956,3.0392839283928,1974355.1730153,-28203.270921949,3431250.3697856,8.2392839283928,0,0
82.584586112551,-24.379894493577,3.0437143714371,1974355.1730153,-28203.270921949,3431250.3697856,8.2437143714371,0,0
82.584586378586,-24.397424089198,3.0481448144814,1974355.1730153,-28203.270921949,3431250.3697856,8.2481448144814,0,0
82.584586644621,-24.414953684818,3.0525752575258,1974355.1730153,-28203.270921949,3431250.3697856,8.2525752575258,0,0
82.584586910655,-24.432483280439,3.0570057005701,1974355.1730153,-28203.270921949,3431250.3697856,8.2570057005701,0,0
82.58458717669,-24.45001287606,3.0614361436144,1974355.1730153,-28203.270921949,3431250.3697856,8.2614361436144,0,0
82.584587442724,-24.46754247168,3.0658665866587,1974355.1730153,-28203.270921949,3431250.3697856,8.2658665866587,0,0
82.584587708759,-24.485072067301,3.070297029703,1974355.1730153,-28203.270921949,3431250.3697856,8.270297029703,0,0
82.584587974794,-24.502601662922,3.0747274727473,1974355.1730153,-28203.270921949,3431250.3697856,8.2747274727473,0,0
82.584588240828,-24.520131258542,3.0791579157916,1974355.1730153,-28203.270921949,3431250.3697856,8.2791579157916,0,0
82.584588506863,-24.537660854163,3.0835883588359,1974355.1730153,-28203.270921949,3431250.3697856,8.2835883588359,0,0
82.584588773473,-24.555190446327,3.0880188018802,1961403.7690496,6162.6839044492,3339380.9385154,8.2880188018802,0,0
82.584589040919,-24.572720033464,3.0924492449245,1961403.7690496,6162.6839044492,3339380.9385154,8.2924492449245,0,0
82.584589308365,-24.590249620601,3.0968796879688,1961403.7690496,6162.6839044492,3339380.9385154,8.2968796879688,0,0
82.584589575812,-24.607779207738,3.1013101310131,1961403.7690496,6162.6839044492,3339380.9385154,8.3013101310131,0,0
82.584589843258,-24.625308794875,3.1057405740574,1961403.7690496,6162.6839044492,3339380.9385154,8.3057405740574,0,0
82.584590110704,-24.642838382012,3.1101710171017,1961403.7690496,6162.6839044492,3339380.9385154,8.3101710171017,0,0
82.58459037815,-24.66036796915,3.114601460146,1961403.7690496,6162.6839044492,3339380.9385154,8.314601460146,0,0
82.584590645596,-24.677897556287,3.1190319031903,1961403.7690496,6162.6839044492,3339380.9385154,8.3190319031903,0,0
82.584590913043,-24.695427143424,3.1234623462346,1961403.7690496,6162.6839044492,3339380.9385154,8.3234623462346,0,0
82.584591180489,-24.712956730561,3.1278927892789,1961403.7690496,6162.6839044492,3339380.9385154,8.3278927892789,0,0
82.584591447935,-24.730486317698,3.1323232323232,1961403.7690496,6162.6839044492,3339380.9385154,8.3323232323232,0,0
82.584591715381,-24.748015904835,3.1367536753675,1961403.7690496,6162.6839044492,3339380.9385154,8.3367536753675,0,0
82.584591982827,-24.765545491972,3.1411841184118,1961403.7690496,6162.6839044492,3339380.9385154,8.3411841184118,0,0
82.584592250274,-24.783075079109,3.1456145614561,1961403.7690496,6162.6839044492,3339380.9385154,8.3456145614561,0,0
82.58459251772,-24.800604666246,3.1500450045004,1961403.7690496,6162.6839044492,3339380.9385154,8.3500450045004,0,0
82.584592785166,-24.818134253383,3.1544754475448,1961403.7690496,6162.6839044492,3339380.9385154,8.3544754475448,0,0
82.584593052612,-24.83566384052,3.1589058905891,1961403.7690496,6162.6839044492,3339380.9385154,8.3589058905891,0,0
82.584593320059,-24.853193427658,3.1633363336334,1961403.7690496,6162.6839044492,3339380.9385154,8.3633363336334,0,0
82.584593587505,-24.870723014795,3.1677667766777,1961403.7690496,6162.6839044492,3339380.9385154,8.3677667766777,0,0
82.584593854951,-24.888252601932,3.172197219722,1961403.7690496,6162.6839044492,3339380.9385154,8.372197219722,0,0
82.584594122397,-24.905782189069,3.1766276627663,1961403.7690496,6162.6839044492,3339380.9385154,8.3766276627663,0,0
82.584594389843,-24.923311776206,3.1810581058106,1961403.7690496,6162.6839044492,3339380.9385154,8.3810581058106,0,0
82.58459465729,-24.940841363343,3.1854885488549,1961403.7690496,6162.6839044492,3339380.9385154,8.3854885488549,0,0
82.584594924736,-24.95837095048,3.1899189918992,1961403.7690496,6162.6839044492,3339380.9385154,8.3899189918992,0,0
82.584595192182,-24.975900537617,3.1943494349435,1961403.7690496,6162.6839044492,3339380.9385154,8.3943494349435,0,0
82.584595459628,-24.993430124754,3.1987798779878,1961403.7690496,6162.6839044492,3339380.9385154,8.3987798779878,0,0
82.584595727074,-25.010959711891,3.2032103210321,1961403.7690496,6162.6839044492,3339380.9385154,8.4032103210321,0,0
82.584595994521,-25.028489299028,3.2076407640764,1961403.7690496,6162.6839044492,3339380.9385154,8.4076407640764,0,0
82.584596261967,-25.046018886166,3.2120712071207,1961403.7690496,6162.6839044492,3339380.9385154,8.4120712071207,0,0
82.584596529413,-25.063548473303,3.216501650165,1961403.7690496,6162.6839044492,3339380.9385154,8.416501650165,0,0
82.584596796859,-25.08107806044,3.2209320932093,1961403.7690496,6162.6839044492,3339380.9385154,8.4209320932093,0,0
82.584597064305,-25.098607647577,3.2253625362536,1961403.7690496,6162.6839044492,3339380.9385154,8.4253625362536,0,0
82.584597331752,-25.116137234714,3.2297929792979,1961403.7690496,6162.6839044492,3339380.9385154,8.4297929792979,0,0
82.584597599198,-25.133666821851,3.2342234223422,1961403.7690496,6162.6839044492,3339380.9385154,8.4342234223422,0,0
82.584597866644,-25.151196408988,3.2386538653865,1961403.7690496,6162.6839044492,3339380.9385154,8.4386538653865,0,0
82.58459813409,-25.168725996125,3.2430843084308,1961403.7690496,6162.6839044492,3339380.9385154,8.4430843084308,0,0
82.584598401536,-25.186255583262,3.2475147514751,1961403.7690496,6162.6839044492,3339380.9385154,8.4475147514751,0,0
82.584598668983,-25.203785170399,3.2519451945195,1961403.7690496,6162.6839044492,3339380.9385154,8.4519451945195,0,0
82.584598936429,-25.221314757537,3.2563756375638,1961403.7690496,6162.6839044492,3339380.9385154,8.4563756375638,0,0
82.584599203875,-25.238844344674,3.2608060806081,1961403.7690496,6162.6839044492,3339380.9385154,8.4608060806081,0,0
82.584599471321,-25.256373931811,3.2652365236524,1961403.7690496,6162.6839044492,3339380.9385154,8.4652365236524,0,0
82.584599738767,-25.273903518948,3.2696669666967,1961403.7690496,6162.6839044492,3339380.9385154,8.4696669666967,0,0
82.584600006214,-25.291433106085,3.274097409741,1961403.7690496,6162.6839044492,3339380.9385154,8.474097409741,0,0
82.58460027366,-25.308962693222,3.2785278527853,1961403.7690496,6162.6839044492,3339380.9385154,8.4785278527853,0,0
82.584600548489,-25.326492280584,3.2829582958296,2151306.5455559,9080.8270829256,3402288.7178872,8.4829582958296,0,0
82.584600829429,-25.344021868131,3.2873887388739,2151306.5455559,9080.8270829256,3402288.7178872,8.4873887388739,0,0
82.584601110369,-25.361551455679,3.2918191819182,2151306.5455559,9080.8270829256,3402288.7178872,8.4918191819182,0,0
82.584601391309,-25.379081043227,3.2962496249625,2151306.5455559,9080.8270829256,3402288.7178872,8.4962496249625,0,0
82.584601672249,-25.396610630774,3.3006800680068,2151306.5455559,9080.8270829256,3402288.7178872,8.5006800680068,0,0
82.584601953189,-25.414140218322,3.3051105110511,2151306.5455559,9080.8270829256,3402288.7178872,8.5051105110511,0,0
82.584602234129,-25.43166980587,3.3095409540954,2151306.5455559,9080.8270829256,3402288.7178872,8.5095409540954,0,0
82.584602515068,-25.449199393417,3.3139713971397,2151306.5455559,9080.8270829256,3402288.7178872,8.5139713971397,0,0
82.584602796008,-25.466728980965,3.318401840184,2151306.5455559,9080.8270829256,3402288.7178872,8.518401840184,0,0
82.584603076948,-25.484258568513,3.3228322832283,2151306.5455559,9080.8270829256,3402288.7178872,8.5228322832283,0,0
82.584603357888,-25.50178815606,3.3272627262726,2151306.5455559,9080.8270829256,3402288.7178872,8.5272627262726,0,0
82.584603638828,-25.519317743608,3.3316931693169,2151306.5455559,9080.8270829256,3402288.7178872,8.5316931693169,0,0
82.584603919768,-25.536847331155,3.3361236123612,2151306.5455559,9080.8270829256,3402288.7178872,8.5361236123612,0,0
82.584604200708,-25.554376918703,3.3405540554055,2151306.5455559,9080.8270829256,3402288.7178872,8.5405540554055,0,0
82.584604481648,-25.571906506251,3.3449844984498,2151306.5455559,9080.8270829256,3402288.7178872,8.5449844984498,0,0
82.584604762588,-25.589436093798,3.3494149414941,2151306.5455559,9080.8270829256,3402288.7178872,8.5494149414941,0,0
82.584605043528,-25.606965681346,3.3538453845385,2151306.5455559,9080.8270829256,3402288.7178872,8.5538453845385,0,0
82.584605324467,-25.624495268894,3.3582758275828,2151306.5455559,9080.8270829256,3402288.7178872,8.5582758275828,0,0
82.584605605407,-25.642024856441,3.3627062706271,2151306.5455559,9080.8270829256,3402288.7178872,8.5627062706271,0,0
82.584605886347,-25.659554443989,3.3671367136714,2151306.5455559,9080.8270829256,3402288.7178872,8.5671367136714,0,0
82.584606167287,-25.677084031537,3.3715671567157,2151306.5455559,9080.8270829256,3402288.7178872,8.5715671567157,0,0
82.584606448227,-25.694613619084,3.37599759976,2151306.5455559,9080.8270829256,3402288.7178872,8.57599759976,0,0
82.584606729167,-25.712143206632,3.3804280428043,2151306.5455559,9080.8270829256,3402288.7178872,8.5804280428043,0,0
82.584607010107,-25.72967279418,3.3848584858486,2151306.5455559,9080.8270829256,3402288.7178872,8.5848584858486,0,0
82.584607291047,-25.747202381727,3.3892889288929,2151306.5455559,9080.8270829256,3402288.7178872,8.5892889288929,0,0
82.584607571987,-25.764731969275,3.3937193719372,2151306.5455559,9080.8270829256,3402288.7178872,8.5937193719372,0,0
82.584607852927,-25.782261556823,3.3981498149815,2151306.5455559,9080.8270829256,3402288.7178872,8.5981498149815,0,0
82.584608133867,-25.79979114437,3.4025802580258,2151306.5455559,9080.8270829256,3402288.7178872,8.6025802580258,0,0
82.584608414806,-25.817320731918,3.4070107010701,2151306.5455559,9080.8270829256,3402288.7178872,8.6070107010701,0,0
82.584608695746,-25.834850319466,3.4114411441144,2151306.5455559,9080.8270829256,3402288.7178872,8.6114411441144,0,0
82.584608976686,-25.852379907013,3.4158715871587,2151306.5455559,9080.8270829256,3402288.7178872,8.6158715871587,0,0
82.584609257626,-25.869909494561,3.420302030203,2151306.5455559,9080.8270829256,3402288.7178872,8.620302030203,0,0
82.584609538566,-25.887439082108,3.4247324732473,2151306.5455559,9080.8270829256,3402288.7178872,8.6247324732473,0,0
82.584609819506,-25.904968669656,3.4291629162916,2151306.5455559,9080.8270829256,3402288.7178872,8.6291629162916,0,0
82.584610100446,-25.922498257204,3.4335933593359,2151306.5455559,9080.8270829256,3402288.7178872,8.6335933593359,0,0
82.584610381386,-25.940027844751,3.4380238023802,2151306.5455559,9080.8270829256,3402288.7178872,8.6380238023802,0,0
82.584610662326,-25.957557432299,3.4424542454245,2151306.5455559,9080.8270829256,3402288.7178872,8.6424542454245,0,0
82.584610943266,-25.975087019847,3.4468846884688,2151306.5455559,9080.8270829256,3402288.7178872,8.6468846884688,0,0
82.584611224205,-25.992616607394,3.4513151315132,2151306.5455559,9080.8270829256,3402288.7178872,8.6513151315132,0,0
82.584611505145,-26.010146194942,3.4557455745575,2151306.5455559,9080.8270829256,3402288.7178872,8.6557455745575,0,0
82.584611786085,-26.02767578249,3.4601760176018,2151306.5455559,9080.8270829256,3402288.7178872,8.6601760176018,0,0
82.584612067025,-26.045205370037,3.4646064606461,2151306.5455559,9080.8270829256,3402288.7178872,8.6646064606461,0,0
82.584612347965,-26.062734957585,3.4690369036904,2151306.5455559,9080.8270829256,3402288.7178872,8.6690369036904,0,0
82.584612628905,-26.080264545133,3.4734673467347,2151306.5455559,9080.8270829256,3402288.7178872,8.6734673467347,0,0
82.584612909845,-26.09779413268,3.477897789779,2151306.5455559,9080.8270829256,3402288.7178872,8.677897789779,0,0
82.584613190785,-26.115323720228,3.4823282328233,2151306.5455559,9080.8270829256,3402288.7178872,8.6823282328233,0,0
82.584613471725,-26.132853307776,3.4867586758676,2151306.5455559,9080.8270829256,3402288.7178872,8.6867586758676,0,0
82.584613752665,-26.150382895323,3.4911891189119,2151306.5455559,9080.8270829256,3402288.7178872,8.6911891189119,0,0
82.584614033604,-26.167912482871,3.4956195619562,2151306.5455559,9080.8270829256,3402288.7178872,8.6956195619562,0,0
82.584614314147,-26.185442071946,3.5000500050005,2089775.6269073,-33151.70742269,3286159.3613256,8.7000500050005,0,0
82.584614593264,-26.202971666503,3.5044804480448,2089775.6269073,-33151.70742269,3286159.3613256,8.7044804480448,0,0
82.584614872381,-26.22050126106,3.5089108910891,2089775.6269073,-33151.70742269,3286159.3613256,8.7089108910891,0,0
82.584615151498,-26.238030855617,3.5133413341334,2089775.6269073,-33151.70742269,3286159.3613256,8.7133413341334,0,0
82.584615430615,-26.255560450174,3.5177717771777,2089775.6269073,-33151.70742269,3286159.3613256,8.7177717771777,0,0
82.584615709732,-26.273090044731,3.522202220222,2089775.6269073,-33151.70742269,3286159.3613256,8.722202220222,0,0
82.584615988849,-26.290619639288,3.5266326632663,2089775.6269073,-33151.70742269,3286159.3613256,8.7266326632663,0,0
82.584616267966,-26.308149233845,3.5310631063106,2089775.6269073,-33151.70742269,3286159.3613256,8.7310631063106,0,0
82.584616547083,-26.325678828402,3.5354935493549,2089775.6269073,-33151.70742269,3286159.3613256,8.7354935493549,0,0
82.584616826201,-26.343208422959,3.5399239923992,2089775.6269073,-33151.70742269,3286159.3613256,8.7399239923992,0,0
82.584617105318,-26.360738017516,3.5443544354435,2089775.6269073,-33151.70742269,3286159.3613256,8.7443544354435,0,0
82.584617384435,-26.378267612073,3.5487848784878,2089775.6269073,-33151.70742269,3286159.3613256,8.7487848784878,0,0
82.584617663552,-26.39579720663,3.5532153215322,2089775.6269073,-33151.70742269,3286159.3613256,8.7532153215322,0,0
82.584617942669,-26.413326801187,3.5576457645765,2089775.6269073,-33151.70742269,3286159.3613256,8.7576457645765,0,0
82.584618221786,-26.430856395744,3.5620762076208,2089775.6269073,-33151.70742269,3286159.3613256,8.7620762076208,0,0
82.584618500903,-26.448385990301,3.5665066506651,2089775.6269073,-33151.70742269,3286159.3613256,8.7665066506651,0,0
82.58461878002,-26.465915584858,3.5709370937094,2089775.6269073,-33151.70742269,3286159.3613256,8.7709370937094,0,0
82.584619059137,-26.483445179415,3.5753675367537,2089775.6269073,-33151.70742269,3286159.3613256,8.7753675367537,0,0
82.584619338254,-26.500974773972,3.579797979798,2089775.6269073,-33151.70742269,3286159.3613256,8.779797979798,0,0
82.584619617371,-26.518504368529,3.5842284228423,2089775.6269073,-33151.70742269,3286159.3613256,8.7842284228423,0,0
82.584619896488,-26.536033963086,3.5886588658866,2089775.6269073,-33151.70742269,3286159.3613256,8.7886588658866,0,0
82.584620175605,-26.553563557643,3.5930893089309,2089775.6269073,-33151.70742269,3286159.3613256,8.7930893089309,0,0
82.584620454722,-26.5710931522,3.5975197519752,2089775.6269073,-33151.70742269,3286159.3613256,8.7975197519752,0,0
82.584620733839,-26.588622746757,3.6019501950195,2089775.6269073,-33151.70742269,3286159.3613256,8.8019501950195,0,0
82.584621012956,-26.606152341315,3.6063806380638,2089775.6269073,-33151.70742269,3286159.3613256,8.8063806380638,0,0
82.584621292073,-26.623681935872,3.6108110811081,2089775.6269073,-33151.70742269,3286159.3613256,8.8108110811081,0,0
82.58462157119,-26.641211530429,3.6152415241524,2089775.6269073,-33151.70742269,3286159.3613256,8.8152415241524,0,0
82.584621850307,-26.658741124986,3.6196719671967,2089775.6269073,-33151.70742269,3286159.3613256,8.8196719671967,0,0
82.584622129424,-26.676270719543,3.624102410241,2089775.6269073,-33151.70742269,3286159.3613256,8.824102410241,0,0
82.584622408541,-26.6938003141,3.6285328532853,2089775.6269073,-33151.70742269,3286159.3613256,8.8285328532853,0,0
82.584622687659,-26.711329908657,3.6329632963296,2089775.6269073,-33151.70742269,3286159.3613256,8.8329632963296,0,0
82.584622966776,-26.728859503214,3.6373937393739,2089775.6269073,-33151.70742269,3286159.3613256,8.8373937393739,0,0
82.584623245893,-26.746389097771,3.6418241824182,2089775.6269073,-33151.70742269,3286159.3613256,8.8418241824182,0,0
82.58462352501,-26.763918692328,3.6462546254625,2089775.6269073,-33151.70742269,3286159.3613256,8.8462546254625,0,0
82.584623804127,-26.781448286885,3.6506850685069,2089775.6269073,-33151.70742269,3286159.3613256,8.8506850685069,0,0
82.584624083244,-26.798977881442,3.6551155115512,2089775.6269073,-33151.70742269,3286159.3613256,8.8551155115512,0,0
82.584624362361,-26.816507475999,3.6595459545955,2089775.6269073,-33151.70742269,3286159.3613256,8.8595459545955,0,0
82.584624641478,-26.834037070556,3.6639763976398,2089775.6269073,-33151.70742269,3286159.3613256,8.8639763976398,0,0
82.584624920595,-26.851566665113,3.6684068406841,2089775.6269073,-33151.70742269,3286159.3613256,8.8684068406841,0,0
82.584625199712,-26.86909625967,3.6728372837284,2089775.6269073,-33151.70742269,3286159.3613256,8.8728372837284,0,0
82.584625478829,-26.886625854227,3.6772677267727,2089775.6269073,-33151.70742269,3286159.3613256,8.8772677267727,0,0
82.584625757946,-26.904155448784,3.681698169817,2089775.6269073,-33151.70742269,3286159.3613256,8.881698169817,0,0
82.584626037063,-26.921685043341,3.6861286128613,2089775.6269073,-33151.70742269,3286159.3613256,8.8861286128613,0,0
82.58462631618,-26.939214637898,3.6905590559056,2089775.6269073,-33151.70742269,3286159.3613256,8.8905590559056,0,0
82.58462660433,-26.956744227615,3.6949894989499,2262065.7087168,-15660.542596834,3322611.8365769,8.8949894989499,0,0
82.584626896238,-26.974273815319,3.6994199419942,2262065.7087168,-15660.542596834,3322611.8365769,8.8994199419942,0,0
82.584627188147,-26.991803403023,3.7038503850385,2262065.7087168,-15660.542596834,3322611.8365769,8.9038503850385,0,0
82.584627480055,-27.009332990727,3.7082808280828,2262065.7087168,-15660.542596834,3322611.8365769,8.9082808280828,0,0
82.584627771963,-27.026862578431,3.7127112711271,2262065.7087168,-15660.542596834,3322611.8365769,8.9127112711271,0,0
82.584628063871,-27.044392166135,3.7171417141714,2262065.7087168,-15660.542596834,3322611.8365769,8.9171417141714,0,0
82.58462835578,-27.061921753839,3.7215721572157,2262065.7087168,-15660.542596834,3322611.8365769,8.9215721572157,0,0
82.584628647688,-27.079451341543,3.72600260026,2262065.7087168,-15660.542596834,3322611.8365769,8.92600260026,0,0
82.584628939596,-27.096980929247,3.7304330433043,2262065.7087168,-15660.542596834,3322611.8365769,8.9304330433043,0,0
82.584629231505,-27.11451051695,3.7348634863486,2262065.7087168,-15660.542596834,3322611.8365769,8.9348634863486,0,0
82.584629523413,-27.132040104654,3.7392939293929,2262065.7087168,-15660.542596834,3322611.8365769,8.9392939293929,0,0
82.584629815321,-27.149569692358,3.7437243724372,2262065.7087168,-15660.542596834,3322611.8365769,8.9437243724372,0,0
82.58463010723,-27.167099280062,3.7481548154815,2262065.7087168,-15660.542596834,3322611.8365769,8.9481548154815,0,0
82.584630399138,-27.184628867766,3.7525852585259,2262065.7087168,-15660.542596834,3322611.8365769,8.9525852585259,0,0
82.584630691046,-27.20215845547,3.7570157015702,2262065.7087168,-15660.542596834,3322611.8365769,8.9570157015702,0,0
82.584630982954,-27.219688043174,3.7614461446145,2262065.7087168,-15660.542596834,3322611.8365769,8.9614461446145,0,0
82.584631274863,-27.237217630878,3.7658765876588,2262065.7087168,-15660.542596834,3322611.8365769,8.9658765876588,0,0
82.584631566771,-27.254747218582,3.7703070307031,2262065.7087168,-15660.542596834,3322611.8365769,8.9703070307031,0,0
82.584631858679,-27.272276806285,3.7747374737474,2262065.7087168,-15660.542596834,3322611.8365769,8.9747374737474,0,0
82.584632150588,-27.289806393989,3.7791679167917,2262065.7087168,-15660.542596834,3322611.8365769,8.9791679167917,0,0
82.584632442496,-27.307335981693,3.783598359836,2262065.7087168,-15660.542596834,3322611.8365769,8.983598359836,0,0
82.584632734404,-27.324865569397,3.7880288028803,2262065.7087168,-15660.542596834,3322611.8365769,8.9880288028803,0,0
82.584633026312,-27.342395157101,3.7924592459246,2262065.7087168,-15660.542596834,3322611.8365769,8.9924592459246,0,0
82.584633318221,-27.359924744805,3.7968896889689,2262065.7087168,-15660.542596834,3322611.8365769,8.9968896889689,0,0
82.584633610129,-27.377454332509,3.8013201320132,2262065.7087168,-15660.542596834,3322611.8365769,9.0013201320132,0,0
82.584633902037,-27.394983920213,3.8057505750575,2262065.7087168,-15660.542596834,3322611.8365769,9.0057505750575,0,0
82.584634193946,-27.412513507917,3.8101810181018,2262065.7087168,-15660.542596834,3322611.8365769,9.0101810181018,0,0
82.584634485854,-27.43004309562,3.8146114611461,2262065.7087168,-15660.542596834,3322611.8365769,9.0146114611461,0,0
82.584634777762,-27.447572683324,3.8190419041904,2262065.7087168,-15660.542596834,3322611.8365769,9.0190419041904,0,0
82.584635069671,-27.465102271028,3.8234723472347,2262065.7087168,-15660.542596834,3322611.8365769,9.0234723472347,0,0
82.584635361579,-27.482631858732,3.827902790279,2262065.7087168,-15660.542596834,3322611.8365769,9.027902790279,0,0
82.584635653487,-27.500161446436,3.8323332333233,2262065.7087168,-15660.542596834,3322611.8365769,9.0323332333233,0,0
82.584635945395,-27.51769103414,3.8367636763676,2262065.7087168,-15660.542596834,3322611.8365769,9.0367636763676,0,0
82.584636237304,-27.535220621844,3.8411941194119,2262065.7087168,-15660.542596834,3322611.8365769,9.0411941194119,0,0
82.584636529212,-27.552750209548,3.8456245624562,2262065.7087168,-15660.542596834,3322611.8365769,9.0456245624562,0,0
82.58463682112,-27.570279797252,3.8500550055005,2262065.7087168,-15660.542596834,3322611.8365769,9.0500550055005,0,0
82.584637113029,-27.587809384955,3.8544854485449,2262065.7087168,-15660.542596834,3322611.8365769,9.0544854485449,0,0
82.584637404937,-27.605338972659,3.8589158915892,2262065.7087168,-15660.542596834,3322611.8365769,9.0589158915892,0,0
82.584637696845,-27.622868560363,3.8633463346335,2262065.7087168,-15660.542596834,3322611.8365769,9.0633463346335,0,0
82.584637988753,-27.640398148067,3.8677767776778,2262065.7087168,-15660.542596834,3322611.8365769,9.0677767776778,0,0
82.584638280662,-27.657927735771,3.8722072207221,2262065.7087168,-15660.542596834,3322611.8365769,9.0722072207221,0,0
82.58463857257,-27.675457323475,3.8766376637664,2262065.7087168,-15660.542596834,3322611.8365769,9.0766376637664,0,0
82.584638864478,-27.692986911179,3.8810681068107,2262065.7087168,-15660.542596834,3322611.8365769,9.0810681068107,0,0
82.584639156387,-27.710516498883,3.885498549855,2262065.7087168,-15660.542596834,3322611.8365769,9.085498549855,0,0
82.584639448295,-27.728046086587,3.8899289928993,2262065.7087168,-15660.542596834,3322611.8365769,9.0899289928993,0,0
82.584639740203,-27.74557567429,3.8943594359436,2262065.7087168,-15660.542596834,3322611.8365769,9.0943594359436,0,0
82.584640032112,-27.763105261994,3.8987898789879,2262065.7087168,-15660.542596834,3322611.8365769,9.0987898789879,0,0
82.58464032402,-27.780634849698,3.9032203220322,2262065.7087168,-15660.542596834,3322611.8365769,9.1032203220322,0,0
82.584640615928,-27.798164437402,3.9076507650765,2262065.7087168,-15660.542596834,3322611.8365769,9.1076507650765,0,0
82.584640907836,-27.815694025106,3.9120812081208,2262065.7087168,-15660.542596834,3322611.8365769,9.1120812081208,0,0
82.584641199745,-27.83322361281,3.9165116511651,2262065.7087168,-15660.542596834,3322611.8365769,9.1165116511651,0,0
82.584641491653,-27.850753200514,3.9209420942094,2262065.7087168,-15660.542596834,3322611.8365769,9.1209420942094,0,0
82.584641783561,-27.868282788218,3.9253725372537,2262065.7087168,-15660.542596834,3322611.8365769,9.1253725372537,0,0
82.58464207547,-27.885812375922,3.929802980298,2262065.7087168,-15660.542596834,3322611.8365769,9.129802980298,0,0
82.584642367378,-27.903341963626,3.9342334233423,2262065.7087168,-15660.542596834,3322611.8365769,9.1342334233423,0,0
82.584642659286,-27.920871551329,3.9386638663866,2262065.7087168,-15660.542596834,3322611.8365769,9.1386638663866,0,0
82.584642951194,-27.938401139033,3.9430943094309,2262065.7087168,-15660.542596834,3322611.8365769,9.1430943094309,0,0
82.584643243103,-27.955930726737,3.9475247524752,2262065.7087168,-15660.542596834,3322611.8365769,9.1475247524752,0,0
82.584643535011,-27.973460314441,3.9519551955196,2262065.7087168,-15660.542596834,3322611.8365769,9.1519551955196,0,0
82.584643826919,-27.990989902145,3.9563856385639,2262065.7087168,-15660.542596834,3322611.8365769,9.1563856385639,0,0
82.584644118828,-28.008519489849,3.9608160816082,2262065.7087168,-15660.542596834,3322611.8365769,9.1608160816082,0,0
82.584644410736,-28.026049077553,3.9652465246525,2262065.7087168,-15660.542596834,3322611.8365769,9.1652465246525,0,0
82.584644702644,-28.043578665257,3.9696769676968,2262065.7087168,-15660.542596834,3322611.8365769,9.1696769676968,0,0
82.584644994553,-28.061108252961,3.9741074107411,2262065.7087168,-15660.542596834,3322611.8365769,9.1741074107411,0,0
82.584645286461,-28.078637840664,3.9785378537854,2262065.7087168,-15660.542596834,3322611.8365769,9.1785378537854,0,0
82.584645578369,-28.096167428368,3.9829682968297,2262065.7087168,-15660.542596834,3322611.8365769,9.1829682968297,0,0
82.584645870277,-28.113697016072,3.987398739874,2262065.7087168,-15660.542596834,3322611.8365769,9.187398739874,0,0
82.584646162186,-28.131226603776,3.9918291829183,2262065.7087168,-15660.542596834,3322611.8365769,9.1918291829183,0,0
82.584646454094,-28.14875619148,3.9962596259626,2262065.7087168,-15660.542596834,3322611.8365769,9.1962596259626,0,0
82.584646746002,-28.166285779184,4.0006900690069,2262065.7087168,-15660.542596834,3322611.8365769,9.2006900690069,0,0
82.584647037911,-28.183815366888,4.0051205120512,2262065.7087168,-15660.542596834,3322611.8365769,9.2051205120512,0,0
82.584647330905,-28.201344957854,4.0095509550955,2271037.1938354,-44668.85496413,3245601.316595,9.2095509550955,0,0
82.584647625581,-28.218874553865,4.0139813981398,2271037.1938354,-44668.85496413,3245601.316595,9.2139813981398,0,0
82.584647920256,-28.236404149876,4.0184118411841,2271037.1938354,-44668.85496413,3245601.316595,9.2184118411841,0,0
82.584648214931,-28.253933745887,4.0228422842284,2271037.1938354,-44668.85496413,3245601.316595,9.2228422842284,0,0
82.584648509607,-28.271463341899,4.0272727272727,2271037.1938354,-44668.85496413,3245601.316595,9.2272727272727,0,0
82.584648804282,-28.28899293791,4.031703170317,2271037.1938354,-44668.85496413,3245601.316595,9.231703170317,0,0
82.584649098957,-28.306522533921,4.0361336133613,2271037.1938354,-44668.85496413,3245601.316595,9.2361336133613,0,0
82.584649393633,-28.324052129932,4.0405640564056,2271037.1938354,-44668.85496413,3245601.316595,9.2405640564056,0,0
82.584649688308,-28.341581725943,4.0449944994499,2271037.1938354,-44668.85496413,3245601.316595,9.2449944994499,0,0
82.584649982983,-28.359111321954,4.0494249424942,2271037.1938354,-44668.85496413,3245601.316595,9.2494249424942,0,0
82.584650277659,-28.376640917966,4.0538553855386,2271037.1938354,-44668.85496413,3245601.316595,9.2538553855386,0,0
82.584650572334,-28.394170513977,4.0582858285829,2271037.1938354,-44668.85496413,3245601.316595,9.2582858285829,0,0
82.584650867009,-28.411700109988,4.0627162716272,2271037.1938354,-44668.85496413,3245601.316595,9.2627162716272,0,0
82.584651161685,-28.429229705999,4.0671467146715,2271037.1938354,-44668.85496413,3245601.316595,9.2671467146715,0,0
82.58465145636,-28.44675930201,4.0715771577158,2271037.1938354,-44668.85496413,3245601.316595,9.2715771577158,0,0
82.584651751035,-28.464288898021,4.0760076007601,2271037.1938354,-44668.85496413,3245601.316595,9.2760076007601,0,0
82.584652045711,-28.481818494033,4.0804380438044,2271037.1938354,-44668.85496413,3245601.316595,9.2804380438044,0,0
82.584652340386,-28.499348090044,4.0848684868487,2271037.1938354,-44668.85496413,3245601.316595,9.2848684868487,0,0
82.584652635061,-28.516877686055,4.089298929893,2271037.1938354,-44668.85496413,3245601.316595,9.289298929893,0,0
82.584652929737,-28.534407282066,4.0937293729373,2271037.1938354,-44668.85496413,3245601.316595,9.2937293729373,0,0
82.584653224412,-28.551936878077,4.0981598159816,2271037.1938354,-44668.85496413,3245601.316595,9.2981598159816,0,0
82.584653519087,-28.569466474089,4.1025902590259,2271037.1938354,-44668.85496413,3245601.316595,9.3025902590259,0,0
82.584653813763,-28.5869960701,4.1070207020702,2271037.1938354,-44668.85496413,3245601.316595,9.3070207020702,0,0
82.584654108438,-28.604525666111,4.1114511451145,2271037.1938354,-44668.85496413,3245601.316595,9.3114511451145,0,0
82.584654403113,-28.622055262122,4.1158815881588,2271037.1938354,-44668.85496413,3245601.316595,9.3158815881588,0,0
82.584654697789,-28.639584858133,4.1203120312031,2271037.1938354,-44668.85496413,3245601.316595,9.3203120312031,0,0
82.584654992464,-28.657114454144,4.1247424742474,2271037.1938354,-44668.85496413,3245601.316595,9.3247424742474,0,0
82.584655287139,-28.674644050156,4.1291729172917,2271037.1938354,-44668.85496413,3245601.316595,9.3291729172917,0,0
82.584655581815,-28.692173646167,4.133603360336,2271037.1938354,-44668.85496413,3245601.316595,9.333603360336,0,0
82.58465587649,-28.709703242178,4.1380338033803,2271037.1938354,-44668.85496413,3245601.316595,9.3380338033803,0,0
82.584656171165,-28.727232838189,4.1424642464246,2271037.1938354,-44668.85496413,3245601.316595,9.3424642464246,0,0
82.584656471712,-28.744762429015,4.1468946894689,2389754.6406852,-21957.759873885,3246261.528343,9.3468946894689,0,0
82.584656775853,-28.762292016669,4.1513251325133,2389754.6406852,-21957.759873885,3246261.528343,9.3513251325133,0,0
82.584657079993,-28.779821604323,4.1557555755576,2389754.6406852,-21957.759873885,3246261.528343,9.3557555755576,0,0
82.584657384134,-28.797351191976,4.1601860186019,2389754.6406852,-21957.759873885,3246261.528343,9.3601860186019,0,0
82.584657688274,-28.81488077963,4.1646164616462,2389754.6406852,-21957.759873885,3246261.528343,9.3646164616462,0,0
82.584657992414,-28.832410367284,4.1690469046905,2389754.6406852,-21957.759873885,3246261.528343,9.3690469046905,0,0
82.584658296555,-28.849939954937,4.1734773477348,2389754.6406852,-21957.759873885,3246261.528343,9.3734773477348,0,0
82.584658600695,-28.867469542591,4.1779077907791,2389754.6406852,-21957.759873885,3246261.528343,9.3779077907791,0,0
82.584658904836,-28.884999130245,4.1823382338234,2389754.6406852,-21957.759873885,3246261.528343,9.3823382338234,0,0
82.584659208976,-28.902528717898,4.1867686768677,2389754.6406852,-21957.759873885,3246261.528343,9.3867686768677,0,0
82.584659513116,-28.920058305552,4.191199119912,2389754.6406852,-21957.759873885,3246261.528343,9.391199119912,0,0
82.584659817257,-28.937587893205,4.1956295629563,2389754.6406852,-21957.759873885,3246261.528343,9.3956295629563,0,0
82.584660121397,-28.955117480859,4.2000600060006,2389754.6406852,-21957.759873885,3246261.528343,9.4000600060006,0,0
82.584660425538,-28.972647068513,4.2044904490449,2389754.6406852,-21957.759873885,3246261.528343,9.4044904490449,0,0
82.584660729678,-28.990176656166,4.2089208920892,2389754.6406852,-21957.759873885,3246261.528343,9.4089208920892,0,0
82.584661033818,-29.00770624382,4.2133513351335,2389754.6406852,-21957.759873885,3246261.528343,9.4133513351335,0,0
82.584661337959,-29.025235831474,4.2177817781778,2389754.6406852,-21957.759873885,3246261.528343,9.4177817781778,0,0
82.584661642099,-29.042765419127,4.2222122212221,2389754.6406852,-21957.759873885,3246261.528343,9.4222122212221,0,0
82.58466194624,-29.060295006781,4.2266426642664,2389754.6406852,-21957.759873885,3246261.528343,9.4266426642664,0,0
82.58466225038,-29.077824594435,4.2310731073107,2389754.6406852,-21957.759873885,3246261.528343,9.4310731073107,0,0
82.58466255452,-29.095354182088,4.235503550355,2389754.6406852,-21957.759873885,3246261.528343,9.435503550355,0,0
82.584662858661,-29.112883769742,4.2399339933993,2389754.6406852,-21957.759873885,3246261.528343,9.4399339933993,0,0
82.584663162801,-29.130413357395,4.2443644364436,2389754.6406852,-21957.759873885,3246261.528343,9.4443644364436,0,0
82.584663466941,-29.147942945049,4.2487948794879,2389754.6406852,-21957.759873885,3246261.528343,9.4487948794879,0,0
82.584663771082,-29.165472532703,4.2532253225323,2389754.6406852,-21957.759873885,3246261.528343,9.4532253225323,0,0
82.584664075222,-29.183002120356,4.2576557655766,2389754.6406852,-21957.759873885,3246261.528343,9.4576557655766,0,0
82.584664379363,-29.20053170801,4.2620862086209,2389754.6406852,-21957.759873885,3246261.528343,9.4620862086209,0,0
82.584664683503,-29.218061295664,4.2665166516652,2389754.6406852,-21957.759873885,3246261.528343,9.4665166516652,0,0
82.584664987643,-29.235590883317,4.2709470947095,2389754.6406852,-21957.759873885,3246261.528343,9.4709470947095,0,0
82.584665291784,-29.253120470971,4.2753775377538,2389754.6406852,-21957.759873885,3246261.528343,9.4753775377538,0,0
82.584665595924,-29.270650058625,4.2798079807981,2389754.6406852,-21957.759873885,3246261.528343,9.4798079807981,0,0
82.584665900065,-29.288179646278,4.2842384238424,2389754.6406852,-21957.759873885,3246261.528343,9.4842384238424,0,0
82.584666204205,-29.305709233932,4.2886688668867,2389754.6406852,-21957.759873885,3246261.528343,9.4886688668867,0,0
82.584666508345,-29.323238821585,4.293099309931,2389754.6406852,-21957.759873885,3246261.528343,9.493099309931,0,0
82.584666812486,-29.340768409239,4.2975297529753,2389754.6406852,-21957.759873885,3246261.528343,9.4975297529753,0,0
82.584667116626,-29.358297996893,4.3019601960196,2389754.6406852,-21957.759873885,3246261.528343,9.5019601960196,0,0
82.584667420767,-29.375827584546,4.3063906390639,2389754.6406852,-21957.759873885,3246261.528343,9.5063906390639,0,0
82.584667724907,-29.3933571722,4.3108210821082,2389754.6406852,-21957.759873885,3246261.528343,9.5108210821082,0,0
82.584668029047,-29.410886759854,4.3152515251525,2389754.6406852,-21957.759873885,3246261.528343,9.5152515251525,0,0
82.584668333188,-29.428416347507,4.3196819681968,2389754.6406852,-21957.759873885,3246261.528343,9.5196819681968,0,0
82.584668637328,-29.445945935161,4.3241124112411,2389754.6406852,-21957.759873885,3246261.528343,9.5241124112411,0,0
82.584668941469,-29.463475522815,4.3285428542854,2389754.6406852,-21957.759873885,3246261.528343,9.5285428542854,0,0
82.584669245609,-29.481005110468,4.3329732973297,2389754.6406852,-21957.759873885,3246261.528343,9.5329732973297,0,0
82.584669549749,-29.498534698122,4.337403740374,2389754.6406852,-21957.759873885,3246261.528343,9.537403740374,0,0
82.58466985389,-29.516064285775,4.3418341834183,2389754.6406852,-21957.759873885,3246261.528343,9.5418341834183,0,0
82.58467015803,-29.533593873429,4.3462646264626,2389754.6406852,-21957.759873885,3246261.528343,9.5462646264626,0,0
82.584670462171,-29.551123461083,4.350695069507,2389754.6406852,-21957.759873885,3246261.528343,9.550695069507,0,0
82.584670766311,-29.568653048736,4.3551255125513,2389754.6406852,-21957.759873885,3246261.528343,9.5551255125513,0,0
82.584671070451,-29.58618263639,4.3595559555956,2389754.6406852,-21957.759873885,3246261.528343,9.5595559555956,0,0
82.584671374592,-29.603712224044,4.3639863986399,2389754.6406852,-21957.759873885,3246261.528343,9.5639863986399,0,0
82.584671678732,-29.621241811697,4.3684168416842,2389754.6406852,-21957.759873885,3246261.528343,9.5684168416842,0,0
82.584671982873,-29.638771399351,4.3728472847285,2389754.6406852,-21957.759873885,3246261.528343,9.5728472847285,0,0
82.584672287013,-29.656300987005,4.3772777277728,2389754.6406852,-21957.759873885,3246261.528343,9.5772777277728,0,0
82.584672591153,-29.673830574658,4.3817081708171,2389754.6406852,-21957.759873885,3246261.528343,9.5817081708171,0,0
82.584672895294,-29.691360162312,4.3861386138614,2389754.6406852,-21957.759873885,3246261.528343,9.5861386138614,0,0
82.584673199434,-29.708889749965,4.3905690569057,2389754.6406852,-21957.759873885,3246261.528343,9.5905690569057,0,0
82.584673503574,-29.726419337619,4.39499949995,2389754.6406852,-21957.759873885,3246261.528343,9.59499949995,0,0
82.584673807715,-29.743948925273,4.3994299429943,2389754.6406852,-21957.759873885,3246261.528343,9.5994299429943,0,0
82.584674111855,-29.761478512926,4.4038603860386,2389754.6406852,-21957.759873885,3246261.528343,9.6038603860386,0,0
82.584674415996,-29.77900810058,4.4082908290829,2389754.6406852,-21957.759873885,3246261.528343,9.6082908290829,0,0
82.584674720136,-29.796537688234,4.4127212721272,2389754.6406852,-21957.759873885,3246261.528343,9.6127212721272,0,0
82.584675024276,-29.814067275887,4.4171517151715,2389754.6406852,-21957.759873885,3246261.528343,9.6171517151715,0,0
82.584675328417,-29.831596863541,4.4215821582158,2389754.6406852,-21957.759873885,3246261.528343,9.6215821582158,0,0
82.584675632557,-29.849126451195,4.4260126012601,2389754.6406852,-21957.759873885,3246261.528343,9.6260126012601,0,0
82.584675936698,-29.866656038848,4.4304430443044,2389754.6406852,-21957.759873885,3246261.528343,9.6304430443044,0,0
82.584676240838,-29.884185626502,4.4348734873487,2389754.6406852,-21957.759873885,3246261.528343,9.6348734873487,0,0
82.584676544978,-29.901715214155,4.439303930393,2389754.6406852,-21957.759873885,3246261.528343,9.639303930393,0,0
82.584676849119,-29.919244801809,4.4437343734373,2389754.6406852,-21957.759873885,3246261.528343,9.6437343734373,0,0
82.584677153259,-29.936774389463,4.4481648164816,2389754.6406852,-21957.759873885,3246261.528343,9.6481648164816,0,0
82.5846774574,-29.954303977116,4.452595259526,2389754.6406852,-21957.759873885,3246261.528343,9.652595259526,0,0
82.58467776154,-29.97183356477,4.4570257025703,2389754.6406852,-21957.759873885,3246261.528343,9.6570257025703,0,0
82.58467806568,-29.989363152424,4.4614561456146,2389754.6406852,-21957.759873885,3246261.528343,9.6614561456146,0,0
82.584678369821,-30.006892740077,4.4658865886589,2389754.6406852,-21957.759873885,3246261.528343,9.6658865886589,0,0
82.584678673961,-30.024422327731,4.4703170317032,2389754.6406852,-21957.759873885,3246261.528343,9.6703170317032,0,0
82.584678978102,-30.041951915384,4.4747474747475,2389754.6406852,-21957.759873885,3246261.528343,9.6747474747475,0,0
82.584679282242,-30.059481503038,4.4791779177918,2389754.6406852,-21957.759873885,3246261.528343,9.6791779177918,0,0
82.584679586382,-30.077011090692,4.4836083608361,2389754.6406852,-21957.759873885,3246261.528343,9.6836083608361,0,0
82.584679890523,-30.094540678345,4.4880388038804,2389754.6406852,-21957.759873885,3246261.528343,9.6880388038804,0,0
82.584680194663,-30.112070265999,4.4924692469247,2389754.6406852,-21957.759873885,3246261.528343,9.6924692469247,0,0
82.584680498804,-30.129599853653,4.496899689969,2389754.6406852,-21957.759873885,3246261.528343,9.696899689969,0,0
82.584680802944,-30.147129441306,4.5013301330133,2389754.6406852,-21957.759873885,3246261.528343,9.7013301330133,0,0
82.584681107084,-30.16465902896,4.5057605760576,2389754.6406852,-21957.759873885,3246261.528343,9.7057605760576,0,0
82.584681411225,-30.182188616614,4.5101910191019,2389754.6406852,-21957.759873885,3246261.528343,9.7101910191019,0,0
82.584681715365,-30.199718204267,4.5146214621462,2389754.6406852,-21957.759873885,3246261.528343,9.7146214621462,0,0
82.584682019506,-30.217247791921,4.5190519051905,2389754.6406852,-21957.759873885,3246261.528343,9.7190519051905,0,0
82.584682323646,-30.234777379574,4.5234823482348,2389754.6406852,-21957.759873885,3246261.528343,9.7234823482348,0,0
82.584682627786,-30.252306967228,4.5279127912791,2389754.6406852,-21957.759873885,3246261.528343,9.7279127912791,0,0
82.584682931927,-30.269836554882,4.5323432343234,2389754.6406852,-21957.759873885,3246261.528343,9.7323432343234,0,0
82.584683236067,-30.287366142535,4.5367736773677,2389754.6406852,-21957.759873885,3246261.528343,9.7367736773677,0,0
82.584683540207,-30.304895730189,4.541204120412,2389754.6406852,-21957.759873885,3246261.528343,9.741204120412,0,0
82.584683844348,-30.322425317843,4.5456345634563,2389754.6406852,-21957.759873885,3246261.528343,9.7456345634563,0,0
82.584684148488,-30.339954905496,4.5500650065006,2389754.6406852,-21957.759873885,3246261.528343,9.7500650065007,0,0
82.584684452629,-30.35748449315,4.554495449545,2389754.6406852,-21957.759873885,3246261.528343,9.754495449545,0,0
82.584684760891,-30.375014087343,4.5589258925893,2433453.4536047,-42127.160595555,3183770.734895,9.7589258925893,0,0
82.584685070186,-30.392543683173,4.5633563356336,2433453.4536047,-42127.160595555,3183770.734895,9.7633563356336,0,0
82.584685379481,-30.410073279003,4.5677867786779,2433453.4536047,-42127.160595555,3183770.734895,9.7677867786779,0,0
82.584685688776,-30.427602874833,4.5722172217222,2433453.4536047,-42127.160595555,3183770.734895,9.7722172217222,0,0
82.58468599807,-30.445132470662,4.5766476647665,2433453.4536047,-42127.160595555,3183770.734895,9.7766476647665,0,0
82.584686307365,-30.462662066492,4.5810781078108,2433453.4536047,-42127.160595555,3183770.734895,9.7810781078108,0,0
82.58468661666,-30.480191662322,4.5855085508551,2433453.4536047,-42127.160595555,3183770.734895,9.7855085508551,0,0
82.584686925954,-30.497721258152,4.5899389938994,2433453.4536047,-42127.160595555,3183770.734895,9.7899389938994,0,0
82.584687235249,-30.515250853982,4.5943694369437,2433453.4536047,-42127.160595555,3183770.734895,9.7943694369437,0,0
82.584687544544,-30.532780449812,4.598799879988,2433453.4536047,-42127.160595555,3183770.734895,9.798799879988,0,0
82.584687853838,-30.550310045642,4.6032303230323,2433453.4536047,-42127.160595555,3183770.734895,9.8032303230323,0,0
82.584688163133,-30.567839641472,4.6076607660766,2433453.4536047,-42127.160595555,3183770.734895,9.8076607660766,0,0
82.584688472428,-30.585369237301,4.6120912091209,2433453.4536047,-42127.160595555,3183770.734895,9.8120912091209,0,0
82.584688781723,-30.602898833131,4.6165216521652,2433453.4536047,-42127.160595555,3183770.734895,9.8165216521652,0,0
82.584689091017,-30.620428428961,4.6209520952095,2433453.4536047,-42127.160595555,3183770.734895,9.8209520952095,0,0
82.584689400312,-30.637958024791,4.6253825382538,2433453.4536047,-42127.160595555,3183770.734895,9.8253825382538,0,0
82.584689709607,-30.655487620621,4.6298129812981,2433453.4536047,-42127.160595555,3183770.734895,9.8298129812981,0,0
82.584690018901,-30.673017216451,4.6342434243424,2433453.4536047,-42127.160595555,3183770.734895,9.8342434243424,0,0
82.584690328196,-30.690546812281,4.6386738673867,2433453.4536047,-42127.160595555,3183770.734895,9.8386738673867,0,0
82.584690637491,-30.708076408111,4.643104310431,2433453.4536047,-42127.160595555,3183770.734895,9.843104310431,0,0
82.584690946786,-30.72560600394,4.6475347534753,2433453.4536047,-42127.160595555,3183770.734895,9.8475347534753,0,0
82.58469125608,-30.74313559977,4.6519651965197,2433453.4536047,-42127.160595555,3183770.734895,9.8519651965197,0,0
82.584691565375,-30.7606651956,4.656395639564,2433453.4536047,-42127.160595555,3183770.734895,9.856395639564,0,0
82.584691877192,-30.778194786654,4.6608260826083,2478046.9380198,-11931.961371374,3145691.8138269,9.8608260826083,0,0
82.584692191062,-30.795724373819,4.6652565256526,2478046.9380198,-11931.961371374,3145691.8138269,9.8652565256526,0,0
82.584692504933,-30.813253960984,4.6696869686969,2478046.9380198,-11931.961371374,3145691.8138269,9.8696869686969,0,0
82.584692818803,-30.830783548149,4.6741174117412,2478046.9380198,-11931.961371374,3145691.8138269,9.8741174117412,0,0
82.584693132674,-30.848313135314,4.6785478547855,2478046.9380198,-11931.961371374,3145691.8138269,9.8785478547855,0,0
82.584693446544,-30.865842722479,4.6829782978298,2478046.9380198,-11931.961371374,3145691.8138269,9.8829782978298,0,0
82.584693760415,-30.883372309644,4.6874087408741,2478046.9380198,-11931.961371374,3145691.8138269,9.8874087408741,0,0
82.584694074285,-30.900901896809,4.6918391839184,2478046.9380198,-11931.961371374,3145691.8138269,9.8918391839184,0,0
82.584694388156,-30.918431483974,4.6962696269627,2478046.9380198,-11931.961371374,3145691.8138269,9.8962696269627,0,0
82.584694702026,-30.935961071139,4.700700070007,2478046.9380198,-11931.961371374,3145691.8138269,9.900700070007,0,0
82.584695015897,-30.953490658304,4.7051305130513,2478046.9380198,-11931.961371374,3145691.8138269,9.9051305130513,0,0
82.584695329767,-30.971020245469,4.7095609560956,2478046.9380198,-11931.961371374,3145691.8138269,9.9095609560956,0,0
82.584695643638,-30.988549832634,4.7139913991399,2478046.9380198,-11931.961371374,3145691.8138269,9.9139913991399,0,0
82.584695957508,-31.006079419799,4.7184218421842,2478046.9380198,-11931.961371374,3145691.8138269,9.9184218421842,0,0
82.584696271379,-31.023609006964,4.7228522852285,2478046.9380198,-11931.961371374,3145691.8138269,9.9228522852285,0,0
82.584696585249,-31.041138594129,4.7272827282728,2478046.9380198,-11931.961371374,3145691.8138269,9.9272827282728,0,0
82.58469689912,-31.058668181294,4.7317131713171,2478046.9380198,-11931.961371374,3145691.8138269,9.9317131713171,0,0
82.58469721299,-31.076197768459,4.7361436143614,2478046.9380198,-11931.961371374,3145691.8138269,9.9361436143614,0,0
82.584697526861,-31.093727355624,4.7405740574057,2478046.9380198,-11931.961371374,3145691.8138269,9.9405740574057,0,0
82.584697840731,-31.111256942789,4.74500450045,2478046.9380198,-11931.961371374,3145691.8138269,9.94500450045,0,0
82.584698154602,-31.128786529954,4.7494349434943,2478046.9380198,-11931.961371374,3145691.8138269,9.9494349434943,0,0
82.584698468472,-31.146316117119,4.7538653865387,2478046.9380198,-11931.961371374,3145691.8138269,9.9538653865387,0,0
82.584698782343,-31.163845704284,4.758295829583,2478046.9380198,-11931.961371374,3145691.8138269,9.958295829583,0,0
82.584699096213,-31.181375291449,4.7627262726273,2478046.9380198,-11931.961371374,3145691.8138269,9.9627262726273,0,0
82.584699410084,-31.198904878614,4.7671567156716,2478046.9380198,-11931.961371374,3145691.8138269,9.9671567156716,0,0
82.584699723954,-31.216434465779,4.7715871587159,2478046.9380198,-11931.961371374,3145691.8138269,9.9715871587159,0,0
82.584700037825,-31.233964052944,4.7760176017602,2478046.9380198,-11931.961371374,3145691.8138269,9.9760176017602,0,0
82.584700351695,-31.251493640109,4.7804480448045,2478046.9380198,-11931.961371374,3145691.8138269,9.9804480448045,0,0
82.584700665566,-31.269023227274,4.7848784878488,2478046.9380198,-11931.961371374,3145691.8138269,9.9848784878488,0,0
82.584700979436,-31.286552814439,4.7893089308931,2478046.9380198,-11931.961371374,3145691.8138269,9.9893089308931,0,0
82.584701293307,-31.304082401604,4.7937393739374,2478046.9380198,-11931.961371374,3145691.8138269,9.9937393739374,0,0
82.584701607177,-31.321611988769,4.7981698169817,2478046.9380198,-11931.961371374,3145691.8138269,9.9981698169817,0,0
82.584701921048,-31.339141575934,4.802600260026,2478046.9380198,-11931.961371374,3145691.8138269,10.002600260026,0,0
82.584702234918,-31.356671163099,4.8070307030703,2478046.9380198,-11931.961371374,3145691.8138269,10.00703070307,0,0
82.584702548789,-31.374200750265,4.8114611461146,2478046.9380198,-11931.961371374,3145691.8138269,10.011461146115,0,0
82.584702862659,-31.39173033743,4.8158915891589,2478046.9380198,-11931.961371374,3145691.8138269,10.015891589159,0,0
82.58470317653,-31.409259924595,4.8203220322032,2478046.9380198,-11931.961371374,3145691.8138269,10.020322032203,0,0
82.5847034904,-31.42678951176,4.8247524752475,2478046.9380198,-11931.961371374,3145691.8138269,10.024752475248,0,0
82.584703804271,-31.444319098925,4.8291829182918,2478046.9380198,-11931.961371374,3145691.8138269,10.029182918292,0,0
82.584704118141,-31.46184868609,4.8336133613361,2478046.9380198,-11931.961371374,3145691.8138269,10.033613361336,0,0
82.584704432012,-31.479378273255,4.8380438043804,2478046.9380198,-11931.961371374,3145691.8138269,10.03804380438,0,0
82.584704745882,-31.49690786042,4.8424742474247,2478046.9380198,-11931.961371374,3145691.8138269,10.042474247425,0,0
82.584705059753,-31.514437447585,4.846904690469,2478046.9380198,-11931.961371374,3145691.8138269,10.046904690469,0,0
82.584705373623,-31.53196703475,4.8513351335134,2478046.9380198,-11931.961371374,3145691.8138269,10.051335133513,0,0
82.584705687494,-31.549496621915,4.8557655765577,2478046.9380198,-11931.961371374,3145691.8138269,10.055765576558,0,0
82.584706001364,-31.56702620908,4.860196019602,2478046.9380198,-11931.961371374,3145691.8138269,10.060196019602,0,0
82.584706315235,-31.584555796245,4.8646264626463,2478046.9380198,-11931.961371374,3145691.8138269,10.064626462646,0,0
82.584706629105,-31.60208538341,4.8690569056906,2478046.9380198,-11931.961371374,3145691.8138269,10.069056905691,0,0
82.584706942976,-31.619614970575,4.8734873487349,2478046.9380198,-11931.961371374,3145691.8138269,10.073487348735,0,0
82.584707256846,-31.63714455774,4.8779177917792,2478046.9380198,-11931.961371374,3145691.8138269,10.077917791779,0,0
82.584707570717,-31.654674144905,4.8823482348235,2478046.9380198,-11931.961371374,3145691.8138269,10.082348234823,0,0
82.584707884587,-31.67220373207,4.8867786778678,2478046.9380198,-11931.961371374,3145691.8138269,10.086778677868,0,0
82.584708198458,-31.689733319235,4.8912091209121,2478046.9380198,-11931.961371374,3145691.8138269,10.091209120912,0,0
82.584708512328,-31.7072629064,4.8956395639564,2478046.9380198,-11931.961371374,3145691.8138269,10.095639563956,0,0
82.584708826199,-31.724792493565,4.9000700070007,2478046.9380198,-11931.961371374,3145691.8138269,10.100070007001,0,0
82.584709140069,-31.74232208073,4.904500450045,2478046.9380198,-11931.961371374,3145691.8138269,10.104500450045,0,0
82.58470945394,-31.759851667895,4.9089308930893,2478046.9380198,-11931.961371374,3145691.8138269,10.108930893089,0,0
82.58470976781,-31.77738125506,4.9133613361336,2478046.9380198,-11931.961371374,3145691.8138269,10.113361336134,0,0
82.584710081681,-31.794910842225,4.9177917791779,2478046.9380198,-11931.961371374,3145691.8138269,10.117791779178,0,0
82.584710395551,-31.81244042939,4.9222222222222,2478046.9380198,-11931.961371374,3145691.8138269,10.122222222222,0,0
82.584710709422,-31.829970016555,4.9266526652665,2478046.9380198,-11931.961371374,3145691.8138269,10.126652665267,0,0
82.584711023292,-31.84749960372,4.9310831083108,2478046.9380198,-11931.961371374,3145691.8138269,10.131083108311,0,0
82.584711337163,-31.865029190885,4.9355135513551,2478046.9380198,-11931.961371374,3145691.8138269,10.135513551355,0,0
82.584711651033,-31.88255877805,4.9399439943994,2478046.9380198,-11931.961371374,3145691.8138269,10.139943994399,0,0
82.584711964904,-31.900088365215,4.9443744374437,2478046.9380198,-11931.961371374,3145691.8138269,10.144374437444,0,0
82.584712278774,-31.91761795238,4.948804880488,2478046.9380198,-11931.961371374,3145691.8138269,10.148804880488,0,0
82.584712592645,-31.935147539545,4.9532353235324,2478046.9380198,-11931.961371374,3145691.8138269,10.153235323532,0,0
82.584712906515,-31.95267712671,4.9576657665767,2478046.9380198,-11931.961371374,3145691.8138269,10.157665766577,0,0
82.584713220386,-31.970206713875,4.962096209621,2478046.9380198,-11931.961371374,3145691.8138269,10.162096209621,0,0
82.584713534256,-31.98773630104,4.9665266526653,2478046.9380198,-11931.961371374,3145691.8138269,10.166526652665,0,0
82.584713848127,-32.005265888205,4.9709570957096,2478046.9380198,-11931.961371374,3145691.8138269,10.17095709571,0,0
82.584714161997,-32.02279547537,4.9753875387539,2478046.9380198,-11931.961371374,3145691.8138269,10.175387538754,0,0
82.584714475868,-32.040325062535,4.9798179817982,2478046.9380198,-11931.961371374,3145691.8138269,10.179817981798,0,0
82.584714789738,-32.0578546497,4.9842484248425,2478046.9380198,-11931.961371374,3145691.8138269,10.184248424842,0,0
82.584715103609,-32.075384236865,4.9886788678868,2478046.9380198,-11931.961371374,3145691.8138269,10.188678867887,0,0
82.584715417479,-32.09291382403,4.9931093109311,2478046.9380198,-11931.961371374,3145691.8138269,10.193109310931,0,0
82.584715742341,-32.110443416753,4.9975397539754,2629183.351055,-14665.357748527,3162548.5539189,10.197539753975,0,0
82.584716067835,-32.127973009795,5.0019701970197,2629183.351055,-14665.357748527,3162548.5539189,10.20197019702,0,0
82.584716393329,-32.145502602838,5.006400640064,2629183.351055,-14665.357748527,3162548.5539189,10.206400640064,0,0
82.584716718823,-32.16303219588,5.0108310831083,2629183.351055,-14665.357748527,3162548.5539189,10.210831083108,0,0
82.584717044317,-32.180561788923,5.0152615261526,2629183.351055,-14665.357748527,3162548.5539189,10.215261526153,0,0
82.584717369811,-32.198091381965,5.0196919691969,2629183.351055,-14665.357748527,3162548.5539189,10.219691969197,0,0
82.584717695304,-32.215620975008,5.0241224122412,2629183.351055,-14665.357748527,3162548.5539189,10.224122412241,0,0
82.584718020798,-32.23315056805,5.0285528552855,2629183.351055,-14665.357748527,3162548.5539189,10.228552855286,0,0
82.584718346292,-32.250680161093,5.0329832983298,2629183.351055,-14665.357748527,3162548.5539189,10.23298329833,0,0
82.584718671786,-32.268209754135,5.0374137413741,2629183.351055,-14665.357748527,3162548.5539189,10.237413741374,0,0
82.58471899728,-32.285739347178,5.0418441844184,2629183.351055,-14665.357748527,3162548.5539189,10.241844184418,0,0
82.584719322774,-32.30326894022,5.0462746274627,2629183.351055,-14665.357748527,3162548.5539189,10.246274627463,0,0
82.584719648267,-32.320798533263,5.050705070507,2629183.351055,-14665.357748527,3162548.5539189,10.250705070507,0,0
82.584719973761,-32.338328126305,5.0551355135514,2629183.351055,-14665.357748527,3162548.5539189,10.255135513551,0,0
82.584720299255,-32.355857719348,5.0595659565957,2629183.351055,-14665.357748527,3162548.5539189,10.259565956596,0,0
82.584720624749,-32.37338731239,5.06399639964,2629183.351055,-14665.357748527,3162548.5539189,10.26399639964,0,0
82.584720950243,-32.390916905432,5.0684268426843,2629183.351055,-14665.357748527,3162548.5539189,10.268426842684,0,0
82.584721275737,-32.408446498475,5.0728572857286,2629183.351055,-14665.357748527,3162548.5539189,10.272857285729,0,0
82.58472160123,-32.425976091517,5.0772877287729,2629183.351055,-14665.357748527,3162548.5539189,10.277287728773,0,0
82.584721926724,-32.44350568456,5.0817181718172,2629183.351055,-14665.357748527,3162548.5539189,10.281718171817,0,0
82.584722252218,-32.461035277602,5.0861486148615,2629183.351055,-14665.357748527,3162548.5539189,10.286148614861,0,0
82.584722577712,-32.478564870645,5.0905790579058,2629183.351055,-14665.357748527,3162548.5539189,10.290579057906,0,0
82.584722903206,-32.496094463687,5.0950095009501,2629183.351055,-14665.357748527,3162548.5539189,10.29500950095,0,0
82.584723228699,-32.51362405673,5.0994399439944,2629183.351055,-14665.357748527,3162548.5539189,10.299439943994,0,0
82.584723554193,-32.531153649772,5.1038703870387,2629183.351055,-14665.357748527,3162548.5539189,10.303870387039,0,0
82.584723879687,-32.548683242815,5.108300830083,2629183.351055,-14665.357748527,3162548.5539189,10.308300830083,0,0
82.584724205181,-32.566212835857,5.1127312731273,2629183.351055,-14665.357748527,3162548.5539189,10.312731273127,0,0
82.584724530675,-32.5837424289,5.1171617161716,2629183.351055,-14665.357748527,3162548.5539189,10.317161716172,0,0
82.584724856169,-32.601272021942,5.1215921592159,2629183.351055,-14665.357748527,3162548.5539189,10.321592159216,0,0
82.584725181662,-32.618801614985,5.1260226022602,2629183.351055,-14665.357748527,3162548.5539189,10.32602260226,0,0
82.584725507156,-32.636331208027,5.1304530453045,2629183.351055,-14665.357748527,3162548.5539189,10.330453045305,0,0
82.58472583265,-32.65386080107,5.1348834883488,2629183.351055,-14665.357748527,3162548.5539189,10.334883488349,0,0
82.584726158144,-32.671390394112,5.1393139313931,2629183.351055,-14665.357748527,3162548.5539189,10.339313931393,0,0
82.584726483638,-32.688919987155,5.1437443744374,2629183.351055,-14665.357748527,3162548.5539189,10.343744374437,0,0
82.584726809132,-32.706449580197,5.1481748174817,2629183.351055,-14665.357748527,3162548.5539189,10.348174817482,0,0
82.584727134625,-32.723979173239,5.1526052605261,2629183.351055,-14665.357748527,3162548.5539189,10.352605260526,0,0
82.584727460119,-32.741508766282,5.1570357035704,2629183.351055,-14665.357748527,3162548.5539189,10.35703570357,0,0
82.584727785613,-32.759038359324,5.1614661466147,2629183.351055,-14665.357748527,3162548.5539189,10.361466146615,0,0
82.584728111107,-32.776567952367,5.165896589659,2629183.351055,-14665.357748527,3162548.5539189,10.365896589659,0,0
82.584728436601,-32.794097545409,5.1703270327033,2629183.351055,-14665.357748527,3162548.5539189,10.370327032703,0,0
82.584728762095,-32.811627138452,5.1747574757476,2629183.351055,-14665.357748527,3162548.5539189,10.374757475748,0,0
82.584729087588,-32.829156731494,5.1791879187919,2629183.351055,-14665.357748527,3162548.5539189,10.379187918792,0,0
82.584729413082,-32.846686324537,5.1836183618362,2629183.351055,-14665.357748527,3162548.5539189,10.383618361836,0,0
82.584729738576,-32.864215917579,5.1880488048805,2629183.351055,-14665.357748527,3162548.5539189,10.38804880488,0,0
82.58473006407,-32.881745510622,5.1924792479248,2629183.351055,-14665.357748527,3162548.5539189,10.392479247925,0,0
82.584730389564,-32.899275103664,5.1969096909691,2629183.351055,-14665.357748527,3162548.5539189,10.396909690969,0,0
82.584730715058,-32.916804696707,5.2013401340134,2629183.351055,-14665.357748527,3162548.5539189,10.401340134013,0,0
82.584731040551,-32.934334289749,5.2057705770577,2629183.351055,-14665.357748527,3162548.5539189,10.405770577058,0,0
82.584731366045,-32.951863882792,5.210201020102,2629183.351055,-14665.357748527,3162548.5539189,10.410201020102,0,0
82.584731691539,-32.969393475834,5.2146314631463,2629183.351055,-14665.357748527,3162548.5539189,10.414631463146,0,0
82.584732017033,-32.986923068877,5.2190619061906,2629183.351055,-14665.357748527,3162548.5539189,10.419061906191,0,0
82.584732342527,-33.004452661919,5.2234923492349,2629183.351055,-14665.357748527,3162548.5539189,10.423492349235,0,0
82.58473266802,-33.021982254962,5.2279227922792,2629183.351055,-14665.357748527,3162548.5539189,10.427922792279,0,0
82.584732993514,-33.039511848004,5.2323532353235,2629183.351055,-14665.357748527,3162548.5539189,10.432353235324,0,0
82.584733319008,-33.057041441046,5.2367836783678,2629183.351055,-14665.357748527,3162548.5539189,10.436783678368,0,0
82.584733642161,-33.074571032067,5.2412141214121,2548084.7116478,28696.312249394,3074165.2875486,10.441214121412,0,0
82.58473396353,-33.092100621547,5.2456445644564,2548084.7116478,28696.312249394,3074165.2875486,10.445644564456,0,0
82.5847342849,-33.109630211027,5.2500750075008,2548084.7116478,28696.312249394,3074165.2875486,10.450075007501,0,0
82.584734606269,-33.127159800507,5.2545054505451,2548084.7116478,28696.312249394,3074165.2875486,10.454505450545,0,0
82.584734927638,-33.144689389987,5.2589358935894,2548084.7116478,28696.312249394,3074165.2875486,10.458935893589,0,0
82.584735249007,-33.162218979467,5.2633663366337,2548084.7116478,28696.312249394,3074165.2875486,10.463366336634,0,0
82.584735570377,-33.179748568947,5.267796779678,2548084.7116478,28696.312249394,3074165.2875486,10.467796779678,0,0
82.584735891746,-33.197278158427,5.2722272227223,2548084.7116478,28696.312249394,3074165.2875486,10.472227222722,0,0
82.584736213115,-33.214807747907,5.2766576657666,2548084.7116478,28696.312249394,3074165.2875486,10.476657665767,0,0
82.584736534484,-33.232337337387,5.2810881088109,2548084.7116478,28696.312249394,3074165.2875486,10.481088108811,0,0
82.584736855853,-33.249866926867,5.2855185518552,2548084.7116478,28696.312249394,3074165.2875486,10.485518551855,0,0
82.584737177223,-33.267396516347,5.2899489948995,2548084.7116478,28696.312249394,3074165.2875486,10.489948994899,0,0
82.584737498592,-33.284926105827,5.2943794379438,2548084.7116478,28696.312249394,3074165.2875486,10.494379437944,0,0
82.584737819961,-33.302455695308,5.2988098809881,2548084.7116478,28696.312249394,3074165.2875486,10.498809880988,0,0
82.58473814133,-33.319985284788,5.3032403240324,2548084.7116478,28696.312249394,3074165.2875486,10.503240324032,0,0
82.5847384627,-33.337514874268,5.3076707670767,2548084.7116478,28696.312249394,3074165.2875486,10.507670767077,0,0
82.584738784069,-33.355044463748,5.312101210121,2548084.7116478,28696.312249394,3074165.2875486,10.512101210121,0,0
82.584739105438,-33.372574053228,5.3165316531653,2548084.7116478,28696.312249394,3074165.2875486,10.516531653165,0,0
82.584739426807,-33.390103642708,5.3209620962096,2548084.7116478,28696.312249394,3074165.2875486,10.52096209621,0,0
82.584739748177,-33.407633232188,5.3253925392539,2548084.7116478,28696.312249394,3074165.2875486,10.525392539254,0,0
82.584740069546,-33.425162821668,5.3298229822982,2548084.7116478,28696.312249394,3074165.2875486,10.529822982298,0,0
82.584740390915,-33.442692411148,5.3342534253425,2548084.7116478,28696.312249394,3074165.2875486,10.534253425343,0,0
82.584740712284,-33.460222000628,5.3386838683868,2548084.7116478,28696.312249394,3074165.2875486,10.538683868387,0,0
82.584741033654,-33.477751590108,5.3431143114311,2548084.7116478,28696.312249394,3074165.2875486,10.543114311431,0,0
82.584741355023,-33.495281179588,5.3475447544754,2548084.7116478,28696.312249394,3074165.2875486,10.547544754475,0,0
82.584741676392,-33.512810769068,5.3519751975198,2548084.7116478,28696.312249394,3074165.2875486,10.55197519752,0,0
82.584741997761,-33.530340358548,5.3564056405641,2548084.7116478,28696.312249394,3074165.2875486,10.556405640564,0,0
82.584742319131,-33.547869948028,5.3608360836084,2548084.7116478,28696.312249394,3074165.2875486,10.560836083608,0,0
82.5847426405,-33.565399537508,5.3652665266527,2548084.7116478,28696.312249394,3074165.2875486,10.565266526653,0,0
82.584742961869,-33.582929126988,5.369696969697,2548084.7116478,28696.312249394,3074165.2875486,10.569696969697,0,0
82.584743283238,-33.600458716468,5.3741274127413,2548084.7116478,28696.312249394,3074165.2875486,10.574127412741,0,0
82.584743604607,-33.617988305948,5.3785578557856,2548084.7116478,28696.312249394,3074165.2875486,10.578557855786,0,0
82.584743925977,-33.635517895428,5.3829882988299,2548084.7116478,28696.312249394,3074165.2875486,10.58298829883,0,0
82.584744247346,-33.653047484908,5.3874187418742,2548084.7116478,28696.312249394,3074165.2875486,10.587418741874,0,0
82.584744568715,-33.670577074388,5.3918491849185,2548084.7116478,28696.312249394,3074165.2875486,10.591849184918,0,0
82.584744890084,-33.688106663868,5.3962796279628,2548084.7116478,28696.312249394,3074165.2875486,10.596279627963,0,0
82.584745211454,-33.705636253348,5.4007100710071,2548084.7116478,28696.312249394,3074165.2875486,10.600710071007,0,0
82.584745532823,-33.723165842828,5.4051405140514,2548084.7116478,28696.312249394,3074165.2875486,10.605140514051,0,0
82.584745854192,-33.740695432308,5.4095709570957,2548084.7116478,28696.312249394,3074165.2875486,10.609570957096,0,0
82.584746175561,-33.758225021788,5.41400140014,2548084.7116478,28696.312249394,3074165.2875486,10.61400140014,0,0
82.584746496931,-33.775754611268,5.4184318431843,2548084.7116478,28696.312249394,3074165.2875486,10.618431843184,0,0
82.5847468183,-33.793284200748,5.4228622862286,2548084.7116478,28696.312249394,3074165.2875486,10.622862286229,0,0
82.584747139669,-33.810813790228,5.4272927292729,2548084.7116478,28696.312249394,3074165.2875486,10.627292729273,0,0
82.584747461038,-33.828343379708,5.4317231723172,2548084.7116478,28696.312249394,3074165.2875486,10.631723172317,0,0
82.584747782408,-33.845872969188,5.4361536153615,2548084.7116478,28696.312249394,3074165.2875486,10.636153615362,0,0
82.584748103777,-33.863402558668,5.4405840584058,2548084.7116478,28696.312249394,3074165.2875486,10.640584058406,0,0
82.584748425146,-33.880932148148,5.4450145014501,2548084.7116478,28696.312249394,3074165.2875486,10.64501450145,0,0
82.584748746515,-33.898461737628,5.4494449444944,2548084.7116478,28696.312249394,3074165.2875486,10.649444944494,0,0
82.584749067885,-33.915991327108,5.4538753875388,2548084.7116478,28696.312249394,3074165.2875486,10.653875387539,0,0
82.584749389254,-33.933520916588,5.4583058305831,2548084.7116478,28696.312249394,3074165.2875486,10.658305830583,0,0
82.584749710623,-33.951050506069,5.4627362736274,2548084.7116478,28696.312249394,3074165.2875486,10.662736273627,0,0
82.584750031992,-33.968580095549,5.4671667166717,2548084.7116478,28696.312249394,3074165.2875486,10.667166716672,0,0
82.584750361832,-33.986109682485,5.471597159716,2724124.3561002,39093.794866858,3126883.2354181,10.671597159716,0,0
82.584750695859,-34.003639268164,5.4760276027603,2724124.3561002,39093.794866858,3126883.2354181,10.67602760276,0,0
82.584751029886,-34.021168853844,5.4804580458046,2724124.3561002,39093.794866858,3126883.2354181,10.680458045805,0,0
82.584751363913,-34.038698439523,5.4848884888489,2724124.3561002,39093.794866858,3126883.2354181,10.684888488849,0,0
82.58475169794,-34.056228025202,5.4893189318932,2724124.3561002,39093.794866858,3126883.2354181,10.689318931893,0,0
82.584752031967,-34.073757610882,5.4937493749375,2724124.3561002,39093.794866858,3126883.2354181,10.693749374937,0,0
82.584752365994,-34.091287196561,5.4981798179818,2724124.3561002,39093.794866858,3126883.2354181,10.698179817982,0,0
82.584752700021,-34.108816782241,5.5026102610261,2724124.3561002,39093.794866858,3126883.2354181,10.702610261026,0,0
82.584753034048,-34.12634636792,5.5070407040704,2724124.3561002,39093.794866858,3126883.2354181,10.70704070407,0,0
82.584753368075,-34.143875953599,5.5114711471147,2724124.3561002,39093.794866858,3126883.2354181,10.711471147115,0,0
82.584753702102,-34.161405539279,5.515901590159,2724124.3561002,39093.794866858,3126883.2354181,10.715901590159,0,0
82.584754036129,-34.178935124958,5.5203320332033,2724124.3561002,39093.794866858,3126883.2354181,10.720332033203,0,0
82.584754370155,-34.196464710637,5.5247624762476,2724124.3561002,39093.794866858,3126883.2354181,10.724762476248,0,0
82.584754704182,-34.213994296317,5.5291929192919,2724124.3561002,39093.794866858,3126883.2354181,10.729192919292,0,0
82.584755038209,-34.231523881996,5.5336233623362,2724124.3561002,39093.794866858,3126883.2354181,10.733623362336,0,0
82.584755372236,-34.249053467675,5.5380538053805,2724124.3561002,39093.794866858,3126883.2354181,10.738053805381,0,0
82.584755706263,-34.266583053355,5.5424842484248,2724124.3561002,39093.794866858,3126883.2354181,10.742484248425,0,0
82.58475604029,-34.284112639034,5.5469146914691,2724124.3561002,39093.794866858,3126883.2354181,10.746914691469,0,0
82.584756374317,-34.301642224714,5.5513451345134,2724124.3561002,39093.794866858,3126883.2354181,10.751345134513,0,0
82.584756708344,-34.319171810393,5.5557755775578,2724124.3561002,39093.794866858,3126883.2354181,10.755775577558,0,0
82.584757042371,-34.336701396072,5.5602060206021,2724124.3561002,39093.794866858,3126883.2354181,10.760206020602,0,0
82.584757376398,-34.354230981752,5.5646364636464,2724124.3561002,39093.794866858,3126883.2354181,10.764636463646,0,0
82.584757710425,-34.371760567431,5.5690669066907,2724124.3561002,39093.794866858,3126883.2354181,10.769066906691,0,0
82.584758044451,-34.38929015311,5.573497349735,2724124.3561002,39093.794866858,3126883.2354181,10.773497349735,0,0
82.584758378478,-34.40681973879,5.5779277927793,2724124.3561002,39093.794866858,3126883.2354181,10.777927792779,0,0
82.584758712505,-34.424349324469,5.5823582358236,2724124.3561002,39093.794866858,3126883.2354181,10.782358235824,0,0
82.584759046532,-34.441878910149,5.5867886788679,2724124.3561002,39093.794866858,3126883.2354181,10.786788678868,0,0
82.584759380559,-34.459408495828,5.5912191219122,2724124.3561002,39093.794866858,3126883.2354181,10.791219121912,0,0
82.584759714586,-34.476938081507,5.5956495649565,2724124.3561002,39093.794866858,3126883.2354181,10.795649564956,0,0
82.584760048613,-34.494467667187,5.6000800080008,2724124.3561002,39093.794866858,3126883.2354181,10.800080008001,0,0
82.58476038264,-34.511997252866,5.6045104510451,2724124.3561002,39093.794866858,3126883.2354181,10.804510451045,0,0
82.584760716667,-34.529526838545,5.6089408940894,2724124.3561002,39093.794866858,3126883.2354181,10.808940894089,0,0
82.584761050694,-34.547056424225,5.6133713371337,2724124.3561002,39093.794866858,3126883.2354181,10.813371337134,0,0
82.584761384721,-34.564586009904,5.617801780178,2724124.3561002,39093.794866858,3126883.2354181,10.817801780178,0,0
82.584761718747,-34.582115595583,5.6222322232223,2724124.3561002,39093.794866858,3126883.2354181,10.822232223222,0,0
82.584762052774,-34.599645181263,5.6266626662666,2724124.3561002,39093.794866858,3126883.2354181,10.826662666267,0,0
82.584762386801,-34.617174766942,5.6310931093109,2724124.3561002,39093.794866858,3126883.2354181,10.831093109311,0,0
82.584762720828,-34.634704352622,5.6355235523552,2724124.3561002,39093.794866858,3126883.2354181,10.835523552355,0,0
82.584763054855,-34.652233938301,5.6399539953995,2724124.3561002,39093.794866858,3126883.2354181,10.8399539954,0,0
82.584763388075,-34.669763526702,5.6443844384438,2668826.0657261,-1113.9320190524,3037658.3280054,10.844384438444,0,0
82.584763720061,-34.68729311927,5.6488148814881,2668826.0657261,-1113.9320190524,3037658.3280054,10.848814881488,0,0
82.584764052047,-34.704822711838,5.6532453245325,2668826.0657261,-1113.9320190524,3037658.3280054,10.853245324532,0,0
82.584764384032,-34.722352304406,5.6576757675768,2668826.0657261,-1113.9320190524,3037658.3280054,10.857675767577,0,0
82.584764716018,-34.739881896974,5.6621062106211,2668826.0657261,-1113.9320190524,3037658.3280054,10.862106210621,0,0
82.584765048003,-34.757411489542,5.6665366536654,2668826.0657261,-1113.9320190524,3037658.3280054,10.866536653665,0,0
82.584765379989,-34.77494108211,5.6709670967097,2668826.0657261,-1113.9320190524,3037658.3280054,10.87096709671,0,0
82.584765711974,-34.792470674679,5.675397539754,2668826.0657261,-1113.9320190524,3037658.3280054,10.875397539754,0,0
82.58476604396,-34.810000267247,5.6798279827983,2668826.0657261,-1113.9320190524,3037658.3280054,10.879827982798,0,0
82.584766375945,-34.827529859815,5.6842584258426,2668826.0657261,-1113.9320190524,3037658.3280054,10.884258425843,0,0
82.584766707931,-34.845059452383,5.6886888688869,2668826.0657261,-1113.9320190524,3037658.3280054,10.888688868887,0,0
82.584767039917,-34.862589044951,5.6931193119312,2668826.0657261,-1113.9320190524,3037658.3280054,10.893119311931,0,0
82.584767371902,-34.880118637519,5.6975497549755,2668826.0657261,-1113.9320190524,3037658.3280054,10.897549754975,0,0
82.584767703888,-34.897648230087,5.7019801980198,2668826.0657261,-1113.9320190524,3037658.3280054,10.90198019802,0,0
82.584768035873,-34.915177822655,5.7064106410641,2668826.0657261,-1113.9320190524,3037658.3280054,10.906410641064,0,0
82.584768367859,-34.932707415223,5.7108410841084,2668826.0657261,-1113.9320190524,3037658.3280054,10.910841084108,0,0
82.584768699844,-34.950237007791,5.7152715271527,2668826.0657261,-1113.9320190524,3037658.3280054,10.915271527153,0,0
82.58476903183,-34.967766600359,5.719701970197,2668826.0657261,-1113.9320190524,3037658.3280054,10.919701970197,0,0
82.584769363815,-34.985296192927,5.7241324132413,2668826.0657261,-1113.9320190524,3037658.3280054,10.924132413241,0,0
82.584769695801,-35.002825785495,5.7285628562856,2668826.0657261,-1113.9320190524,3037658.3280054,10.928562856286,0,0
82.584770027787,-35.020355378063,5.7329932993299,2668826.0657261,-1113.9320190524,3037658.3280054,10.93299329933,0,0
82.584770359772,-35.037884970631,5.7374237423742,2668826.0657261,-1113.9320190524,3037658.3280054,10.937423742374,0,0
82.584770691758,-35.055414563199,5.7418541854185,2668826.0657261,-1113.9320190524,3037658.3280054,10.941854185419,0,0
82.584771023743,-35.072944155767,5.7462846284628,2668826.0657261,-1113.9320190524,3037658.3280054,10.946284628463,0,0
82.584771355729,-35.090473748335,5.7507150715072,2668826.0657261,-1113.9320190524,3037658.3280054,10.950715071507,0,0
82.584771687714,-35.108003340903,5.7551455145515,2668826.0657261,-1113.9320190524,3037658.3280054,10.955145514551,0,0
82.5847720197,-35.125532933471,5.7595759575958,2668826.0657261,-1113.9320190524,3037658.3280054,10.959575957596,0,0
82.584772351685,-35.143062526039,5.7640064006401,2668826.0657261,-1113.9320190524,3037658.3280054,10.96400640064,0,0
82.584772683671,-35.160592118607,5.7684368436844,2668826.0657261,-1113.9320190524,3037658.3280054,10.968436843684,0,0
82.584773015657,-35.178121711175,5.7728672867287,2668826.0657261,-1113.9320190524,3037658.3280054,10.972867286729,0,0
82.584773347642,-35.195651303744,5.777297729773,2668826.0657261,-1113.9320190524,3037658.3280054,10.977297729773,0,0
82.584773679628,-35.213180896312,5.7817281728173,2668826.0657261,-1113.9320190524,3037658.3280054,10.981728172817,0,0
82.584774011613,-35.23071048888,5.7861586158616,2668826.0657261,-1113.9320190524,3037658.3280054,10.986158615862,0,0
82.584774343599,-35.248240081448,5.7905890589059,2668826.0657261,-1113.9320190524,3037658.3280054,10.990589058906,0,0
82.584774675584,-35.265769674016,5.7950195019502,2668826.0657261,-1113.9320190524,3037658.3280054,10.99501950195,0,0
82.58477500757,-35.283299266584,5.7994499449945,2668826.0657261,-1113.9320190524,3037658.3280054,10.999449944994,0,0
82.584775339555,-35.300828859152,5.8038803880388,2668826.0657261,-1113.9320190524,3037658.3280054,11.003880388039,0,0
82.584775671541,-35.31835845172,5.8083108310831,2668826.0657261,-1113.9320190524,3037658.3280054,11.008310831083,0,0
82.584776003526,-35.335888044288,5.8127412741274,2668826.0657261,-1113.9320190524,3037658.3280054,11.012741274127,0,0
82.584776335512,-35.353417636856,5.8171717171717,2668826.0657261,-1113.9320190524,3037658.3280054,11.017171717172,0,0
82.584776667498,-35.370947229424,5.821602160216,2668826.0657261,-1113.9320190524,3037658.3280054,11.021602160216,0,0
82.584776999483,-35.388476821992,5.8260326032603,2668826.0657261,-1113.9320190524,3037658.3280054,11.02603260326,0,0
82.584777331469,-35.40600641456,5.8304630463046,2668826.0657261,-1113.9320190524,3037658.3280054,11.030463046305,0,0
82.584777663454,-35.423536007128,5.8348934893489,2668826.0657261,-1113.9320190524,3037658.3280054,11.034893489349,0,0
82.58477799544,-35.441065599696,5.8393239323932,2668826.0657261,-1113.9320190524,3037658.3280054,11.039323932393,0,0
82.584778327425,-35.458595192264,5.8437543754375,2668826.0657261,-1113.9320190524,3037658.3280054,11.043754375438,0,0
82.584778659411,-35.476124784832,5.8481848184818,2668826.0657261,-1113.9320190524,3037658.3280054,11.048184818482,0,0
82.584778991396,-35.4936543774,5.8526152615262,2668826.0657261,-1113.9320190524,3037658.3280054,11.052615261526,0,0
82.584779323382,-35.511183969968,5.8570457045705,2668826.0657261,-1113.9320190524,3037658.3280054,11.05704570457,0,0
82.584779655368,-35.528713562536,5.8614761476148,2668826.0657261,-1113.9320190524,3037658.3280054,11.061476147615,0,0
82.584779987353,-35.546243155104,5.8659065906591,2668826.0657261,-1113.9320190524,3037658.3280054,11.065906590659,0,0
82.584780319339,-35.563772747672,5.8703370337034,2668826.0657261,-1113.9320190524,3037658.3280054,11.070337033703,0,0
82.584780651324,-35.58130234024,5.8747674767477,2668826.0657261,-1113.9320190524,3037658.3280054,11.074767476748,0,0
82.58478098331,-35.598831932809,5.879197919792,2668826.0657261,-1113.9320190524,3037658.3280054,11.079197919792,0,0
82.584781315295,-35.616361525377,5.8836283628363,2668826.0657261,-1113.9320190524,3037658.3280054,11.083628362836,0,0
82.584781647281,-35.633891117945,5.8880588058806,2668826.0657261,-1113.9320190524,3037658.3280054,11.088058805881,0,0
82.584781979266,-35.651420710513,5.8924892489249,2668826.0657261,-1113.9320190524,3037658.3280054,11.092489248925,0,0
82.584782311252,-35.668950303081,5.8969196919692,2668826.0657261,-1113.9320190524,3037658.3280054,11.096919691969,0,0
82.584782643238,-35.686479895649,5.9013501350135,2668826.0657261,-1113.9320190524,3037658.3280054,11.101350135014,0,0
82.584782975223,-35.704009488217,5.9057805780578,2668826.0657261,-1113.9320190524,3037658.3280054,11.105780578058,0,0
82.584783307209,-35.721539080785,5.9102110211021,2668826.0657261,-1113.9320190524,3037658.3280054,11.110211021102,0,0
82.584783639194,-35.739068673353,5.9146414641464,2668826.0657261,-1113.9320190524,3037658.3280054,11.114641464146,0,0
82.58478397118,-35.756598265921,5.9190719071907,2668826.0657261,-1113.9320190524,3037658.3280054,11.119071907191,0,0
82.584784303165,-35.774127858489,5.923502350235,2668826.0657261,-1113.9320190524,3037658.3280054,11.123502350235,0,0
82.584784635151,-35.791657451057,5.9279327932793,2668826.0657261,-1113.9320190524,3037658.3280054,11.127932793279,0,0
82.584784967136,-35.809187043625,5.9323632363236,2668826.0657261,-1113.9320190524,3037658.3280054,11.132363236324,0,0
82.584785299122,-35.826716636193,5.9367936793679,2668826.0657261,-1113.9320190524,3037658.3280054,11.136793679368,0,0
82.584785631108,-35.844246228761,5.9412241224122,2668826.0657261,-1113.9320190524,3037658.3280054,11.141224122412,0,0
82.584785963093,-35.861775821329,5.9456545654565,2668826.0657261,-1113.9320190524,3037658.3280054,11.145654565457,0,0
82.584786295079,-35.879305413897,5.9500850085008,2668826.0657261,-1113.9320190524,3037658.3280054,11.150085008501,0,0
82.584786627064,-35.896835006465,5.9545154515452,2668826.0657261,-1113.9320190524,3037658.3280054,11.154515451545,0,0
82.58478695905,-35.914364599033,5.9589458945895,2668826.0657261,-1113.9320190524,3037658.3280054,11.158945894589,0,0
82.584787291035,-35.931894191601,5.9633763376338,2668826.0657261,-1113.9320190524,3037658.3280054,11.163376337634,0,0
82.584787623021,-35.949423784169,5.9678067806781,2668826.0657261,-1113.9320190524,3037658.3280054,11.167806780678,0,0
82.584787955006,-35.966953376737,5.9722372237224,2668826.0657261,-1113.9320190524,3037658.3280054,11.172237223722,0,0
82.584788286992,-35.984482969306,5.9766676667667,2668826.0657261,-1113.9320190524,3037658.3280054,11.176667666767,0,0
82.584788618978,-36.002012561874,5.981098109811,2668826.0657261,-1113.9320190524,3037658.3280054,11.181098109811,0,0
82.584788950963,-36.019542154442,5.9855285528553,2668826.0657261,-1113.9320190524,3037658.3280054,11.185528552855,0,0
82.584789282949,-36.03707174701,5.9899589958996,2668826.0657261,-1113.9320190524,3037658.3280054,11.1899589959,0,0
82.584789614934,-36.054601339578,5.9943894389439,2668826.0657261,-1113.9320190524,3037658.3280054,11.194389438944,0,0
82.58478994692,-36.072130932146,5.9988198819882,2668826.0657261,-1113.9320190524,3037658.3280054,11.198819881988,0,0
82.584790278905,-36.089660524714,6.0032503250325,2668826.0657261,-1113.9320190524,3037658.3280054,11.203250325033,0,0
82.584790610891,-36.107190117282,6.0076807680768,2668826.0657261,-1113.9320190524,3037658.3280054,11.207680768077,0,0
82.584790942876,-36.12471970985,6.0121112111211,2668826.0657261,-1113.9320190524,3037658.3280054,11.212111211121,0,0
82.584791274862,-36.142249302418,6.0165416541654,2668826.0657261,-1113.9320190524,3037658.3280054,11.216541654165,0,0
82.584791606848,-36.159778894986,6.0209720972097,2668826.0657261,-1113.9320190524,3037658.3280054,11.22097209721,0,0
82.584791938833,-36.177308487554,6.025402540254,2668826.0657261,-1113.9320190524,3037658.3280054,11.225402540254,0,0
82.584792270819,-36.194838080122,6.0298329832983,2668826.0657261,-1113.9320190524,3037658.3280054,11.229832983298,0,0
82.584792602804,-36.21236767269,6.0342634263426,2668826.0657261,-1113.9320190524,3037658.3280054,11.234263426343,0,0
82.58479293479,-36.229897265258,6.0386938693869,2668826.0657261,-1113.9320190524,3037658.3280054,11.238693869387,0,0
82.584793266775,-36.247426857826,6.0431243124312,2668826.0657261,-1113.9320190524,3037658.3280054,11.243124312431,0,0
82.584793598761,-36.264956450394,6.0475547554755,2668826.0657261,-1113.9320190524,3037658.3280054,11.247554755476,0,0
82.584793930746,-36.282486042962,6.0519851985199,2668826.0657261,-1113.9320190524,3037658.3280054,11.25198519852,0,0
82.584794262732,-36.30001563553,6.0564156415642,2668826.0657261,-1113.9320190524,3037658.3280054,11.256415641564,0,0
82.584794594718,-36.317545228098,6.0608460846085,2668826.0657261,-1113.9320190524,3037658.3280054,11.260846084608,0,0
82.584794930199,-36.33507481907,6.0652765276528,2824649.6229394,7055.2912507082,3069232.913881,11.265276527653,0,0
82.58479527379,-36.352604406336,6.0697069706971,2824649.6229394,7055.2912507082,3069232.913881,11.269706970697,0,0
82.584795617382,-36.370133993603,6.0741374137414,2824649.6229394,7055.2912507082,3069232.913881,11.274137413741,0,0
82.584795960973,-36.387663580869,6.0785678567857,2824649.6229394,7055.2912507082,3069232.913881,11.278567856786,0,0
82.584796304564,-36.405193168136,6.08299829983,2824649.6229394,7055.2912507082,3069232.913881,11.28299829983,0,0
82.584796648156,-36.422722755403,6.0874287428743,2824649.6229394,7055.2912507082,3069232.913881,11.287428742874,0,0
82.584796991747,-36.440252342669,6.0918591859186,2824649.6229394,7055.2912507082,3069232.913881,11.291859185919,0,0
82.584797335339,-36.457781929936,6.0962896289629,2824649.6229394,7055.2912507082,3069232.913881,11.296289628963,0,0
82.58479767893,-36.475311517203,6.1007200720072,2824649.6229394,7055.2912507082,3069232.913881,11.300720072007,0,0
82.584798022521,-36.492841104469,6.1051505150515,2824649.6229394,7055.2912507082,3069232.913881,11.305150515052,0,0
82.584798366113,-36.510370691736,6.1095809580958,2824649.6229394,7055.2912507082,3069232.913881,11.309580958096,0,0
82.584798709704,-36.527900279002,6.1140114011401,2824649.6229394,7055.2912507082,3069232.913881,11.31401140114,0,0
82.584799053296,-36.545429866269,6.1184418441844,2824649.6229394,7055.2912507082,3069232.913881,11.318441844184,0,0
82.584799396887,-36.562959453536,6.1228722872287,2824649.6229394,7055.2912507082,3069232.913881,11.322872287229,0,0
82.584799740478,-36.580489040802,6.127302730273,2824649.6229394,7055.2912507082,3069232.913881,11.327302730273,0,0
82.58480008407,-36.598018628069,6.1317331733173,2824649.6229394,7055.2912507082,3069232.913881,11.331733173317,0,0
82.584800427661,-36.615548215335,6.1361636163616,2824649.6229394,7055.2912507082,3069232.913881,11.336163616362,0,0
82.584800771253,-36.633077802602,6.1405940594059,2824649.6229394,7055.2912507082,3069232.913881,11.340594059406,0,0
82.584801114844,-36.650607389869,6.1450245024502,2824649.6229394,7055.2912507082,3069232.913881,11.34502450245,0,0
82.584801458435,-36.668136977135,6.1494549454945,2824649.6229394,7055.2912507082,3069232.913881,11.349454945495,0,0
82.584801802027,-36.685666564402,6.1538853885389,2824649.6229394,7055.2912507082,3069232.913881,11.353885388539,0,0
82.584802145618,-36.703196151668,6.1583158315832,2824649.6229394,7055.2912507082,3069232.913881,11.358315831583,0,0
82.58480248921,-36.720725738935,6.1627462746275,2824649.6229394,7055.2912507082,3069232.913881,11.362746274627,0,0
82.584802832801,-36.738255326202,6.1671767176718,2824649.6229394,7055.2912507082,3069232.913881,11.367176717672,0,0
82.584803176392,-36.755784913468,6.1716071607161,2824649.6229394,7055.2912507082,3069232.913881,11.371607160716,0,0
82.584803519984,-36.773314500735,6.1760376037604,2824649.6229394,7055.2912507082,3069232.913881,11.37603760376,0,0
82.584803863575,-36.790844088002,6.1804680468047,2824649.6229394,7055.2912507082,3069232.913881,11.380468046805,0,0
82.584804207167,-36.808373675268,6.184898489849,2824649.6229394,7055.2912507082,3069232.913881,11.384898489849,0,0
82.584804550758,-36.825903262535,6.1893289328933,2824649.6229394,7055.2912507082,3069232.913881,11.389328932893,0,0
82.584804894349,-36.843432849801,6.1937593759376,2824649.6229394,7055.2912507082,3069232.913881,11.393759375938,0,0
82.584805237941,-36.860962437068,6.1981898189819,2824649.6229394,7055.2912507082,3069232.913881,11.398189818982,0,0
82.584805581532,-36.878492024335,6.2026202620262,2824649.6229394,7055.2912507082,3069232.913881,11.402620262026,0,0
82.584805925124,-36.896021611601,6.2070507050705,2824649.6229394,7055.2912507082,3069232.913881,11.407050705071,0,0
82.584806268715,-36.913551198868,6.2114811481148,2824649.6229394,7055.2912507082,3069232.913881,11.411481148115,0,0
82.584806612306,-36.931080786134,6.2159115911591,2824649.6229394,7055.2912507082,3069232.913881,11.415911591159,0,0
82.584806955898,-36.948610373401,6.2203420342034,2824649.6229394,7055.2912507082,3069232.913881,11.420342034203,0,0
82.584807299489,-36.966139960668,6.2247724772477,2824649.6229394,7055.2912507082,3069232.913881,11.424772477248,0,0
82.584807643081,-36.983669547934,6.229202920292,2824649.6229394,7055.2912507082,3069232.913881,11.429202920292,0,0
82.584807986672,-37.001199135201,6.2336333633363,2824649.6229394,7055.2912507082,3069232.913881,11.433633363336,0,0
82.584808330263,-37.018728722468,6.2380638063806,2824649.6229394,7055.2912507082,3069232.913881,11.438063806381,0,0
82.584808673855,-37.036258309734,6.2424942494249,2824649.6229394,7055.2912507082,3069232.913881,11.442494249425,0,0
82.584809017446,-37.053787897001,6.2469246924692,2824649.6229394,7055.2912507082,3069232.913881,11.446924692469,0,0
82.584809361038,-37.071317484267,6.2513551355136,2824649.6229394,7055.2912507082,3069232.913881,11.451355135514,0,0
82.584809704629,-37.088847071534,6.2557855785579,2824649.6229394,7055.2912507082,3069232.913881,11.455785578558,0,0
82.58481004822,-37.106376658801,6.2602160216022,2824649.6229394,7055.2912507082,3069232.913881,11.460216021602,0,0
82.584810391812,-37.123906246067,6.2646464646465,2824649.6229394,7055.2912507082,3069232.913881,11.464646464646,0,0
82.584810735403,-37.141435833334,6.2690769076908,2824649.6229394,7055.2912507082,3069232.913881,11.469076907691,0,0
82.584811078995,-37.1589654206,6.2735073507351,2824649.6229394,7055.2912507082,3069232.913881,11.473507350735,0,0
82.584811422586,-37.176495007867,6.2779377937794,2824649.6229394,7055.2912507082,3069232.913881,11.477937793779,0,0
82.584811766177,-37.194024595134,6.2823682368237,2824649.6229394,7055.2912507082,3069232.913881,11.482368236824,0,0
82.584812109769,-37.2115541824,6.286798679868,2824649.6229394,7055.2912507082,3069232.913881,11.486798679868,0,0
82.58481245336,-37.229083769667,6.2912291229123,2824649.6229394,7055.2912507082,3069232.913881,11.491229122912,0,0
82.584812796952,-37.246613356933,6.2956595659566,2824649.6229394,7055.2912507082,3069232.913881,11.495659565957,0,0
82.584813140543,-37.2641429442,6.3000900090009,2824649.6229394,7055.2912507082,3069232.913881,11.500090009001,0,0
82.584813484134,-37.281672531467,6.3045204520452,2824649.6229394,7055.2912507082,3069232.913881,11.504520452045,0,0
82.584813827726,-37.299202118733,6.3089508950895,2824649.6229394,7055.2912507082,3069232.913881,11.50895089509,0,0
82.584814171317,-37.316731706,6.3133813381338,2824649.6229394,7055.2912507082,3069232.913881,11.513381338134,0,0
82.584814514909,-37.334261293267,6.3178117811781,2824649.6229394,7055.2912507082,3069232.913881,11.517811781178,0,0
82.5848148585,-37.351790880533,6.3222422242224,2824649.6229394,7055.2912507082,3069232.913881,11.522242224222,0,0
82.584815202091,-37.3693204678,6.3266726672667,2824649.6229394,7055.2912507082,3069232.913881,11.526672667267,0,0
82.584815545683,-37.386850055066,6.331103110311,2824649.6229394,7055.2912507082,3069232.913881,11.531103110311,0,0
82.584815889274,-37.404379642333,6.3355335533553,2824649.6229394,7055.2912507082,3069232.913881,11.535533553355,0,0
82.584816232866,-37.4219092296,6.3399639963996,2824649.6229394,7055.2912507082,3069232.913881,11.5399639964,0,0
82.584816576457,-37.439438816866,6.3443944394439,2824649.6229394,7055.2912507082,3069232.913881,11.544394439444,0,0
82.584816920048,-37.456968404133,6.3488248824882,2824649.6229394,7055.2912507082,3069232.913881,11.548824882488,0,0
82.58481726364,-37.474497991399,6.3532553255326,2824649.6229394,7055.2912507082,3069232.913881,11.553255325533,0,0
82.584817607231,-37.492027578666,6.3576857685769,2824649.6229394,7055.2912507082,3069232.913881,11.557685768577,0,0
82.584817950823,-37.509557165933,6.3621162116212,2824649.6229394,7055.2912507082,3069232.913881,11.562116211621,0,0
82.584818294414,-37.527086753199,6.3665466546655,2824649.6229394,7055.2912507082,3069232.913881,11.566546654665,0,0
82.584818638005,-37.544616340466,6.3709770977098,2824649.6229394,7055.2912507082,3069232.913881,11.57097709771,0,0
82.584818981597,-37.562145927732,6.3754075407541,2824649.6229394,7055.2912507082,3069232.913881,11.575407540754,0,0
82.584819325188,-37.579675514999,6.3798379837984,2824649.6229394,7055.2912507082,3069232.913881,11.579837983798,0,0
82.58481966878,-37.597205102266,6.3842684268427,2824649.6229394,7055.2912507082,3069232.913881,11.584268426843,0,0
82.584820012371,-37.614734689532,6.388698869887,2824649.6229394,7055.2912507082,3069232.913881,11.588698869887,0,0
82.584820355962,-37.632264276799,6.3931293129313,2824649.6229394,7055.2912507082,3069232.913881,11.593129312931,0,0
82.584820699554,-37.649793864066,6.3975597559756,2824649.6229394,7055.2912507082,3069232.913881,11.597559755976,0,0
82.584821043145,-37.667323451332,6.4019901990199,2824649.6229394,7055.2912507082,3069232.913881,11.60199019902,0,0
82.584821386737,-37.684853038599,6.4064206420642,2824649.6229394,7055.2912507082,3069232.913881,11.606420642064,0,0
82.584821730328,-37.702382625865,6.4108510851085,2824649.6229394,7055.2912507082,3069232.913881,11.610851085109,0,0
82.584822073919,-37.719912213132,6.4152815281528,2824649.6229394,7055.2912507082,3069232.913881,11.615281528153,0,0
82.584822417511,-37.737441800399,6.4197119711971,2824649.6229394,7055.2912507082,3069232.913881,11.619711971197,0,0
82.584822761102,-37.754971387665,6.4241424142414,2824649.6229394,7055.2912507082,3069232.913881,11.624142414241,0,0
82.584823104694,-37.772500974932,6.4285728572857,2824649.6229394,7055.2912507082,3069232.913881,11.628572857286,0,0
82.584823448285,-37.790030562198,6.43300330033,2824649.6229394,7055.2912507082,3069232.913881,11.63300330033,0,0
82.584823791876,-37.807560149465,6.4374337433743,2824649.6229394,7055.2912507082,3069232.913881,11.637433743374,0,0
82.584824135468,-37.825089736732,6.4418641864186,2824649.6229394,7055.2912507082,3069232.913881,11.641864186419,0,0
82.584824479059,-37.842619323998,6.4462946294629,2824649.6229394,7055.2912507082,3069232.913881,11.646294629463,0,0
82.584824822651,-37.860148911265,6.4507250725072,2824649.6229394,7055.2912507082,3069232.913881,11.650725072507,0,0
82.584825166242,-37.877678498531,6.4551555155516,2824649.6229394,7055.2912507082,3069232.913881,11.655155515552,0,0
82.584825509833,-37.895208085798,6.4595859585959,2824649.6229394,7055.2912507082,3069232.913881,11.659585958596,0,0
82.584825853599,-37.912737676641,6.4640164016402,2800716.1895425,-25312.687644146,2984240.852154,11.66401640164,0,0
82.584826197542,-37.930267271102,6.4684468446845,2800716.1895425,-25312.687644146,2984240.852154,11.668446844684,0,0
82.584826541485,-37.947796865564,6.4728772877288,2800716.1895425,-25312.687644146,2984240.852154,11.672877287729,0,0
82.584826885427,-37.965326460025,6.4773077307731,2800716.1895425,-25312.687644146,2984240.852154,11.677307730773,0,0
82.58482722937,-37.982856054486,6.4817381738174,2800716.1895425,-25312.687644146,2984240.852154,11.681738173817,0,0
82.584827573313,-38.000385648948,6.4861686168617,2800716.1895425,-25312.687644146,2984240.852154,11.686168616862,0,0
82.584827917255,-38.017915243409,6.490599059906,2800716.1895425,-25312.687644146,2984240.852154,11.690599059906,0,0
82.584828261198,-38.03544483787,6.4950295029503,2800716.1895425,-25312.687644146,2984240.852154,11.69502950295,0,0
82.58482860514,-38.052974432332,6.4994599459946,2800716.1895425,-25312.687644146,2984240.852154,11.699459945995,0,0
82.584828949083,-38.070504026793,6.5038903890389,2800716.1895425,-25312.687644146,2984240.852154,11.703890389039,0,0
82.584829293026,-38.088033621255,6.5083208320832,2800716.1895425,-25312.687644146,2984240.852154,11.708320832083,0,0
82.584829636968,-38.105563215716,6.5127512751275,2800716.1895425,-25312.687644146,2984240.852154,11.712751275128,0,0
82.584829980911,-38.123092810177,6.5171817181718,2800716.1895425,-25312.687644146,2984240.852154,11.717181718172,0,0
82.584830324854,-38.140622404639,6.5216121612161,2800716.1895425,-25312.687644146,2984240.852154,11.721612161216,0,0
82.584830668796,-38.1581519991,6.5260426042604,2800716.1895425,-25312.687644146,2984240.852154,11.72604260426,0,0
82.584831012739,-38.175681593561,6.5304730473047,2800716.1895425,-25312.687644146,2984240.852154,11.730473047305,0,0
82.584831356681,-38.193211188023,6.534903490349,2800716.1895425,-25312.687644146,2984240.852154,11.734903490349,0,0
82.584831700624,-38.210740782484,6.5393339333933,2800716.1895425,-25312.687644146,2984240.852154,11.739333933393,0,0
82.584832044567,-38.228270376946,6.5437643764376,2800716.1895425,-25312.687644146,2984240.852154,11.743764376438,0,0
82.584832388509,-38.245799971407,6.5481948194819,2800716.1895425,-25312.687644146,2984240.852154,11.748194819482,0,0
82.584832732452,-38.263329565868,6.5526252625263,2800716.1895425,-25312.687644146,2984240.852154,11.752625262526,0,0
82.584833076395,-38.28085916033,6.5570557055706,2800716.1895425,-25312.687644146,2984240.852154,11.757055705571,0,0
82.584833420337,-38.298388754791,6.5614861486149,2800716.1895425,-25312.687644146,2984240.852154,11.761486148615,0,0
82.58483376428,-38.315918349252,6.5659165916592,2800716.1895425,-25312.687644146,2984240.852154,11.765916591659,0,0
82.584834108223,-38.333447943714,6.5703470347035,2800716.1895425,-25312.687644146,2984240.852154,11.770347034703,0,0
82.584834452165,-38.350977538175,6.5747774777478,2800716.1895425,-25312.687644146,2984240.852154,11.774777477748,0,0
82.584834796108,-38.368507132636,6.5792079207921,2800716.1895425,-25312.687644146,2984240.852154,11.779207920792,0,0
82.58483514005,-38.386036727098,6.5836383638364,2800716.1895425,-25312.687644146,2984240.852154,11.783638363836,0,0
82.584835483993,-38.403566321559,6.5880688068807,2800716.1895425,-25312.687644146,2984240.852154,11.788068806881,0,0
82.584835827936,-38.421095916021,6.592499249925,2800716.1895425,-25312.687644146,2984240.852154,11.792499249925,0,0
82.584836171878,-38.438625510482,6.5969296929693,2800716.1895425,-25312.687644146,2984240.852154,11.796929692969,0,0
82.584836515821,-38.456155104943,6.6013601360136,2800716.1895425,-25312.687644146,2984240.852154,11.801360136014,0,0
82.584836859764,-38.473684699405,6.6057905790579,2800716.1895425,-25312.687644146,2984240.852154,11.805790579058,0,0
82.584837203706,-38.491214293866,6.6102210221022,2800716.1895425,-25312.687644146,2984240.852154,11.810221022102,0,0
82.584837547649,-38.508743888327,6.6146514651465,2800716.1895425,-25312.687644146,2984240.852154,11.814651465147,0,0
82.584837891592,-38.526273482789,6.6190819081908,2800716.1895425,-25312.687644146,2984240.852154,11.819081908191,0,0
82.584838235534,-38.54380307725,6.6235123512351,2800716.1895425,-25312.687644146,2984240.852154,11.823512351235,0,0
82.584838579477,-38.561332671711,6.6279427942794,2800716.1895425,-25312.687644146,2984240.852154,11.827942794279,0,0
82.584838923419,-38.578862266173,6.6323732373237,2800716.1895425,-25312.687644146,2984240.852154,11.832373237324,0,0
82.584839267362,-38.596391860634,6.636803680368,2800716.1895425,-25312.687644146,2984240.852154,11.836803680368,0,0
82.584839611305,-38.613921455096,6.6412341234123,2800716.1895425,-25312.687644146,2984240.852154,11.841234123412,0,0
82.584839955247,-38.631451049557,6.6456645664566,2800716.1895425,-25312.687644146,2984240.852154,11.845664566457,0,0
82.58484029919,-38.648980644018,6.650095009501,2800716.1895425,-25312.687644146,2984240.852154,11.850095009501,0,0
82.584840643133,-38.66651023848,6.6545254525453,2800716.1895425,-25312.687644146,2984240.852154,11.854525452545,0,0
82.584840987075,-38.684039832941,6.6589558955896,2800716.1895425,-25312.687644146,2984240.852154,11.85895589559,0,0
82.584841331018,-38.701569427402,6.6633863386339,2800716.1895425,-25312.687644146,2984240.852154,11.863386338634,0,0
82.584841674961,-38.719099021864,6.6678167816782,2800716.1895425,-25312.687644146,2984240.852154,11.867816781678,0,0
82.584842018903,-38.736628616325,6.6722472247225,2800716.1895425,-25312.687644146,2984240.852154,11.872247224722,0,0
82.584842362846,-38.754158210786,6.6766776677668,2800716.1895425,-25312.687644146,2984240.852154,11.876677667767,0,0
82.584842706788,-38.771687805248,6.6811081108111,2800716.1895425,-25312.687644146,2984240.852154,11.881108110811,0,0
82.584843050731,-38.789217399709,6.6855385538554,2800716.1895425,-25312.687644146,2984240.852154,11.885538553855,0,0
82.584843394674,-38.806746994171,6.6899689968997,2800716.1895425,-25312.687644146,2984240.852154,11.8899689969,0,0
82.584843738616,-38.824276588632,6.694399439944,2800716.1895425,-25312.687644146,2984240.852154,11.894399439944,0,0
82.584844082559,-38.841806183093,6.6988298829883,2800716.1895425,-25312.687644146,2984240.852154,11.898829882988,0,0
82.584844426502,-38.859335777555,6.7032603260326,2800716.1895425,-25312.687644146,2984240.852154,11.903260326033,0,0
82.584844770444,-38.876865372016,6.7076907690769,2800716.1895425,-25312.687644146,2984240.852154,11.907690769077,0,0
82.584845114387,-38.894394966477,6.7121212121212,2800716.1895425,-25312.687644146,2984240.852154,11.912121212121,0,0
82.58484545833,-38.911924560939,6.7165516551655,2800716.1895425,-25312.687644146,2984240.852154,11.916551655166,0,0
82.584845802272,-38.9294541554,6.7209820982098,2800716.1895425,-25312.687644146,2984240.852154,11.92098209821,0,0
82.584846146215,-38.946983749862,6.7254125412541,2800716.1895425,-25312.687644146,2984240.852154,11.925412541254,0,0
82.584846490157,-38.964513344323,6.7298429842984,2800716.1895425,-25312.687644146,2984240.852154,11.929842984298,0,0
82.584846838345,-38.982042936468,6.7342734273427,2929670.1462465,-18076.267617744,3001019.7298532,11.934273427343,0,0
82.584847192142,-38.999572525552,6.738703870387,2929670.1462465,-18076.267617744,3001019.7298532,11.938703870387,0,0
82.584847545938,-39.017102114636,6.7431343134313,2929670.1462465,-18076.267617744,3001019.7298532,11.943134313431,0,0
82.584847899734,-39.03463170372,6.7475647564756,2929670.1462465,-18076.267617744,3001019.7298532,11.947564756476,0,0
82.58484825353,-39.052161292804,6.75199519952,2929670.1462465,-18076.267617744,3001019.7298532,11.95199519952,0,0
82.584848607326,-39.069690881889,6.7564256425643,2929670.1462465,-18076.267617744,3001019.7298532,11.956425642564,0,0
82.584848961123,-39.087220470973,6.7608560856086,2929670.1462465,-18076.267617744,3001019.7298532,11.960856085609,0,0
82.584849314919,-39.104750060057,6.7652865286529,2929670.1462465,-18076.267617744,3001019.7298532,11.965286528653,0,0
82.584849668715,-39.122279649141,6.7697169716972,2929670.1462465,-18076.267617744,3001019.7298532,11.969716971697,0,0
82.584850022511,-39.139809238225,6.7741474147415,2929670.1462465,-18076.267617744,3001019.7298532,11.974147414741,0,0
82.584850376307,-39.15733882731,6.7785778577858,2929670.1462465,-18076.267617744,3001019.7298532,11.978577857786,0,0
82.584850730104,-39.174868416394,6.7830083008301,2929670.1462465,-18076.267617744,3001019.7298532,11.98300830083,0,0
82.5848510839,-39.192398005478,6.7874387438744,2929670.1462465,-18076.267617744,3001019.7298532,11.987438743874,0,0
82.584851437696,-39.209927594562,6.7918691869187,2929670.1462465,-18076.267617744,3001019.7298532,11.991869186919,0,0
82.584851791492,-39.227457183647,6.796299629963,2929670.1462465,-18076.267617744,3001019.7298532,11.996299629963,0,0
82.584852145288,-39.244986772731,6.8007300730073,2929670.1462465,-18076.267617744,3001019.7298532,12.000730073007,0,0
82.584852499084,-39.262516361815,6.8051605160516,2929670.1462465,-18076.267617744,3001019.7298532,12.005160516052,0,0
82.584852852881,-39.280045950899,6.8095909590959,2929670.1462465,-18076.267617744,3001019.7298532,12.009590959096,0,0
82.584853206677,-39.297575539983,6.8140214021402,2929670.1462465,-18076.267617744,3001019.7298532,12.01402140214,0,0
82.584853560473,-39.315105129068,6.8184518451845,2929670.1462465,-18076.267617744,3001019.7298532,12.018451845185,0,0
82.584853914269,-39.332634718152,6.8228822882288,2929670.1462465,-18076.267617744,3001019.7298532,12.022882288229,0,0
82.584854268065,-39.350164307236,6.8273127312731,2929670.1462465,-18076.267617744,3001019.7298532,12.027312731273,0,0
82.584854621862,-39.36769389632,6.8317431743174,2929670.1462465,-18076.267617744,3001019.7298532,12.031743174317,0,0
82.584854975658,-39.385223485405,6.8361736173617,2929670.1462465,-18076.267617744,3001019.7298532,12.036173617362,0,0
82.584855329454,-39.402753074489,6.840604060406,2929670.1462465,-18076.267617744,3001019.7298532,12.040604060406,0,0
82.58485568325,-39.420282663573,6.8450345034503,2929670.1462465,-18076.267617744,3001019.7298532,12.04503450345,0,0
82.584856037046,-39.437812252657,6.8494649464946,2929670.1462465,-18076.267617744,3001019.7298532,12.049464946495,0,0
82.584856390843,-39.455341841741,6.853895389539,2929670.1462465,-18076.267617744,3001019.7298532,12.053895389539,0,0
82.584856744639,-39.472871430826,6.8583258325833,2929670.1462465,-18076.267617744,3001019.7298532,12.058325832583,0,0
82.584857098435,-39.49040101991,6.8627562756276,2929670.1462465,-18076.267617744,3001019.7298532,12.062756275628,0,0
82.584857452231,-39.507930608994,6.8671867186719,2929670.1462465,-18076.267617744,3001019.7298532,12.067186718672,0,0
82.584857806027,-39.525460198078,6.8716171617162,2929670.1462465,-18076.267617744,3001019.7298532,12.071617161716,0,0
82.584858159823,-39.542989787163,6.8760476047605,2929670.1462465,-18076.267617744,3001019.7298532,12.07604760476,0,0
82.58485851362,-39.560519376247,6.8804780478048,2929670.1462465,-18076.267617744,3001019.7298532,12.080478047805,0,0
82.584858867416,-39.578048965331,6.8849084908491,2929670.1462465,-18076.267617744,3001019.7298532,12.084908490849,0,0
82.584859221212,-39.595578554415,6.8893389338934,2929670.1462465,-18076.267617744,3001019.7298532,12.089338933893,0,0
82.584859575008,-39.613108143499,6.8937693769377,2929670.1462465,-18076.267617744,3001019.7298532,12.093769376938,0,0
82.584859928804,-39.630637732584,6.898199819982,2929670.1462465,-18076.267617744,3001019.7298532,12.098199819982,0,0
82.584860282601,-39.648167321668,6.9026302630263,2929670.1462465,-18076.267617744,3001019.7298532,12.102630263026,0,0
82.584860636397,-39.665696910752,6.9070607060706,2929670.1462465,-18076.267617744,3001019.7298532,12.107060706071,0,0
82.584860990193,-39.683226499836,6.9114911491149,2929670.1462465,-18076.267617744,3001019.7298532,12.111491149115,0,0
82.584861343989,-39.70075608892,6.9159215921592,2929670.1462465,-18076.267617744,3001019.7298532,12.115921592159,0,0
82.584861697785,-39.718285678005,6.9203520352035,2929670.1462465,-18076.267617744,3001019.7298532,12.120352035204,0,0
82.584862051582,-39.735815267089,6.9247824782478,2929670.1462465,-18076.267617744,3001019.7298532,12.124782478248,0,0
82.584862405378,-39.753344856173,6.9292129212921,2929670.1462465,-18076.267617744,3001019.7298532,12.129212921292,0,0
82.584862759174,-39.770874445257,6.9336433643364,2929670.1462465,-18076.267617744,3001019.7298532,12.133643364336,0,0
82.58486311297,-39.788404034342,6.9380738073807,2929670.1462465,-18076.267617744,3001019.7298532,12.138073807381,0,0
82.584863466766,-39.805933623426,6.942504250425,2929670.1462465,-18076.267617744,3001019.7298532,12.142504250425,0,0
82.584863820563,-39.82346321251,6.9469346934693,2929670.1462465,-18076.267617744,3001019.7298532,12.146934693469,0,0
82.584864174359,-39.840992801594,6.9513651365137,2929670.1462465,-18076.267617744,3001019.7298532,12.151365136514,0,0
82.584864528155,-39.858522390678,6.955795579558,2929670.1462465,-18076.267617744,3001019.7298532,12.155795579558,0,0
82.584864881951,-39.876051979763,6.9602260226023,2929670.1462465,-18076.267617744,3001019.7298532,12.160226022602,0,0
82.584865235747,-39.893581568847,6.9646564656466,2929670.1462465,-18076.267617744,3001019.7298532,12.164656465647,0,0
82.584865589543,-39.911111157931,6.9690869086909,2929670.1462465,-18076.267617744,3001019.7298532,12.169086908691,0,0
82.58486594334,-39.928640747015,6.9735173517352,2929670.1462465,-18076.267617744,3001019.7298532,12.173517351735,0,0
82.584866297136,-39.9461703361,6.9779477947795,2929670.1462465,-18076.267617744,3001019.7298532,12.177947794779,0,0
82.584866650932,-39.963699925184,6.9823782378238,2929670.1462465,-18076.267617744,3001019.7298532,12.182378237824,0,0
82.584867004728,-39.981229514268,6.9868086808681,2929670.1462465,-18076.267617744,3001019.7298532,12.186808680868,0,0
82.584867358524,-39.998759103352,6.9912391239124,2929670.1462465,-18076.267617744,3001019.7298532,12.191239123912,0,0
82.584867712321,-40.016288692436,6.9956695669567,2929670.1462465,-18076.267617744,3001019.7298532,12.195669566957,0,0
82.584868066117,-40.033818281521,7.000100010001,2929670.1462465,-18076.267617744,3001019.7298532,12.200100010001,0,0
82.584868419913,-40.051347870605,7.0045304530453,2929670.1462465,-18076.267617744,3001019.7298532,12.204530453045,0,0
82.584868773709,-40.068877459689,7.0089608960896,2929670.1462465,-18076.267617744,3001019.7298532,12.20896089609,0,0
82.584869127505,-40.086407048773,7.0133913391339,2929670.1462465,-18076.267617744,3001019.7298532,12.213391339134,0,0
82.584869481302,-40.103936637858,7.0178217821782,2929670.1462465,-18076.267617744,3001019.7298532,12.217821782178,0,0
82.584869835098,-40.121466226942,7.0222522252225,2929670.1462465,-18076.267617744,3001019.7298532,12.222252225223,0,0
82.584870188894,-40.138995816026,7.0266826682668,2929670.1462465,-18076.267617744,3001019.7298532,12.226682668267,0,0
82.58487054269,-40.15652540511,7.0311131113111,2929670.1462465,-18076.267617744,3001019.7298532,12.231113111311,0,0
82.584870896486,-40.174054994194,7.0355435543554,2929670.1462465,-18076.267617744,3001019.7298532,12.235543554355,0,0
82.584871250283,-40.191584583279,7.0399739973997,2929670.1462465,-18076.267617744,3001019.7298532,12.2399739974,0,0
82.584871604079,-40.209114172363,7.044404440444,2929670.1462465,-18076.267617744,3001019.7298532,12.244404440444,0,0
82.584871957875,-40.226643761447,7.0488348834883,2929670.1462465,-18076.267617744,3001019.7298532,12.248834883488,0,0
82.584872311671,-40.244173350531,7.0532653265327,2929670.1462465,-18076.267617744,3001019.7298532,12.253265326533,0,0
82.584872665467,-40.261702939616,7.057695769577,2929670.1462465,-18076.267617744,3001019.7298532,12.257695769577,0,0
82.584873019263,-40.2792325287,7.0621262126213,2929670.1462465,-18076.267617744,3001019.7298532,12.262126212621,0,0
82.58487337306,-40.296762117784,7.0665566556656,2929670.1462465,-18076.267617744,3001019.7298532,12.266556655666,0,0
82.584873726856,-40.314291706868,7.0709870987099,2929670.1462465,-18076.267617744,3001019.7298532,12.27098709871,0,0
82.584874080652,-40.331821295952,7.0754175417542,2929670.1462465,-18076.267617744,3001019.7298532,12.275417541754,0,0
82.584874434448,-40.349350885037,7.0798479847985,2929670.1462465,-18076.267617744,3001019.7298532,12.279847984798,0,0
82.584874788244,-40.366880474121,7.0842784278428,2929670.1462465,-18076.267617744,3001019.7298532,12.284278427843,0,0
82.584875142041,-40.384410063205,7.0887088708871,2929670.1462465,-18076.267617744,3001019.7298532,12.288708870887,0,0
82.584875495837,-40.401939652289,7.0931393139314,2929670.1462465,-18076.267617744,3001019.7298532,12.293139313931,0,0
82.584875849633,-40.419469241373,7.0975697569757,2929670.1462465,-18076.267617744,3001019.7298532,12.297569756976,0,0
82.584876203429,-40.436998830458,7.10200020002,2929670.1462465,-18076.267617744,3001019.7298532,12.30200020002,0,0
82.584876557225,-40.454528419542,7.1064306430643,2929670.1462465,-18076.267617744,3001019.7298532,12.306430643064,0,0
82.584876911022,-40.472058008626,7.1108610861086,2929670.1462465,-18076.267617744,3001019.7298532,12.310861086109,0,0
82.584877264818,-40.48958759771,7.1152915291529,2929670.1462465,-18076.267617744,3001019.7298532,12.315291529153,0,0
82.584877618614,-40.507117186795,7.1197219721972,2929670.1462465,-18076.267617744,3001019.7298532,12.319721972197,0,0
82.58487797241,-40.524646775879,7.1241524152415,2929670.1462465,-18076.267617744,3001019.7298532,12.324152415242,0,0
82.584878326206,-40.542176364963,7.1285828582858,2929670.1462465,-18076.267617744,3001019.7298532,12.328582858286,0,0
82.584878680003,-40.559705954047,7.1330133013301,2929670.1462465,-18076.267617744,3001019.7298532,12.33301330133,0,0
82.584879033799,-40.577235543131,7.1374437443744,2929670.1462465,-18076.267617744,3001019.7298532,12.337443744374,0,0
82.584879387595,-40.594765132216,7.1418741874187,2929670.1462465,-18076.267617744,3001019.7298532,12.341874187419,0,0
82.584879741391,-40.6122947213,7.146304630463,2929670.1462465,-18076.267617744,3001019.7298532,12.346304630463,0,0
82.584880095187,-40.629824310384,7.1507350735073,2929670.1462465,-18076.267617744,3001019.7298532,12.350735073507,0,0
82.584880448983,-40.647353899468,7.1551655165517,2929670.1462465,-18076.267617744,3001019.7298532,12.355165516552,0,0
82.58488080278,-40.664883488553,7.159595959596,2929670.1462465,-18076.267617744,3001019.7298532,12.359595959596,0,0
82.584881156576,-40.682413077637,7.1640264026403,2929670.1462465,-18076.267617744,3001019.7298532,12.36402640264,0,0
82.584881510372,-40.699942666721,7.1684568456846,2929670.1462465,-18076.267617744,3001019.7298532,12.368456845685,0,0
82.584881864168,-40.717472255805,7.1728872887289,2929670.1462465,-18076.267617744,3001019.7298532,12.372887288729,0,0
82.584882217964,-40.735001844889,7.1773177317732,2929670.1462465,-18076.267617744,3001019.7298532,12.377317731773,0,0
82.584882571761,-40.752531433974,7.1817481748175,2929670.1462465,-18076.267617744,3001019.7298532,12.381748174817,0,0
82.584882925557,-40.770061023058,7.1861786178618,2929670.1462465,-18076.267617744,3001019.7298532,12.386178617862,0,0
82.584883279353,-40.787590612142,7.1906090609061,2929670.1462465,-18076.267617744,3001019.7298532,12.390609060906,0,0
82.584883633149,-40.805120201226,7.1950395039504,2929670.1462465,-18076.267617744,3001019.7298532,12.39503950395,0,0
82.584883986945,-40.822649790311,7.1994699469947,2929670.1462465,-18076.267617744,3001019.7298532,12.399469946995,0,0
82.584884340742,-40.840179379395,7.203900390039,2929670.1462465,-18076.267617744,3001019.7298532,12.403900390039,0,0
82.584884694538,-40.857708968479,7.2083308330833,2929670.1462465,-18076.267617744,3001019.7298532,12.408330833083,0,0
82.584885048334,-40.875238557563,7.2127612761276,2929670.1462465,-18076.267617744,3001019.7298532,12.412761276128,0,0
82.58488540213,-40.892768146647,7.2171917191719,2929670.1462465,-18076.267617744,3001019.7298532,12.417191719172,0,0
82.584885755926,-40.910297735732,7.2216221622162,2929670.1462465,-18076.267617744,3001019.7298532,12.421622162216,0,0
82.584886109723,-40.927827324816,7.2260526052605,2929670.1462465,-18076.267617744,3001019.7298532,12.426052605261,0,0
82.584886463519,-40.9453569139,7.2304830483048,2929670.1462465,-18076.267617744,3001019.7298532,12.430483048305,0,0
82.584886817315,-40.962886502984,7.2349134913491,2929670.1462465,-18076.267617744,3001019.7298532,12.434913491349,0,0
82.584887171111,-40.980416092068,7.2393439343934,2929670.1462465,-18076.267617744,3001019.7298532,12.439343934393,0,0
82.584887524907,-40.997945681153,7.2437743774377,2929670.1462465,-18076.267617744,3001019.7298532,12.443774377438,0,0
82.584887878703,-41.015475270237,7.248204820482,2929670.1462465,-18076.267617744,3001019.7298532,12.448204820482,0,0
82.5848882325,-41.033004859321,7.2526352635264,2929670.1462465,-18076.267617744,3001019.7298532,12.452635263526,0,0
82.584888586296,-41.050534448405,7.2570657065707,2929670.1462465,-18076.267617744,3001019.7298532,12.457065706571,0,0
82.584888940092,-41.06806403749,7.261496149615,2929670.1462465,-18076.267617744,3001019.7298532,12.461496149615,0,0
82.584889293888,-41.085593626574,7.2659265926593,2929670.1462465,-18076.267617744,3001019.7298532,12.465926592659,0,0
82.584889647684,-41.103123215658,7.2703570357036,2929670.1462465,-18076.267617744,3001019.7298532,12.470357035704,0,0
82.584890001481,-41.120652804742,7.2747874787479,2929670.1462465,-18076.267617744,3001019.7298532,12.474787478748,0,0
82.584890355277,-41.138182393826,7.2792179217922,2929670.1462465,-18076.267617744,3001019.7298532,12.479217921792,0,0
82.584890709073,-41.155711982911,7.2836483648365,2929670.1462465,-18076.267617744,3001019.7298532,12.483648364836,0,0
82.584891062869,-41.173241571995,7.2880788078808,2929670.1462465,-18076.267617744,3001019.7298532,12.488078807881,0,0
82.584891416665,-41.190771161079,7.2925092509251,2929670.1462465,-18076.267617744,3001019.7298532,12.492509250925,0,0
82.584891770462,-41.208300750163,7.2969396939694,2929670.1462465,-18076.267617744,3001019.7298532,12.496939693969,0,0
82.584892124258,-41.225830339248,7.3013701370137,2929670.1462465,-18076.267617744,3001019.7298532,12.501370137014,0,0
82.584892478054,-41.243359928332,7.305800580058,2929670.1462465,-18076.267617744,3001019.7298532,12.505800580058,0,0
82.58489283185,-41.260889517416,7.3102310231023,2929670.1462465,-18076.267617744,3001019.7298532,12.510231023102,0,0
82.584893185646,-41.2784191065,7.3146614661466,2929670.1462465,-18076.267617744,3001019.7298532,12.514661466147,0,0
82.584893539442,-41.295948695584,7.3190919091909,2929670.1462465,-18076.267617744,3001019.7298532,12.519091909191,0,0
82.584893893239,-41.313478284669,7.3235223522352,2929670.1462465,-18076.267617744,3001019.7298532,12.523522352235,0,0
82.584894247035,-41.331007873753,7.3279527952795,2929670.1462465,-18076.267617744,3001019.7298532,12.52795279528,0,0
82.584894600831,-41.348537462837,7.3323832383238,2929670.1462465,-18076.267617744,3001019.7298532,12.532383238324,0,0
82.584894954627,-41.366067051921,7.3368136813681,2929670.1462465,-18076.267617744,3001019.7298532,12.536813681368,0,0
82.584895308423,-41.383596641006,7.3412441244124,2929670.1462465,-18076.267617744,3001019.7298532,12.541244124412,0,0
82.58489566222,-41.40112623009,7.3456745674567,2929670.1462465,-18076.267617744,3001019.7298532,12.545674567457,0,0
82.584896016016,-41.418655819174,7.350105010501,2929670.1462465,-18076.267617744,3001019.7298532,12.550105010501,0,0
82.584896369812,-41.436185408258,7.3545354535454,2929670.1462465,-18076.267617744,3001019.7298532,12.554535453545,0,0
82.584896723608,-41.453714997342,7.3589658965897,2929670.1462465,-18076.267617744,3001019.7298532,12.55896589659,0,0
82.584897077404,-41.471244586427,7.363396339634,2929670.1462465,-18076.267617744,3001019.7298532,12.563396339634,0,0
82.584897431201,-41.488774175511,7.3678267826783,2929670.1462465,-18076.267617744,3001019.7298532,12.567826782678,0,0
82.584897784997,-41.506303764595,7.3722572257226,2929670.1462465,-18076.267617744,3001019.7298532,12.572257225723,0,0
82.584898138793,-41.523833353679,7.3766876687669,2929670.1462465,-18076.267617744,3001019.7298532,12.576687668767,0,0
82.584898492589,-41.541362942763,7.3811181118112,2929670.1462465,-18076.267617744,3001019.7298532,12.581118111811,0,0
82.584898846385,-41.558892531848,7.3855485548555,2929670.1462465,-18076.267617744,3001019.7298532,12.585548554855,0,0
82.584899200182,-41.576422120932,7.3899789978998,2929670.1462465,-18076.267617744,3001019.7298532,12.5899789979,0,0
82.584899553978,-41.593951710016,7.3944094409441,2929670.1462465,-18076.267617744,3001019.7298532,12.594409440944,0,0
82.584899909094,-41.611481303766,7.3988398839884,2929710.6214722,-39573.372113182,2937101.7719336,12.598839883988,0,0
82.584900264596,-41.629010898874,7.4032703270327,2929710.6214722,-39573.372113182,2937101.7719336,12.603270327033,0,0
82.584900620097,-41.646540493983,7.407700770077,2929710.6214722,-39573.372113182,2937101.7719336,12.607700770077,0,0
82.584900975598,-41.664070089091,7.4121312131213,2929710.6214722,-39573.372113182,2937101.7719336,12.612131213121,0,0
82.584901331099,-41.6815996842,7.4165616561656,2929710.6214722,-39573.372113182,2937101.7719336,12.616561656166,0,0
82.584901686601,-41.699129279308,7.4209920992099,2929710.6214722,-39573.372113182,2937101.7719336,12.62099209921,0,0
82.584902042102,-41.716658874417,7.4254225422542,2929710.6214722,-39573.372113182,2937101.7719336,12.625422542254,0,0
82.584902397603,-41.734188469525,7.4298529852985,2929710.6214722,-39573.372113182,2937101.7719336,12.629852985299,0,0
82.584902753104,-41.751718064634,7.4342834283428,2929710.6214722,-39573.372113182,2937101.7719336,12.634283428343,0,0
82.584903108606,-41.769247659742,7.4387138713871,2929710.6214722,-39573.372113182,2937101.7719336,12.638713871387,0,0
82.584903464107,-41.78677725485,7.4431443144314,2929710.6214722,-39573.372113182,2937101.7719336,12.643144314431,0,0
82.584903819608,-41.804306849959,7.4475747574757,2929710.6214722,-39573.372113182,2937101.7719336,12.647574757476,0,0
82.584904175109,-41.821836445067,7.4520052005201,2929710.6214722,-39573.372113182,2937101.7719336,12.65200520052,0,0
82.584904530611,-41.839366040176,7.4564356435644,2929710.6214722,-39573.372113182,2937101.7719336,12.656435643564,0,0
82.584904886112,-41.856895635284,7.4608660866087,2929710.6214722,-39573.372113182,2937101.7719336,12.660866086609,0,0
82.584905241613,-41.874425230393,7.465296529653,2929710.6214722,-39573.372113182,2937101.7719336,12.665296529653,0,0
82.584905597114,-41.891954825501,7.4697269726973,2929710.6214722,-39573.372113182,2937101.7719336,12.669726972697,0,0
82.584905952616,-41.90948442061,7.4741574157416,2929710.6214722,-39573.372113182,2937101.7719336,12.674157415742,0,0
82.584906308117,-41.927014015718,7.4785878587859,2929710.6214722,-39573.372113182,2937101.7719336,12.678587858786,0,0
82.584906663618,-41.944543610827,7.4830183018302,2929710.6214722,-39573.372113182,2937101.7719336,12.68301830183,0,0
82.584907019119,-41.962073205935,7.4874487448745,2929710.6214722,-39573.372113182,2937101.7719336,12.687448744874,0,0
82.584907374621,-41.979602801044,7.4918791879188,2929710.6214722,-39573.372113182,2937101.7719336,12.691879187919,0,0
82.584907730122,-41.997132396152,7.4963096309631,2929710.6214722,-39573.372113182,2937101.7719336,12.696309630963,0,0
82.584908085623,-42.014661991261,7.5007400740074,2929710.6214722,-39573.372113182,2937101.7719336,12.700740074007,0,0
82.5849084434,-42.032191584702,7.5051705170517,3022322.8982288,-31214.70858332,2934028.6095328,12.705170517052,0,0
82.58490880638,-42.04972117433,7.509600960096,3022322.8982288,-31214.70858332,2934028.6095328,12.709600960096,0,0
82.584909169361,-42.067250763958,7.5140314031403,3022322.8982288,-31214.70858332,2934028.6095328,12.71403140314,0,0
82.584909532341,-42.084780353586,7.5184618461846,3022322.8982288,-31214.70858332,2934028.6095328,12.718461846185,0,0
82.584909895322,-42.102309943214,7.5228922892289,3022322.8982288,-31214.70858332,2934028.6095328,12.722892289229,0,0
82.584910258303,-42.119839532842,7.5273227322732,3022322.8982288,-31214.70858332,2934028.6095328,12.727322732273,0,0
82.584910621283,-42.13736912247,7.5317531753175,3022322.8982288,-31214.70858332,2934028.6095328,12.731753175318,0,0
82.584910984264,-42.154898712098,7.5361836183618,3022322.8982288,-31214.70858332,2934028.6095328,12.736183618362,0,0
82.584911347244,-42.172428301725,7.5406140614061,3022322.8982288,-31214.70858332,2934028.6095328,12.740614061406,0,0
82.584911710225,-42.189957891353,7.5450445044504,3022322.8982288,-31214.70858332,2934028.6095328,12.74504450445,0,0
82.584912073205,-42.207487480981,7.5494749474947,3022322.8982288,-31214.70858332,2934028.6095328,12.749474947495,0,0
82.584912436186,-42.225017070609,7.5539053905391,3022322.8982288,-31214.70858332,2934028.6095328,12.753905390539,0,0
82.584912799166,-42.242546660237,7.5583358335834,3022322.8982288,-31214.70858332,2934028.6095328,12.758335833583,0,0
82.584913162147,-42.260076249865,7.5627662766277,3022322.8982288,-31214.70858332,2934028.6095328,12.762766276628,0,0
82.584913525128,-42.277605839493,7.567196719672,3022322.8982288,-31214.70858332,2934028.6095328,12.767196719672,0,0
82.584913888108,-42.295135429121,7.5716271627163,3022322.8982288,-31214.70858332,2934028.6095328,12.771627162716,0,0
82.584914251089,-42.312665018749,7.5760576057606,3022322.8982288,-31214.70858332,2934028.6095328,12.776057605761,0,0
82.584914614069,-42.330194608377,7.5804880488049,3022322.8982288,-31214.70858332,2934028.6095328,12.780488048805,0,0
82.58491497705,-42.347724198005,7.5849184918492,3022322.8982288,-31214.70858332,2934028.6095328,12.784918491849,0,0
82.58491534003,-42.365253787633,7.5893489348935,3022322.8982288,-31214.70858332,2934028.6095328,12.789348934893,0,0
82.584915703011,-42.382783377261,7.5937793779378,3022322.8982288,-31214.70858332,2934028.6095328,12.793779377938,0,0
82.584916065991,-42.400312966889,7.5982098209821,3022322.8982288,-31214.70858332,2934028.6095328,12.798209820982,0,0
82.584916428972,-42.417842556517,7.6026402640264,3022322.8982288,-31214.70858332,2934028.6095328,12.802640264026,0,0
82.584916791953,-42.435372146145,7.6070707070707,3022322.8982288,-31214.70858332,2934028.6095328,12.807070707071,0,0
82.584917154933,-42.452901735773,7.611501150115,3022322.8982288,-31214.70858332,2934028.6095328,12.811501150115,0,0
82.584917517914,-42.470431325401,7.6159315931593,3022322.8982288,-31214.70858332,2934028.6095328,12.815931593159,0,0
82.584917880894,-42.487960915028,7.6203620362036,3022322.8982288,-31214.70858332,2934028.6095328,12.820362036204,0,0
82.584918243875,-42.505490504656,7.6247924792479,3022322.8982288,-31214.70858332,2934028.6095328,12.824792479248,0,0
82.584918606855,-42.523020094284,7.6292229222922,3022322.8982288,-31214.70858332,2934028.6095328,12.829222922292,0,0
82.584918969836,-42.540549683912,7.6336533653365,3022322.8982288,-31214.70858332,2934028.6095328,12.833653365337,0,0
82.584919332816,-42.55807927354,7.6380838083808,3022322.8982288,-31214.70858332,2934028.6095328,12.838083808381,0,0
82.584919695797,-42.575608863168,7.6425142514251,3022322.8982288,-31214.70858332,2934028.6095328,12.842514251425,0,0
82.584920058778,-42.593138452796,7.6469446944694,3022322.8982288,-31214.70858332,2934028.6095328,12.846944694469,0,0
82.584920421758,-42.610668042424,7.6513751375138,3022322.8982288,-31214.70858332,2934028.6095328,12.851375137514,0,0
82.584920784739,-42.628197632052,7.6558055805581,3022322.8982288,-31214.70858332,2934028.6095328,12.855805580558,0,0
82.584921147719,-42.64572722168,7.6602360236024,3022322.8982288,-31214.70858332,2934028.6095328,12.860236023602,0,0
82.5849215107,-42.663256811308,7.6646664666467,3022322.8982288,-31214.70858332,2934028.6095328,12.864666466647,0,0
82.58492187368,-42.680786400936,7.669096909691,3022322.8982288,-31214.70858332,2934028.6095328,12.869096909691,0,0
82.584922236661,-42.698315990564,7.6735273527353,3022322.8982288,-31214.70858332,2934028.6095328,12.873527352735,0,0
82.584922599641,-42.715845580192,7.6779577957796,3022322.8982288,-31214.70858332,2934028.6095328,12.87795779578,0,0
82.584922962622,-42.73337516982,7.6823882388239,3022322.8982288,-31214.70858332,2934028.6095328,12.882388238824,0,0
82.584923325603,-42.750904759448,7.6868186818682,3022322.8982288,-31214.70858332,2934028.6095328,12.886818681868,0,0
82.584923688583,-42.768434349076,7.6912491249125,3022322.8982288,-31214.70858332,2934028.6095328,12.891249124912,0,0
82.584924051564,-42.785963938704,7.6956795679568,3022322.8982288,-31214.70858332,2934028.6095328,12.895679567957,0,0
82.584924414544,-42.803493528332,7.7001100110011,3022322.8982288,-31214.70858332,2934028.6095328,12.900110011001,0,0
82.584924777525,-42.821023117959,7.7045404540454,3022322.8982288,-31214.70858332,2934028.6095328,12.904540454045,0,0
82.584925140505,-42.838552707587,7.7089708970897,3022322.8982288,-31214.70858332,2934028.6095328,12.90897089709,0,0
82.584925503486,-42.856082297215,7.713401340134,3022322.8982288,-31214.70858332,2934028.6095328,12.913401340134,0,0
82.584925866466,-42.873611886843,7.7178317831783,3022322.8982288,-31214.70858332,2934028.6095328,12.917831783178,0,0
82.584926229447,-42.891141476471,7.7222622262226,3022322.8982288,-31214.70858332,2934028.6095328,12.922262226223,0,0
82.584926592428,-42.908671066099,7.7266926692669,3022322.8982288,-31214.70858332,2934028.6095328,12.926692669267,0,0
82.584926955408,-42.926200655727,7.7311231123112,3022322.8982288,-31214.70858332,2934028.6095328,12.931123112311,0,0
82.584927318389,-42.943730245355,7.7355535553555,3022322.8982288,-31214.70858332,2934028.6095328,12.935553555356,0,0
82.584927681369,-42.961259834983,7.7399839983998,3022322.8982288,-31214.70858332,2934028.6095328,12.9399839984,0,0
82.58492804435,-42.978789424611,7.7444144414441,3022322.8982288,-31214.70858332,2934028.6095328,12.944414441444,0,0
82.58492840733,-42.996319014239,7.7488448844884,3022322.8982288,-31214.70858332,2934028.6095328,12.948844884488,0,0
82.584928770311,-43.013848603867,7.7532753275328,3022322.8982288,-31214.70858332,2934028.6095328,12.953275327533,0,0
82.584929133291,-43.031378193495,7.7577057705771,3022322.8982288,-31214.70858332,2934028.6095328,12.957705770577,0,0
82.584929496272,-43.048907783123,7.7621362136214,3022322.8982288,-31214.70858332,2934028.6095328,12.962136213621,0,0
82.584929859253,-43.066437372751,7.7665666566657,3022322.8982288,-31214.70858332,2934028.6095328,12.966566656666,0,0
82.584930222233,-43.083966962379,7.77099709971,3022322.8982288,-31214.70858332,2934028.6095328,12.97099709971,0,0
82.584930585214,-43.101496552007,7.7754275427543,3022322.8982288,-31214.70858332,2934028.6095328,12.975427542754,0,0
82.584930948194,-43.119026141635,7.7798579857986,3022322.8982288,-31214.70858332,2934028.6095328,12.979857985799,0,0
82.584931311175,-43.136555731263,7.7842884288429,3022322.8982288,-31214.70858332,2934028.6095328,12.984288428843,0,0
82.584931674155,-43.15408532089,7.7887188718872,3022322.8982288,-31214.70858332,2934028.6095328,12.988718871887,0,0
82.584932037136,-43.171614910518,7.7931493149315,3022322.8982288,-31214.70858332,2934028.6095328,12.993149314931,0,0
82.584932400117,-43.189144500146,7.7975797579758,3022322.8982288,-31214.70858332,2934028.6095328,12.997579757976,0,0
82.584932763097,-43.206674089774,7.8020102010201,3022322.8982288,-31214.70858332,2934028.6095328,13.00201020102,0,0
82.584933126078,-43.224203679402,7.8064406440644,3022322.8982288,-31214.70858332,2934028.6095328,13.006440644064,0,0
82.584933489058,-43.24173326903,7.8108710871087,3022322.8982288,-31214.70858332,2934028.6095328,13.010871087109,0,0
82.584933852039,-43.259262858658,7.815301530153,3022322.8982288,-31214.70858332,2934028.6095328,13.015301530153,0,0
82.584934215019,-43.276792448286,7.8197319731973,3022322.8982288,-31214.70858332,2934028.6095328,13.019731973197,0,0
82.584934578,-43.294322037914,7.8241624162416,3022322.8982288,-31214.70858332,2934028.6095328,13.024162416242,0,0
82.58493494098,-43.311851627542,7.8285928592859,3022322.8982288,-31214.70858332,2934028.6095328,13.028592859286,0,0
82.584935303961,-43.32938121717,7.8330233023302,3022322.8982288,-31214.70858332,2934028.6095328,13.03302330233,0,0
82.584935666942,-43.346910806798,7.8374537453745,3022322.8982288,-31214.70858332,2934028.6095328,13.037453745375,0,0
82.584936029922,-43.364440396426,7.8418841884188,3022322.8982288,-31214.70858332,2934028.6095328,13.041884188419,0,0
82.584936392903,-43.381969986054,7.8463146314631,3022322.8982288,-31214.70858332,2934028.6095328,13.046314631463,0,0
82.584936755883,-43.399499575682,7.8507450745074,3022322.8982288,-31214.70858332,2934028.6095328,13.050745074507,0,0
82.584937118864,-43.41702916531,7.8551755175518,3022322.8982288,-31214.70858332,2934028.6095328,13.055175517552,0,0
82.584937481844,-43.434558754938,7.8596059605961,3022322.8982288,-31214.70858332,2934028.6095328,13.059605960596,0,0
82.584937844825,-43.452088344566,7.8640364036404,3022322.8982288,-31214.70858332,2934028.6095328,13.06403640364,0,0
82.584938207805,-43.469617934194,7.8684668466847,3022322.8982288,-31214.70858332,2934028.6095328,13.068466846685,0,0
82.584938570786,-43.487147523821,7.872897289729,3022322.8982288,-31214.70858332,2934028.6095328,13.072897289729,0,0
82.584938933767,-43.504677113449,7.8773277327733,3022322.8982288,-31214.70858332,2934028.6095328,13.077327732773,0,0
82.584939296747,-43.522206703077,7.8817581758176,3022322.8982288,-31214.70858332,2934028.6095328,13.081758175818,0,0
82.584939659728,-43.539736292705,7.8861886188619,3022322.8982288,-31214.70858332,2934028.6095328,13.086188618862,0,0
82.584940022708,-43.557265882333,7.8906190619062,3022322.8982288,-31214.70858332,2934028.6095328,13.090619061906,0,0
82.584940385689,-43.574795471961,7.8950495049505,3022322.8982288,-31214.70858332,2934028.6095328,13.09504950495,0,0
82.584940748669,-43.592325061589,7.8994799479948,3022322.8982288,-31214.70858332,2934028.6095328,13.099479947995,0,0
82.58494111165,-43.609854651217,7.9039103910391,3022322.8982288,-31214.70858332,2934028.6095328,13.103910391039,0,0
82.58494147463,-43.627384240845,7.9083408340834,3022322.8982288,-31214.70858332,2934028.6095328,13.108340834083,0,0
82.584941837611,-43.644913830473,7.9127712771277,3022322.8982288,-31214.70858332,2934028.6095328,13.112771277128,0,0
82.584942200592,-43.662443420101,7.917201720172,3022322.8982288,-31214.70858332,2934028.6095328,13.117201720172,0,0
82.584942563572,-43.679973009729,7.9216321632163,3022322.8982288,-31214.70858332,2934028.6095328,13.121632163216,0,0
82.584942926553,-43.697502599357,7.9260626062606,3022322.8982288,-31214.70858332,2934028.6095328,13.126062606261,0,0
82.584943289533,-43.715032188985,7.9304930493049,3022322.8982288,-31214.70858332,2934028.6095328,13.130493049305,0,0
82.584943652514,-43.732561778613,7.9349234923492,3022322.8982288,-31214.70858332,2934028.6095328,13.134923492349,0,0
82.584944015494,-43.750091368241,7.9393539353935,3022322.8982288,-31214.70858332,2934028.6095328,13.139353935394,0,0
82.584944378475,-43.767620957869,7.9437843784378,3022322.8982288,-31214.70858332,2934028.6095328,13.143784378438,0,0
82.584944741455,-43.785150547497,7.9482148214821,3022322.8982288,-31214.70858332,2934028.6095328,13.148214821482,0,0
82.584945104436,-43.802680137124,7.9526452645265,3022322.8982288,-31214.70858332,2934028.6095328,13.152645264526,0,0
82.584945467417,-43.820209726752,7.9570757075708,3022322.8982288,-31214.70858332,2934028.6095328,13.157075707571,0,0
82.584945830397,-43.83773931638,7.9615061506151,3022322.8982288,-31214.70858332,2934028.6095328,13.161506150615,0,0
82.584946193378,-43.855268906008,7.9659365936594,3022322.8982288,-31214.70858332,2934028.6095328,13.165936593659,0,0
82.584946556358,-43.872798495636,7.9703670367037,3022322.8982288,-31214.70858332,2934028.6095328,13.170367036704,0,0
82.584946919339,-43.890328085264,7.974797479748,3022322.8982288,-31214.70858332,2934028.6095328,13.174797479748,0,0
82.584947282319,-43.907857674892,7.9792279227923,3022322.8982288,-31214.70858332,2934028.6095328,13.179227922792,0,0
82.5849476453,-43.92538726452,7.9836583658366,3022322.8982288,-31214.70858332,2934028.6095328,13.183658365837,0,0
82.58494800828,-43.942916854148,7.9880888088809,3022322.8982288,-31214.70858332,2934028.6095328,13.188088808881,0,0
82.584948371261,-43.960446443776,7.9925192519252,3022322.8982288,-31214.70858332,2934028.6095328,13.192519251925,0,0
82.584948734242,-43.977976033404,7.9969496949695,3022322.8982288,-31214.70858332,2934028.6095328,13.196949694969,0,0
82.584949097222,-43.995505623032,8.0013801380138,3022322.8982288,-31214.70858332,2934028.6095328,13.201380138014,0,0
82.584949460203,-44.01303521266,8.0058105810581,3022322.8982288,-31214.70858332,2934028.6095328,13.205810581058,0,0
82.584949823183,-44.030564802288,8.0102410241024,3022322.8982288,-31214.70858332,2934028.6095328,13.210241024102,0,0
82.584950186164,-44.048094391916,8.0146714671467,3022322.8982288,-31214.70858332,2934028.6095328,13.214671467147,0,0
82.584950549144,-44.065623981544,8.019101910191,3022322.8982288,-31214.70858332,2934028.6095328,13.219101910191,0,0
82.584950912125,-44.083153571172,8.0235323532353,3022322.8982288,-31214.70858332,2934028.6095328,13.223532353235,0,0
82.584951275105,-44.1006831608,8.0279627962796,3022322.8982288,-31214.70858332,2934028.6095328,13.22796279628,0,0
82.584951638086,-44.118212750428,8.0323932393239,3022322.8982288,-31214.70858332,2934028.6095328,13.232393239324,0,0
82.584952001067,-44.135742340055,8.0368236823682,3022322.8982288,-31214.70858332,2934028.6095328,13.236823682368,0,0
82.584952364047,-44.153271929683,8.0412541254125,3022322.8982288,-31214.70858332,2934028.6095328,13.241254125413,0,0
82.584952727028,-44.170801519311,8.0456845684568,3022322.8982288,-31214.70858332,2934028.6095328,13.245684568457,0,0
82.584953090008,-44.188331108939,8.0501150115011,3022322.8982288,-31214.70858332,2934028.6095328,13.250115011501,0,0
82.584953452989,-44.205860698567,8.0545454545455,3022322.8982288,-31214.70858332,2934028.6095328,13.254545454545,0,0
82.584953815969,-44.223390288195,8.0589758975898,3022322.8982288,-31214.70858332,2934028.6095328,13.25897589759,0,0
82.58495417895,-44.240919877823,8.0634063406341,3022322.8982288,-31214.70858332,2934028.6095328,13.263406340634,0,0
82.58495454193,-44.258449467451,8.0678367836784,3022322.8982288,-31214.70858332,2934028.6095328,13.267836783678,0,0
82.584954904911,-44.275979057079,8.0722672267227,3022322.8982288,-31214.70858332,2934028.6095328,13.272267226723,0,0
82.584955267892,-44.293508646707,8.076697669767,3022322.8982288,-31214.70858332,2934028.6095328,13.276697669767,0,0
82.584955630872,-44.311038236335,8.0811281128113,3022322.8982288,-31214.70858332,2934028.6095328,13.281128112811,0,0
82.584955993853,-44.328567825963,8.0855585558556,3022322.8982288,-31214.70858332,2934028.6095328,13.285558555856,0,0
82.584956356833,-44.346097415591,8.0899889988999,3022322.8982288,-31214.70858332,2934028.6095328,13.2899889989,0,0
82.584956719814,-44.363627005219,8.0944194419442,3022322.8982288,-31214.70858332,2934028.6095328,13.294419441944,0,0
82.584957082794,-44.381156594847,8.0988498849885,3022322.8982288,-31214.70858332,2934028.6095328,13.298849884988,0,0
82.584957445775,-44.398686184475,8.1032803280328,3022322.8982288,-31214.70858332,2934028.6095328,13.303280328033,0,0
82.584957808755,-44.416215774103,8.1077107710771,3022322.8982288,-31214.70858332,2934028.6095328,13.307710771077,0,0
82.584958171736,-44.433745363731,8.1121412141214,3022322.8982288,-31214.70858332,2934028.6095328,13.312141214121,0,0
82.584958534717,-44.451274953359,8.1165716571657,3022322.8982288,-31214.70858332,2934028.6095328,13.316571657166,0,0
82.584958897697,-44.468804542986,8.12100210021,3022322.8982288,-31214.70858332,2934028.6095328,13.32100210021,0,0
82.584959260678,-44.486334132614,8.1254325432543,3022322.8982288,-31214.70858332,2934028.6095328,13.325432543254,0,0
82.584959623658,-44.503863722242,8.1298629862986,3022322.8982288,-31214.70858332,2934028.6095328,13.329862986299,0,0
82.584959986639,-44.52139331187,8.1342934293429,3022322.8982288,-31214.70858332,2934028.6095328,13.334293429343,0,0
82.584960349619,-44.538922901498,8.1387238723872,3022322.8982288,-31214.70858332,2934028.6095328,13.338723872387,0,0
82.5849607126,-44.556452491126,8.1431543154315,3022322.8982288,-31214.70858332,2934028.6095328,13.343154315432,0,0
82.58496107558,-44.573982080754,8.1475847584758,3022322.8982288,-31214.70858332,2934028.6095328,13.347584758476,0,0
82.584961438561,-44.591511670382,8.1520152015202,3022322.8982288,-31214.70858332,2934028.6095328,13.35201520152,0,0
82.584961801542,-44.60904126001,8.1564456445645,3022322.8982288,-31214.70858332,2934028.6095328,13.356445644564,0,0
82.584962164522,-44.626570849638,8.1608760876088,3022322.8982288,-31214.70858332,2934028.6095328,13.360876087609,0,0
82.584962527503,-44.644100439266,8.1653065306531,3022322.8982288,-31214.70858332,2934028.6095328,13.365306530653,0,0
82.584962890483,-44.661630028894,8.1697369736974,3022322.8982288,-31214.70858332,2934028.6095328,13.369736973697,0,0
82.584963253464,-44.679159618522,8.1741674167417,3022322.8982288,-31214.70858332,2934028.6095328,13.374167416742,0,0
82.584963616444,-44.69668920815,8.178597859786,3022322.8982288,-31214.70858332,2934028.6095328,13.378597859786,0,0
82.584963979425,-44.714218797778,8.1830283028303,3022322.8982288,-31214.70858332,2934028.6095328,13.38302830283,0,0
82.584964342405,-44.731748387406,8.1874587458746,3022322.8982288,-31214.70858332,2934028.6095328,13.387458745875,0,0
82.584964705386,-44.749277977034,8.1918891889189,3022322.8982288,-31214.70858332,2934028.6095328,13.391889188919,0,0
82.584965068367,-44.766807566662,8.1963196319632,3022322.8982288,-31214.70858332,2934028.6095328,13.396319631963,0,0
82.584965431347,-44.784337156289,8.2007500750075,3022322.8982288,-31214.70858332,2934028.6095328,13.400750075008,0,0
82.584965794328,-44.801866745917,8.2051805180518,3022322.8982288,-31214.70858332,2934028.6095328,13.405180518052,0,0
82.584966157308,-44.819396335545,8.2096109610961,3022322.8982288,-31214.70858332,2934028.6095328,13.409610961096,0,0
82.584966520289,-44.836925925173,8.2140414041404,3022322.8982288,-31214.70858332,2934028.6095328,13.41404140414,0,0
82.584966883269,-44.854455514801,8.2184718471847,3022322.8982288,-31214.70858332,2934028.6095328,13.418471847185,0,0
82.58496724625,-44.871985104429,8.222902290229,3022322.8982288,-31214.70858332,2934028.6095328,13.422902290229,0,0
82.58496760923,-44.889514694057,8.2273327332733,3022322.8982288,-31214.70858332,2934028.6095328,13.427332733273,0,0
82.584967972211,-44.907044283685,8.2317631763176,3022322.8982288,-31214.70858332,2934028.6095328,13.431763176318,0,0
82.584968335192,-44.924573873313,8.2361936193619,3022322.8982288,-31214.70858332,2934028.6095328,13.436193619362,0,0
82.584968698172,-44.942103462941,8.2406240624062,3022322.8982288,-31214.70858332,2934028.6095328,13.440624062406,0,0
82.584969061153,-44.959633052569,8.2450545054505,3022322.8982288,-31214.70858332,2934028.6095328,13.445054505451,0,0
82.584969424133,-44.977162642197,8.2494849484948,3022322.8982288,-31214.70858332,2934028.6095328,13.449484948495,0,0
82.584969787114,-44.994692231825,8.2539153915392,3022322.8982288,-31214.70858332,2934028.6095328,13.453915391539,0,0
82.584970150094,-45.012221821453,8.2583458345835,3022322.8982288,-31214.70858332,2934028.6095328,13.458345834583,0,0
82.584970513075,-45.029751411081,8.2627762776278,3022322.8982288,-31214.70858332,2934028.6095328,13.462776277628,0,0
82.584970876055,-45.047281000709,8.2672067206721,3022322.8982288,-31214.70858332,2934028.6095328,13.467206720672,0,0
82.584971239036,-45.064810590337,8.2716371637164,3022322.8982288,-31214.70858332,2934028.6095328,13.471637163716,0,0
82.584971602017,-45.082340179965,8.2760676067607,3022322.8982288,-31214.70858332,2934028.6095328,13.476067606761,0,0
82.584971964997,-45.099869769593,8.280498049805,3022322.8982288,-31214.70858332,2934028.6095328,13.480498049805,0,0
82.584972327978,-45.11739935922,8.2849284928493,3022322.8982288,-31214.70858332,2934028.6095328,13.484928492849,0,0
82.584972690958,-45.134928948848,8.2893589358936,3022322.8982288,-31214.70858332,2934028.6095328,13.489358935894,0,0
82.584973053939,-45.152458538476,8.2937893789379,3022322.8982288,-31214.70858332,2934028.6095328,13.493789378938,0,0
82.584973416919,-45.169988128104,8.2982198219822,3022322.8982288,-31214.70858332,2934028.6095328,13.498219821982,0,0
82.5849737799,-45.187517717732,8.3026502650265,3022322.8982288,-31214.70858332,2934028.6095328,13.502650265027,0,0
82.58497414288,-45.20504730736,8.3070807080708,3022322.8982288,-31214.70858332,2934028.6095328,13.507080708071,0,0
82.584974505861,-45.222576896988,8.3115111511151,3022322.8982288,-31214.70858332,2934028.6095328,13.511511151115,0,0
82.584974868842,-45.240106486616,8.3159415941594,3022322.8982288,-31214.70858332,2934028.6095328,13.515941594159,0,0
82.584975231822,-45.257636076244,8.3203720372037,3022322.8982288,-31214.70858332,2934028.6095328,13.520372037204,0,0
82.584975594803,-45.275165665872,8.324802480248,3022322.8982288,-31214.70858332,2934028.6095328,13.524802480248,0,0
82.584975957783,-45.2926952555,8.3292329232923,3022322.8982288,-31214.70858332,2934028.6095328,13.529232923292,0,0
82.584976320764,-45.310224845128,8.3336633663366,3022322.8982288,-31214.70858332,2934028.6095328,13.533663366337,0,0
82.584976683744,-45.327754434756,8.3380938093809,3022322.8982288,-31214.70858332,2934028.6095328,13.538093809381,0,0
82.584977049032,-45.345284027962,8.3425242524252,3056841.9016072,-46682.387649071,2895900.3249747,13.542524252425,0,0
82.584977415785,-45.362813623441,8.3469546954695,3056841.9016072,-46682.387649071,2895900.3249747,13.54695469547,0,0
82.584977783325,-45.380343218096,8.3513851385139,3114822.4018062,-33826.654602081,2882726.4951127,13.551385138514,0,0
82.58497815506,-45.397872808357,8.3558155815582,3114822.4018062,-33826.654602081,2882726.4951127,13.555815581558,0,0
82.584978526795,-45.415402398619,8.3602460246025,3114822.4018062,-33826.654602081,2882726.4951127,13.560246024602,0,0
82.58497889853,-45.43293198888,8.3646764676468,3114822.4018062,-33826.654602081,2882726.4951127,13.564676467647,0,0
82.584979270265,-45.450461579142,8.3691069106911,3114822.4018062,-33826.654602081,2882726.4951127,13.569106910691,0,0
82.584979642,-45.467991169403,8.3735373537354,3114822.4018062,-33826.654602081,2882726.4951127,13.573537353735,0,0
82.584980013735,-45.485520759665,8.3779677967797,3114822.4018062,-33826.654602081,2882726.4951127,13.57796779678,0,0
82.58498038547,-45.503050349927,8.382398239824,3114822.4018062,-33826.654602081,2882726.4951127,13.582398239824,0,0
82.584980757205,-45.520579940188,8.3868286828683,3114822.4018062,-33826.654602081,2882726.4951127,13.586828682868,0,0
82.58498112894,-45.53810953045,8.3912591259126,3114822.4018062,-33826.654602081,2882726.4951127,13.591259125913,0,0
82.584981500675,-45.555639120711,8.3956895689569,3114822.4018062,-33826.654602081,2882726.4951127,13.595689568957,0,0
82.58498187241,-45.573168710973,8.4001200120012,3114822.4018062,-33826.654602081,2882726.4951127,13.600120012001,0,0
82.584982244145,-45.590698301234,8.4045504550455,3114822.4018062,-33826.654602081,2882726.4951127,13.604550455046,0,0
82.58498261588,-45.608227891496,8.4089808980898,3114822.4018062,-33826.654602081,2882726.4951127,13.60898089809,0,0
82.584982987614,-45.625757481757,8.4134113411341,3114822.4018062,-33826.654602081,2882726.4951127,13.613411341134,0,0
82.584983359349,-45.643287072019,8.4178417841784,3114822.4018062,-33826.654602081,2882726.4951127,13.617841784178,0,0
82.584983731084,-45.660816662281,8.4222722272227,3114822.4018062,-33826.654602081,2882726.4951127,13.622272227223,0,0
82.584984102819,-45.678346252542,8.426702670267,3114822.4018062,-33826.654602081,2882726.4951127,13.626702670267,0,0
82.584984474554,-45.695875842804,8.4311331133113,3114822.4018062,-33826.654602081,2882726.4951127,13.631133113311,0,0
82.584984846289,-45.713405433065,8.4355635563556,3114822.4018062,-33826.654602081,2882726.4951127,13.635563556356,0,0
82.584985218024,-45.730935023327,8.4399939993999,3114822.4018062,-33826.654602081,2882726.4951127,13.6399939994,0,0
82.584985589759,-45.748464613588,8.4444244424442,3114822.4018062,-33826.654602081,2882726.4951127,13.644424442444,0,0
82.584985961494,-45.76599420385,8.4488548854885,3114822.4018062,-33826.654602081,2882726.4951127,13.648854885489,0,0
82.584986333229,-45.783523794111,8.4532853285329,3114822.4018062,-33826.654602081,2882726.4951127,13.653285328533,0,0
82.584986704964,-45.801053384373,8.4577157715772,3114822.4018062,-33826.654602081,2882726.4951127,13.657715771577,0,0
82.584987076699,-45.818582974635,8.4621462146215,3114822.4018062,-33826.654602081,2882726.4951127,13.662146214621,0,0
82.584987448434,-45.836112564896,8.4665766576658,3114822.4018062,-33826.654602081,2882726.4951127,13.666576657666,0,0
82.584987820169,-45.853642155158,8.4710071007101,3114822.4018062,-33826.654602081,2882726.4951127,13.67100710071,0,0
82.584988191904,-45.871171745419,8.4754375437544,3114822.4018062,-33826.654602081,2882726.4951127,13.675437543754,0,0
82.584988563639,-45.888701335681,8.4798679867987,3114822.4018062,-33826.654602081,2882726.4951127,13.679867986799,0,0
82.584988935374,-45.906230925942,8.484298429843,3114822.4018062,-33826.654602081,2882726.4951127,13.684298429843,0,0
82.584989307109,-45.923760516204,8.4887288728873,3114822.4018062,-33826.654602081,2882726.4951127,13.688728872887,0,0
82.584989678713,-45.941290106457,8.4931593159316,3098557.4552938,29760.939951302,2865937.3605501,13.693159315932,0,0
82.584990049596,-45.958819696661,8.4975897589759,3098557.4552938,29760.939951302,2865937.3605501,13.697589758976,0,0
82.584990420479,-45.976349286865,8.5020202020202,3098557.4552938,29760.939951302,2865937.3605501,13.70202020202,0,0
82.584990791362,-45.993878877069,8.5064506450645,3098557.4552938,29760.939951302,2865937.3605501,13.706450645065,0,0
82.584991162244,-46.011408467274,8.5108810881088,3098557.4552938,29760.939951302,2865937.3605501,13.710881088109,0,0
82.584991533127,-46.028938057478,8.5153115311531,3098557.4552938,29760.939951302,2865937.3605501,13.715311531153,0,0
82.58499190401,-46.046467647682,8.5197419741974,3098557.4552938,29760.939951302,2865937.3605501,13.719741974197,0,0
82.584992274893,-46.063997237886,8.5241724172417,3098557.4552938,29760.939951302,2865937.3605501,13.724172417242,0,0
82.584992645776,-46.08152682809,8.528602860286,3098557.4552938,29760.939951302,2865937.3605501,13.728602860286,0,0
82.584993016658,-46.099056418294,8.5330333033303,3098557.4552938,29760.939951302,2865937.3605501,13.73303330333,0,0
82.584993387541,-46.116586008499,8.5374637463746,3098557.4552938,29760.939951302,2865937.3605501,13.737463746375,0,0
82.584993758424,-46.134115598703,8.5418941894189,3098557.4552938,29760.939951302,2865937.3605501,13.741894189419,0,0
82.584994129307,-46.151645188907,8.5463246324632,3098557.4552938,29760.939951302,2865937.3605501,13.746324632463,0,0
82.58499450019,-46.169174779111,8.5507550755075,3098557.4552938,29760.939951302,2865937.3605501,13.750755075508,0,0
82.584994871072,-46.186704369315,8.5551855185519,3098557.4552938,29760.939951302,2865937.3605501,13.755185518552,0,0
82.584995241955,-46.20423395952,8.5596159615962,3098557.4552938,29760.939951302,2865937.3605501,13.759615961596,0,0
82.584995612838,-46.221763549724,8.5640464046405,3098557.4552938,29760.939951302,2865937.3605501,13.76404640464,0,0
82.584995983721,-46.239293139928,8.5684768476848,3098557.4552938,29760.939951302,2865937.3605501,13.768476847685,0,0
82.584996354604,-46.256822730132,8.5729072907291,3098557.4552938,29760.939951302,2865937.3605501,13.772907290729,0,0
82.584996725486,-46.274352320336,8.5773377337734,3098557.4552938,29760.939951302,2865937.3605501,13.777337733773,0,0
82.584997096369,-46.291881910541,8.5817681768177,3098557.4552938,29760.939951302,2865937.3605501,13.781768176818,0,0
82.584997467252,-46.309411500745,8.586198619862,3098557.4552938,29760.939951302,2865937.3605501,13.786198619862,0,0
82.584997838135,-46.326941090949,8.5906290629063,3098557.4552938,29760.939951302,2865937.3605501,13.790629062906,0,0
82.584998209018,-46.344470681153,8.5950595059506,3098557.4552938,29760.939951302,2865937.3605501,13.795059505951,0,0
82.5849985799,-46.362000271357,8.5994899489949,3098557.4552938,29760.939951302,2865937.3605501,13.799489948995,0,0
82.584998950783,-46.379529861562,8.6039203920392,3098557.4552938,29760.939951302,2865937.3605501,13.803920392039,0,0
82.584999321666,-46.397059451766,8.6083508350835,3098557.4552938,29760.939951302,2865937.3605501,13.808350835084,0,0
82.584999692549,-46.41458904197,8.6127812781278,3098557.4552938,29760.939951302,2865937.3605501,13.812781278128,0,0
82.585000063432,-46.432118632174,8.6172117211721,3098557.4552938,29760.939951302,2865937.3605501,13.817211721172,0,0
82.585000434314,-46.449648222378,8.6216421642164,3098557.4552938,29760.939951302,2865937.3605501,13.821642164216,0,0
82.585000805197,-46.467177812582,8.6260726072607,3098557.4552938,29760.939951302,2865937.3605501,13.826072607261,0,0
82.58500117608,-46.484707402787,8.630503050305,3098557.4552938,29760.939951302,2865937.3605501,13.830503050305,0,0
82.585001546963,-46.502236992991,8.6349334933493,3098557.4552938,29760.939951302,2865937.3605501,13.834933493349,0,0
82.585001917846,-46.519766583195,8.6393639363936,3098557.4552938,29760.939951302,2865937.3605501,13.839363936394,0,0
82.585002288728,-46.537296173399,8.6437943794379,3098557.4552938,29760.939951302,2865937.3605501,13.843794379438,0,0
82.585002659611,-46.554825763603,8.6482248224822,3098557.4552938,29760.939951302,2865937.3605501,13.848224822482,0,0
82.585003030494,-46.572355353808,8.6526552655266,3098557.4552938,29760.939951302,2865937.3605501,13.852655265527,0,0
82.585003401377,-46.589884944012,8.6570857085709,3098557.4552938,29760.939951302,2865937.3605501,13.857085708571,0,0
82.58500377226,-46.607414534216,8.6615161516152,3098557.4552938,29760.939951302,2865937.3605501,13.861516151615,0,0
82.585004143142,-46.62494412442,8.6659465946595,3098557.4552938,29760.939951302,2865937.3605501,13.865946594659,0,0
82.585004514025,-46.642473714624,8.6703770377038,3098557.4552938,29760.939951302,2865937.3605501,13.870377037704,0,0
82.585004884908,-46.660003304829,8.6748074807481,3098557.4552938,29760.939951302,2865937.3605501,13.874807480748,0,0
82.585005255791,-46.677532895033,8.6792379237924,3098557.4552938,29760.939951302,2865937.3605501,13.879237923792,0,0
82.585005626674,-46.695062485237,8.6836683668367,3098557.4552938,29760.939951302,2865937.3605501,13.883668366837,0,0
82.585005997556,-46.712592075441,8.688098809881,3098557.4552938,29760.939951302,2865937.3605501,13.888098809881,0,0
82.585006368439,-46.730121665645,8.6925292529253,3098557.4552938,29760.939951302,2865937.3605501,13.892529252925,0,0
82.585006739322,-46.74765125585,8.6969596959696,3098557.4552938,29760.939951302,2865937.3605501,13.89695969597,0,0
82.585007110205,-46.765180846054,8.7013901390139,3098557.4552938,29760.939951302,2865937.3605501,13.901390139014,0,0
82.585007481088,-46.782710436258,8.7058205820582,3098557.4552938,29760.939951302,2865937.3605501,13.905820582058,0,0
82.58500785197,-46.800240026462,8.7102510251025,3098557.4552938,29760.939951302,2865937.3605501,13.910251025103,0,0
82.585008222853,-46.817769616666,8.7146814681468,3098557.4552938,29760.939951302,2865937.3605501,13.914681468147,0,0
82.585008593736,-46.83529920687,8.7191119111911,3098557.4552938,29760.939951302,2865937.3605501,13.919111911191,0,0
82.585008964619,-46.852828797075,8.7235423542354,3098557.4552938,29760.939951302,2865937.3605501,13.923542354235,0,0
82.585009335502,-46.870358387279,8.7279727972797,3098557.4552938,29760.939951302,2865937.3605501,13.92797279728,0,0
82.585009706384,-46.887887977483,8.732403240324,3098557.4552938,29760.939951302,2865937.3605501,13.932403240324,0,0
82.585010077267,-46.905417567687,8.7368336833683,3098557.4552938,29760.939951302,2865937.3605501,13.936833683368,0,0
82.58501044815,-46.922947157891,8.7412641264126,3098557.4552938,29760.939951302,2865937.3605501,13.941264126413,0,0
82.585010819033,-46.940476748096,8.7456945694569,3098557.4552938,29760.939951302,2865937.3605501,13.945694569457,0,0
82.585011189916,-46.9580063383,8.7501250125013,3098557.4552938,29760.939951302,2865937.3605501,13.950125012501,0,0
82.585011560798,-46.975535928504,8.7545554555456,3098557.4552938,29760.939951302,2865937.3605501,13.954555455546,0,0
82.585011931681,-46.993065518708,8.7589858985899,3098557.4552938,29760.939951302,2865937.3605501,13.95898589859,0,0
82.585012302564,-47.010595108912,8.7634163416342,3098557.4552938,29760.939951302,2865937.3605501,13.963416341634,0,0
82.585012673447,-47.028124699117,8.7678467846785,3098557.4552938,29760.939951302,2865937.3605501,13.967846784678,0,0
82.58501304433,-47.045654289321,8.7722772277228,3098557.4552938,29760.939951302,2865937.3605501,13.972277227723,0,0
82.585013415212,-47.063183879525,8.7767076707671,3098557.4552938,29760.939951302,2865937.3605501,13.976707670767,0,0
82.585013786095,-47.080713469729,8.7811381138114,3098557.4552938,29760.939951302,2865937.3605501,13.981138113811,0,0
82.585014156978,-47.098243059933,8.7855685568557,3098557.4552938,29760.939951302,2865937.3605501,13.985568556856,0,0
82.585014527861,-47.115772650138,8.7899989999,3098557.4552938,29760.939951302,2865937.3605501,13.9899989999,0,0
82.585014898744,-47.133302240342,8.7944294429443,3098557.4552938,29760.939951302,2865937.3605501,13.994429442944,0,0
82.585015269626,-47.150831830546,8.7988598859886,3098557.4552938,29760.939951302,2865937.3605501,13.998859885989,0,0
82.585015640509,-47.16836142075,8.8032903290329,3098557.4552938,29760.939951302,2865937.3605501,14.003290329033,0,0
82.585016011392,-47.185891010954,8.8077207720772,3098557.4552938,29760.939951302,2865937.3605501,14.007720772077,0,0
82.585016382275,-47.203420601158,8.8121512151215,3098557.4552938,29760.939951302,2865937.3605501,14.012151215122,0,0
82.585016753158,-47.220950191363,8.8165816581658,3098557.4552938,29760.939951302,2865937.3605501,14.016581658166,0,0
82.58501712404,-47.238479781567,8.8210121012101,3098557.4552938,29760.939951302,2865937.3605501,14.02101210121,0,0
82.585017494923,-47.256009371771,8.8254425442544,3098557.4552938,29760.939951302,2865937.3605501,14.025442544254,0,0
82.585017865806,-47.273538961975,8.8298729872987,3098557.4552938,29760.939951302,2865937.3605501,14.029872987299,0,0
82.585018236689,-47.291068552179,8.834303430343,3098557.4552938,29760.939951302,2865937.3605501,14.034303430343,0,0
82.585018607572,-47.308598142384,8.8387338733873,3098557.4552938,29760.939951302,2865937.3605501,14.038733873387,0,0
82.585018978454,-47.326127732588,8.8431643164316,3098557.4552938,29760.939951302,2865937.3605501,14.043164316432,0,0
82.585019349337,-47.343657322792,8.8475947594759,3098557.4552938,29760.939951302,2865937.3605501,14.047594759476,0,0
82.58501972022,-47.361186912996,8.8520252025203,3098557.4552938,29760.939951302,2865937.3605501,14.05202520252,0,0
82.585020091103,-47.3787165032,8.8564556455646,3098557.4552938,29760.939951302,2865937.3605501,14.056455645565,0,0
82.585020461986,-47.396246093405,8.8608860886089,3098557.4552938,29760.939951302,2865937.3605501,14.060886088609,0,0
82.585020832868,-47.413775683609,8.8653165316532,3098557.4552938,29760.939951302,2865937.3605501,14.065316531653,0,0
82.585021203751,-47.431305273813,8.8697469746975,3098557.4552938,29760.939951302,2865937.3605501,14.069746974697,0,0
82.585021574634,-47.448834864017,8.8741774177418,3098557.4552938,29760.939951302,2865937.3605501,14.074177417742,0,0
82.585021945517,-47.466364454221,8.8786078607861,3098557.4552938,29760.939951302,2865937.3605501,14.078607860786,0,0
82.5850223164,-47.483894044426,8.8830383038304,3098557.4552938,29760.939951302,2865937.3605501,14.08303830383,0,0
82.585022687282,-47.50142363463,8.8874687468747,3098557.4552938,29760.939951302,2865937.3605501,14.087468746875,0,0
82.585023058165,-47.518953224834,8.891899189919,3098557.4552938,29760.939951302,2865937.3605501,14.091899189919,0,0
82.585023429048,-47.536482815038,8.8963296329633,3098557.4552938,29760.939951302,2865937.3605501,14.096329632963,0,0
82.585023799931,-47.554012405242,8.9007600760076,3098557.4552938,29760.939951302,2865937.3605501,14.100760076008,0,0
82.585024170814,-47.571541995446,8.9051905190519,3098557.4552938,29760.939951302,2865937.3605501,14.105190519052,0,0
82.585024541696,-47.589071585651,8.9096209620962,3098557.4552938,29760.939951302,2865937.3605501,14.109620962096,0,0
82.585024912579,-47.606601175855,8.9140514051405,3098557.4552938,29760.939951302,2865937.3605501,14.114051405141,0,0
82.585025283462,-47.624130766059,8.9184818481848,3098557.4552938,29760.939951302,2865937.3605501,14.118481848185,0,0
82.585025654345,-47.641660356263,8.9229122912291,3098557.4552938,29760.939951302,2865937.3605501,14.122912291229,0,0
82.585026025228,-47.659189946467,8.9273427342734,3098557.4552938,29760.939951302,2865937.3605501,14.127342734273,0,0
82.58502639611,-47.676719536672,8.9317731773177,3098557.4552938,29760.939951302,2865937.3605501,14.131773177318,0,0
82.585026766993,-47.694249126876,8.936203620362,3098557.4552938,29760.939951302,2865937.3605501,14.136203620362,0,0
82.585027137876,-47.71177871708,8.9406340634063,3098557.4552938,29760.939951302,2865937.3605501,14.140634063406,0,0
82.585027508759,-47.729308307284,8.9450645064506,3098557.4552938,29760.939951302,2865937.3605501,14.145064506451,0,0
82.585027879641,-47.746837897488,8.9494949494949,3098557.4552938,29760.939951302,2865937.3605501,14.149494949495,0,0
82.585028250524,-47.764367487693,8.9539253925393,3098557.4552938,29760.939951302,2865937.3605501,14.153925392539,0,0
82.585028621407,-47.781897077897,8.9583558355836,3098557.4552938,29760.939951302,2865937.3605501,14.158355835584,0,0
82.58502899229,-47.799426668101,8.9627862786279,3098557.4552938,29760.939951302,2865937.3605501,14.162786278628,0,0
82.585029363173,-47.816956258305,8.9672167216722,3098557.4552938,29760.939951302,2865937.3605501,14.167216721672,0,0
82.585029734055,-47.834485848509,8.9716471647165,3098557.4552938,29760.939951302,2865937.3605501,14.171647164716,0,0
82.585030104938,-47.852015438714,8.9760776077608,3098557.4552938,29760.939951302,2865937.3605501,14.176077607761,0,0
82.585030475821,-47.869545028918,8.9805080508051,3098557.4552938,29760.939951302,2865937.3605501,14.180508050805,0,0
82.585030846704,-47.887074619122,8.9849384938494,3098557.4552938,29760.939951302,2865937.3605501,14.184938493849,0,0
82.585031217587,-47.904604209326,8.9893689368937,3098557.4552938,29760.939951302,2865937.3605501,14.189368936894,0,0
82.585031588469,-47.92213379953,8.993799379938,3098557.4552938,29760.939951302,2865937.3605501,14.193799379938,0,0
82.585031959352,-47.939663389734,8.9982298229823,3098557.4552938,29760.939951302,2865937.3605501,14.198229822982,0,0
82.585032330235,-47.957192979939,9.0026602660266,3098557.4552938,29760.939951302,2865937.3605501,14.202660266027,0,0
82.585032701118,-47.974722570143,9.0070907090709,3098557.4552938,29760.939951302,2865937.3605501,14.207090709071,0,0
82.585033072001,-47.992252160347,9.0115211521152,3098557.4552938,29760.939951302,2865937.3605501,14.211521152115,0,0
82.585033442883,-48.009781750551,9.0159515951595,3098557.4552938,29760.939951302,2865937.3605501,14.21595159516,0,0
82.585033813766,-48.027311340755,9.0203820382038,3098557.4552938,29760.939951302,2865937.3605501,14.220382038204,0,0
82.585034184649,-48.04484093096,9.0248124812481,3098557.4552938,29760.939951302,2865937.3605501,14.224812481248,0,0
82.585034555532,-48.062370521164,9.0292429242924,3098557.4552938,29760.939951302,2865937.3605501,14.229242924292,0,0
82.585034926415,-48.079900111368,9.0336733673367,3098557.4552938,29760.939951302,2865937.3605501,14.233673367337,0,0
82.585035297297,-48.097429701572,9.038103810381,3098557.4552938,29760.939951302,2865937.3605501,14.238103810381,0,0
82.58503566818,-48.114959291776,9.0425342534253,3098557.4552938,29760.939951302,2865937.3605501,14.242534253425,0,0
82.585036039063,-48.132488881981,9.0469646964696,3098557.4552938,29760.939951302,2865937.3605501,14.24696469647,0,0
82.585036409946,-48.150018472185,9.051395139514,3098557.4552938,29760.939951302,2865937.3605501,14.251395139514,0,0
82.585036780829,-48.167548062389,9.0558255825583,3098557.4552938,29760.939951302,2865937.3605501,14.255825582558,0,0
82.585037151711,-48.185077652593,9.0602560256026,3098557.4552938,29760.939951302,2865937.3605501,14.260256025603,0,0
82.585037522594,-48.202607242797,9.0646864686469,3098557.4552938,29760.939951302,2865937.3605501,14.264686468647,0,0
82.585037893477,-48.220136833002,9.0691169116912,3098557.4552938,29760.939951302,2865937.3605501,14.269116911691,0,0
82.58503826436,-48.237666423206,9.0735473547355,3098557.4552938,29760.939951302,2865937.3605501,14.273547354735,0,0
82.585038635243,-48.25519601341,9.0779777977798,3098557.4552938,29760.939951302,2865937.3605501,14.27797779778,0,0
82.585039006125,-48.272725603614,9.0824082408241,3098557.4552938,29760.939951302,2865937.3605501,14.282408240824,0,0
82.585039377008,-48.290255193818,9.0868386838684,3098557.4552938,29760.939951302,2865937.3605501,14.286838683868,0,0
82.585039747891,-48.307784784022,9.0912691269127,3098557.4552938,29760.939951302,2865937.3605501,14.291269126913,0,0
82.585040118774,-48.325314374227,9.095699569957,3098557.4552938,29760.939951302,2865937.3605501,14.295699569957,0,0
82.585040489657,-48.342843964431,9.1001300130013,3098557.4552938,29760.939951302,2865937.3605501,14.300130013001,0,0
82.585040860539,-48.360373554635,9.1045604560456,3098557.4552938,29760.939951302,2865937.3605501,14.304560456046,0,0
82.585041231422,-48.377903144839,9.1089908990899,3098557.4552938,29760.939951302,2865937.3605501,14.30899089909,0,0
82.585041602305,-48.395432735043,9.1134213421342,3098557.4552938,29760.939951302,2865937.3605501,14.313421342134,0,0
82.585041973188,-48.412962325248,9.1178517851785,3098557.4552938,29760.939951302,2865937.3605501,14.317851785179,0,0
82.585042344071,-48.430491915452,9.1222822282228,3098557.4552938,29760.939951302,2865937.3605501,14.322282228223,0,0
82.585042714953,-48.448021505656,9.1267126712671,3098557.4552938,29760.939951302,2865937.3605501,14.326712671267,0,0
82.585043085836,-48.46555109586,9.1311431143114,3098557.4552938,29760.939951302,2865937.3605501,14.331143114311,0,0
82.585043456719,-48.483080686064,9.1355735573557,3098557.4552938,29760.939951302,2865937.3605501,14.335573557356,0,0
82.585043827602,-48.500610276269,9.1400040004,3098557.4552938,29760.939951302,2865937.3605501,14.3400040004,0,0
82.585044198485,-48.518139866473,9.1444344434443,3098557.4552938,29760.939951302,2865937.3605501,14.344434443444,0,0
82.585044569367,-48.535669456677,9.1488648864886,3098557.4552938,29760.939951302,2865937.3605501,14.348864886489,0,0
82.58504494025,-48.553199046881,9.153295329533,3098557.4552938,29760.939951302,2865937.3605501,14.353295329533,0,0
82.585045311133,-48.570728637085,9.1577257725773,3098557.4552938,29760.939951302,2865937.3605501,14.357725772577,0,0
82.585045682016,-48.58825822729,9.1621562156216,3098557.4552938,29760.939951302,2865937.3605501,14.362156215622,0,0
82.585046052899,-48.605787817494,9.1665866586659,3098557.4552938,29760.939951302,2865937.3605501,14.366586658666,0,0
82.585046423781,-48.623317407698,9.1710171017102,3098557.4552938,29760.939951302,2865937.3605501,14.37101710171,0,0
82.585046794664,-48.640846997902,9.1754475447545,3098557.4552938,29760.939951302,2865937.3605501,14.375447544754,0,0
82.585047165547,-48.658376588106,9.1798779877988,3098557.4552938,29760.939951302,2865937.3605501,14.379877987799,0,0
82.58504753643,-48.67590617831,9.1843084308431,3098557.4552938,29760.939951302,2865937.3605501,14.384308430843,0,0
82.585047907313,-48.693435768515,9.1887388738874,3098557.4552938,29760.939951302,2865937.3605501,14.388738873887,0,0
82.585048278195,-48.710965358719,9.1931693169317,3098557.4552938,29760.939951302,2865937.3605501,14.393169316932,0,0
82.585048649078,-48.728494948923,9.197599759976,3098557.4552938,29760.939951302,2865937.3605501,14.397599759976,0,0
82.585049019961,-48.746024539127,9.2020302030203,3098557.4552938,29760.939951302,2865937.3605501,14.40203020302,0,0
82.585049390844,-48.763554129331,9.2064606460646,3098557.4552938,29760.939951302,2865937.3605501,14.406460646065,0,0
82.585049761727,-48.781083719536,9.2108910891089,3098557.4552938,29760.939951302,2865937.3605501,14.410891089109,0,0
82.585050132609,-48.79861330974,9.2153215321532,3098557.4552938,29760.939951302,2865937.3605501,14.415321532153,0,0
82.585050503492,-48.816142899944,9.2197519751975,3098557.4552938,29760.939951302,2865937.3605501,14.419751975198,0,0
82.585050874375,-48.833672490148,9.2241824182418,3098557.4552938,29760.939951302,2865937.3605501,14.424182418242,0,0
82.585051245258,-48.851202080352,9.2286128612861,3098557.4552938,29760.939951302,2865937.3605501,14.428612861286,0,0
82.585051616141,-48.868731670557,9.2330433043304,3098557.4552938,29760.939951302,2865937.3605501,14.43304330433,0,0
82.585051987023,-48.886261260761,9.2374737473747,3098557.4552938,29760.939951302,2865937.3605501,14.437473747375,0,0
82.585052357906,-48.903790850965,9.241904190419,3098557.4552938,29760.939951302,2865937.3605501,14.441904190419,0,0
82.585052728789,-48.921320441169,9.2463346334633,3098557.4552938,29760.939951302,2865937.3605501,14.446334633463,0,0
82.585053099672,-48.938850031373,9.2507650765077,3098557.4552938,29760.939951302,2865937.3605501,14.450765076508,0,0
82.585053470555,-48.956379621578,9.255195519552,3098557.4552938,29760.939951302,2865937.3605501,14.455195519552,0,0
82.585053841437,-48.973909211782,9.2596259625963,3098557.4552938,29760.939951302,2865937.3605501,14.459625962596,0,0
82.585054216762,-48.991438798963,9.2640564056406,3176617.6263113,34792.237311194,2864762.5383223,14.464056405641,0,0
82.585054593911,-49.008968384904,9.2684868486849,3176617.6263113,34792.237311194,2864762.5383223,14.468486848685,0,0
82.585054971061,-49.026497970844,9.2729172917292,3176617.6263113,34792.237311194,2864762.5383223,14.472917291729,0,0
82.58505534821,-49.044027556784,9.2773477347735,3176617.6263113,34792.237311194,2864762.5383223,14.477347734773,0,0
82.585055725359,-49.061557142724,9.2817781778178,3176617.6263113,34792.237311194,2864762.5383223,14.481778177818,0,0
82.585056102508,-49.079086728664,9.2862086208621,3176617.6263113,34792.237311194,2864762.5383223,14.486208620862,0,0
82.585056479657,-49.096616314605,9.2906390639064,3176617.6263113,34792.237311194,2864762.5383223,14.490639063906,0,0
82.585056856807,-49.114145900545,9.2950695069507,3176617.6263113,34792.237311194,2864762.5383223,14.495069506951,0,0
82.585057233956,-49.131675486485,9.299499949995,3176617.6263113,34792.237311194,2864762.5383223,14.499499949995,0,0
82.585057611105,-49.149205072425,9.3039303930393,3176617.6263113,34792.237311194,2864762.5383223,14.503930393039,0,0
82.585057988254,-49.166734658365,9.3083608360836,3176617.6263113,34792.237311194,2864762.5383223,14.508360836084,0,0
82.585058365403,-49.184264244306,9.3127912791279,3176617.6263113,34792.237311194,2864762.5383223,14.512791279128,0,0
82.585058742552,-49.201793830246,9.3172217221722,3176617.6263113,34792.237311194,2864762.5383223,14.517221722172,0,0
82.585059119702,-49.219323416186,9.3216521652165,3176617.6263113,34792.237311194,2864762.5383223,14.521652165217,0,0
82.585059497457,-49.236853004008,9.3260826082608,3180939.2432785,19625.482746051,2826166.5789807,14.526082608261,0,0
82.585059875979,-49.25438259421,9.3305130513051,3180939.2432785,19625.482746051,2826166.5789807,14.530513051305,0,0
82.585060254501,-49.271912184411,9.3349434943494,3180939.2432785,19625.482746051,2826166.5789807,14.534943494349,0,0
82.585060633023,-49.289441774612,9.3393739373937,3180939.2432785,19625.482746051,2826166.5789807,14.539373937394,0,0
82.585061011545,-49.306971364813,9.343804380438,3180939.2432785,19625.482746051,2826166.5789807,14.543804380438,0,0
82.585061390067,-49.324500955014,9.3482348234823,3180939.2432785,19625.482746051,2826166.5789807,14.548234823482,0,0
82.585061768589,-49.342030545215,9.3526652665267,3180939.2432785,19625.482746051,2826166.5789807,14.552665266527,0,0
82.585062147111,-49.359560135416,9.357095709571,3180939.2432785,19625.482746051,2826166.5789807,14.557095709571,0,0
82.585062525633,-49.377089725617,9.3615261526153,3180939.2432785,19625.482746051,2826166.5789807,14.561526152615,0,0
82.585062904155,-49.394619315818,9.3659565956596,3180939.2432785,19625.482746051,2826166.5789807,14.56595659566,0,0
82.585063282677,-49.41214890602,9.3703870387039,3180939.2432785,19625.482746051,2826166.5789807,14.570387038704,0,0
82.585063661199,-49.429678496221,9.3748174817482,3180939.2432785,19625.482746051,2826166.5789807,14.574817481748,0,0
82.585064039722,-49.447208086422,9.3792479247925,3180939.2432785,19625.482746051,2826166.5789807,14.579247924792,0,0
82.585064418244,-49.464737676623,9.3836783678368,3180939.2432785,19625.482746051,2826166.5789807,14.583678367837,0,0
82.585064796766,-49.482267266824,9.3881088108811,3180939.2432785,19625.482746051,2826166.5789807,14.588108810881,0,0
82.585065175288,-49.499796857025,9.3925392539254,3180939.2432785,19625.482746051,2826166.5789807,14.592539253925,0,0
82.58506555381,-49.517326447226,9.3969696969697,3180939.2432785,19625.482746051,2826166.5789807,14.59696969697,0,0
82.585065932332,-49.534856037427,9.401400140014,3180939.2432785,19625.482746051,2826166.5789807,14.601400140014,0,0
82.585066310854,-49.552385627628,9.4058305830583,3180939.2432785,19625.482746051,2826166.5789807,14.605830583058,0,0
82.585066689376,-49.569915217829,9.4102610261026,3180939.2432785,19625.482746051,2826166.5789807,14.610261026103,0,0
82.585067067898,-49.587444808031,9.4146914691469,3180939.2432785,19625.482746051,2826166.5789807,14.614691469147,0,0
82.58506744642,-49.604974398232,9.4191219121912,3180939.2432785,19625.482746051,2826166.5789807,14.619121912191,0,0
82.585067824942,-49.622503988433,9.4235523552355,3180939.2432785,19625.482746051,2826166.5789807,14.623552355236,0,0
82.585068203464,-49.640033578634,9.4279827982798,3180939.2432785,19625.482746051,2826166.5789807,14.62798279828,0,0
82.585068581986,-49.657563168835,9.4324132413241,3180939.2432785,19625.482746051,2826166.5789807,14.632413241324,0,0
82.585068960508,-49.675092759036,9.4368436843684,3180939.2432785,19625.482746051,2826166.5789807,14.636843684368,0,0
82.58506933903,-49.692622349237,9.4412741274127,3180939.2432785,19625.482746051,2826166.5789807,14.641274127413,0,0
82.585069717552,-49.710151939438,9.445704570457,3180939.2432785,19625.482746051,2826166.5789807,14.645704570457,0,0
82.585070096074,-49.727681529639,9.4501350135013,3180939.2432785,19625.482746051,2826166.5789807,14.650135013501,0,0
82.585070474596,-49.745211119841,9.4545654565457,3180939.2432785,19625.482746051,2826166.5789807,14.654565456546,0,0
82.585070853118,-49.762740710042,9.45899589959,3180939.2432785,19625.482746051,2826166.5789807,14.65899589959,0,0
82.58507123164,-49.780270300243,9.4634263426343,3180939.2432785,19625.482746051,2826166.5789807,14.663426342634,0,0
82.585071610162,-49.797799890444,9.4678567856786,3180939.2432785,19625.482746051,2826166.5789807,14.667856785679,0,0
82.585071988684,-49.815329480645,9.4722872287229,3180939.2432785,19625.482746051,2826166.5789807,14.672287228723,0,0
82.585072367206,-49.832859070846,9.4767176717672,3180939.2432785,19625.482746051,2826166.5789807,14.676717671767,0,0
82.585072745728,-49.850388661047,9.4811481148115,3180939.2432785,19625.482746051,2826166.5789807,14.681148114811,0,0
82.58507312425,-49.867918251248,9.4855785578558,3180939.2432785,19625.482746051,2826166.5789807,14.685578557856,0,0
82.585073502772,-49.885447841449,9.4900090009001,3180939.2432785,19625.482746051,2826166.5789807,14.6900090009,0,0
82.585073881294,-49.90297743165,9.4944394439444,3180939.2432785,19625.482746051,2826166.5789807,14.694439443944,0,0
82.585074259816,-49.920507021852,9.4988698869887,3180939.2432785,19625.482746051,2826166.5789807,14.698869886989,0,0
82.585074638338,-49.938036612053,9.503300330033,3180939.2432785,19625.482746051,2826166.5789807,14.703300330033,0,0
82.58507501686,-49.955566202254,9.5077307730773,3180939.2432785,19625.482746051,2826166.5789807,14.707730773077,0,0
82.585075395382,-49.973095792455,9.5121612161216,3180939.2432785,19625.482746051,2826166.5789807,14.712161216122,0,0
82.585075773904,-49.990625382656,9.5165916591659,3180939.2432785,19625.482746051,2826166.5789807,14.716591659166,0,0
82.585076152426,-50.008154972857,9.5210221022102,3180939.2432785,19625.482746051,2826166.5789807,14.72102210221,0,0
82.585076530948,-50.025684563058,9.5254525452545,3180939.2432785,19625.482746051,2826166.5789807,14.725452545255,0,0
82.58507690947,-50.043214153259,9.5298829882988,3180939.2432785,19625.482746051,2826166.5789807,14.729882988299,0,0
82.585077287992,-50.06074374346,9.5343134313431,3180939.2432785,19625.482746051,2826166.5789807,14.734313431343,0,0
82.585077666514,-50.078273333661,9.5387438743874,3180939.2432785,19625.482746051,2826166.5789807,14.738743874387,0,0
82.585078045036,-50.095802923863,9.5431743174317,3180939.2432785,19625.482746051,2826166.5789807,14.743174317432,0,0
82.585078423558,-50.113332514064,9.547604760476,3180939.2432785,19625.482746051,2826166.5789807,14.747604760476,0,0
82.58507880208,-50.130862104265,9.5520352035204,3180939.2432785,19625.482746051,2826166.5789807,14.75203520352,0,0
82.585079180602,-50.148391694466,9.5564656465647,3180939.2432785,19625.482746051,2826166.5789807,14.756465646565,0,0
82.585079559124,-50.165921284667,9.560896089609,3180939.2432785,19625.482746051,2826166.5789807,14.760896089609,0,0
82.585079937646,-50.183450874868,9.5653265326533,3180939.2432785,19625.482746051,2826166.5789807,14.765326532653,0,0
82.585080316168,-50.200980465069,9.5697569756976,3180939.2432785,19625.482746051,2826166.5789807,14.769756975698,0,0
82.58508069469,-50.21851005527,9.5741874187419,3180939.2432785,19625.482746051,2826166.5789807,14.774187418742,0,0
82.585081073212,-50.236039645471,9.5786178617862,3180939.2432785,19625.482746051,2826166.5789807,14.778617861786,0,0
82.585081451734,-50.253569235673,9.5830483048305,3180939.2432785,19625.482746051,2826166.5789807,14.78304830483,0,0
82.585081830256,-50.271098825874,9.5874787478748,3180939.2432785,19625.482746051,2826166.5789807,14.787478747875,0,0
82.585082208778,-50.288628416075,9.5919091909191,3180939.2432785,19625.482746051,2826166.5789807,14.791909190919,0,0
82.5850825873,-50.306158006276,9.5963396339634,3180939.2432785,19625.482746051,2826166.5789807,14.796339633963,0,0
82.585082965822,-50.323687596477,9.6007700770077,3180939.2432785,19625.482746051,2826166.5789807,14.800770077008,0,0
82.585083344344,-50.341217186678,9.605200520052,3180939.2432785,19625.482746051,2826166.5789807,14.805200520052,0,0
82.585083722866,-50.358746776879,9.6096309630963,3180939.2432785,19625.482746051,2826166.5789807,14.809630963096,0,0
82.585084101388,-50.37627636708,9.6140614061406,3180939.2432785,19625.482746051,2826166.5789807,14.814061406141,0,0
82.58508447991,-50.393805957281,9.6184918491849,3180939.2432785,19625.482746051,2826166.5789807,14.818491849185,0,0
82.585084858432,-50.411335547482,9.6229222922292,3180939.2432785,19625.482746051,2826166.5789807,14.822922292229,0,0
82.585085236954,-50.428865137684,9.6273527352735,3180939.2432785,19625.482746051,2826166.5789807,14.827352735274,0,0
82.585085615476,-50.446394727885,9.6317831783178,3180939.2432785,19625.482746051,2826166.5789807,14.831783178318,0,0
82.585085993998,-50.463924318086,9.6362136213621,3180939.2432785,19625.482746051,2826166.5789807,14.836213621362,0,0
82.58508637252,-50.481453908287,9.6406440644064,3180939.2432785,19625.482746051,2826166.5789807,14.840644064406,0,0
82.585086751042,-50.498983498488,9.6450745074507,3180939.2432785,19625.482746051,2826166.5789807,14.845074507451,0,0
82.585087129564,-50.516513088689,9.6495049504951,3180939.2432785,19625.482746051,2826166.5789807,14.849504950495,0,0
82.585087508086,-50.53404267889,9.6539353935394,3180939.2432785,19625.482746051,2826166.5789807,14.853935393539,0,0
82.585087886608,-50.551572269091,9.6583658365837,3180939.2432785,19625.482746051,2826166.5789807,14.858365836584,0,0
82.58508826513,-50.569101859292,9.662796279628,3180939.2432785,19625.482746051,2826166.5789807,14.862796279628,0,0
82.585088643652,-50.586631449494,9.6672267226723,3180939.2432785,19625.482746051,2826166.5789807,14.867226722672,0,0
82.585089022174,-50.604161039695,9.6716571657166,3180939.2432785,19625.482746051,2826166.5789807,14.871657165717,0,0
82.585089400696,-50.621690629896,9.6760876087609,3180939.2432785,19625.482746051,2826166.5789807,14.876087608761,0,0
82.585089779218,-50.639220220097,9.6805180518052,3180939.2432785,19625.482746051,2826166.5789807,14.880518051805,0,0
82.585090157741,-50.656749810298,9.6849484948495,3180939.2432785,19625.482746051,2826166.5789807,14.884948494849,0,0
82.585090536263,-50.674279400499,9.6893789378938,3180939.2432785,19625.482746051,2826166.5789807,14.889378937894,0,0
82.585090914785,-50.6918089907,9.6938093809381,3180939.2432785,19625.482746051,2826166.5789807,14.893809380938,0,0
82.585091293307,-50.709338580901,9.6982398239824,3180939.2432785,19625.482746051,2826166.5789807,14.898239823982,0,0
82.585091671829,-50.726868171102,9.7026702670267,3180939.2432785,19625.482746051,2826166.5789807,14.902670267027,0,0
82.585092050351,-50.744397761303,9.707100710071,3180939.2432785,19625.482746051,2826166.5789807,14.907100710071,0,0
82.585092428873,-50.761927351505,9.7115311531153,3180939.2432785,19625.482746051,2826166.5789807,14.911531153115,0,0
82.585092807395,-50.779456941706,9.7159615961596,3180939.2432785,19625.482746051,2826166.5789807,14.91596159616,0,0
82.585093185917,-50.796986531907,9.7203920392039,3180939.2432785,19625.482746051,2826166.5789807,14.920392039204,0,0
82.585093564439,-50.814516122108,9.7248224822482,3180939.2432785,19625.482746051,2826166.5789807,14.924822482248,0,0
82.585093942961,-50.832045712309,9.7292529252925,3180939.2432785,19625.482746051,2826166.5789807,14.929252925293,0,0
82.585094321483,-50.84957530251,9.7336833683368,3180939.2432785,19625.482746051,2826166.5789807,14.933683368337,0,0
82.585094700005,-50.867104892711,9.7381138113811,3180939.2432785,19625.482746051,2826166.5789807,14.938113811381,0,0
82.585095078527,-50.884634482912,9.7425442544254,3180939.2432785,19625.482746051,2826166.5789807,14.942544254425,0,0
82.585095457049,-50.902164073113,9.7469746974697,3180939.2432785,19625.482746051,2826166.5789807,14.94697469747,0,0
82.585095835571,-50.919693663315,9.7514051405141,3180939.2432785,19625.482746051,2826166.5789807,14.951405140514,0,0
82.585096214093,-50.937223253516,9.7558355835584,3180939.2432785,19625.482746051,2826166.5789807,14.955835583558,0,0
82.585096592615,-50.954752843717,9.7602660266027,3180939.2432785,19625.482746051,2826166.5789807,14.960266026603,0,0
82.585096971137,-50.972282433918,9.764696469647,3180939.2432785,19625.482746051,2826166.5789807,14.964696469647,0,0
82.585097349659,-50.989812024119,9.7691269126913,3180939.2432785,19625.482746051,2826166.5789807,14.969126912691,0,0
82.585097728181,-51.00734161432,9.7735573557356,3180939.2432785,19625.482746051,2826166.5789807,14.973557355736,0,0
82.585098106703,-51.024871204521,9.7779877987799,3180939.2432785,19625.482746051,2826166.5789807,14.97798779878,0,0
82.585098485225,-51.042400794722,9.7824182418242,3180939.2432785,19625.482746051,2826166.5789807,14.982418241824,0,0
82.585098863747,-51.059930384923,9.7868486848685,3180939.2432785,19625.482746051,2826166.5789807,14.986848684868,0,0
82.585099242269,-51.077459975124,9.7912791279128,3180939.2432785,19625.482746051,2826166.5789807,14.991279127913,0,0
82.585099620791,-51.094989565326,9.7957095709571,3180939.2432785,19625.482746051,2826166.5789807,14.995709570957,0,0
82.585099999313,-51.112519155527,9.8001400140014,3180939.2432785,19625.482746051,2826166.5789807,15.000140014001,0,0
82.585100377835,-51.130048745728,9.8045704570457,3180939.2432785,19625.482746051,2826166.5789807,15.004570457046,0,0
82.585100756357,-51.147578335929,9.80900090009,3180939.2432785,19625.482746051,2826166.5789807,15.00900090009,0,0
82.585101134879,-51.16510792613,9.8134313431343,3180939.2432785,19625.482746051,2826166.5789807,15.013431343134,0,0
82.585101513401,-51.182637516331,9.8178617861786,3180939.2432785,19625.482746051,2826166.5789807,15.017861786179,0,0
82.585101891923,-51.200167106532,9.8222922292229,3180939.2432785,19625.482746051,2826166.5789807,15.022292229223,0,0
82.585102270445,-51.217696696733,9.8267226722672,3180939.2432785,19625.482746051,2826166.5789807,15.026722672267,0,0
82.585102648967,-51.235226286934,9.8311531153115,3180939.2432785,19625.482746051,2826166.5789807,15.031153115312,0,0
82.585103027489,-51.252755877136,9.8355835583558,3180939.2432785,19625.482746051,2826166.5789807,15.035583558356,0,0
82.585103406011,-51.270285467337,9.8400140014001,3180939.2432785,19625.482746051,2826166.5789807,15.0400140014,0,0
82.585103784533,-51.287815057538,9.8444444444444,3180939.2432785,19625.482746051,2826166.5789807,15.044444444444,0,0
82.585104163055,-51.305344647739,9.8488748874887,3180939.2432785,19625.482746051,2826166.5789807,15.048874887489,0,0
82.585104541577,-51.32287423794,9.8533053305331,3180939.2432785,19625.482746051,2826166.5789807,15.053305330533,0,0
82.585104920099,-51.340403828141,9.8577357735774,3180939.2432785,19625.482746051,2826166.5789807,15.057735773577,0,0
82.585105298621,-51.357933418342,9.8621662166217,3180939.2432785,19625.482746051,2826166.5789807,15.062166216622,0,0
82.585105677143,-51.375463008543,9.866596659666,3180939.2432785,19625.482746051,2826166.5789807,15.066596659666,0,0
82.585106055665,-51.392992598744,9.8710271027103,3180939.2432785,19625.482746051,2826166.5789807,15.07102710271,0,0
82.585106434187,-51.410522188945,9.8754575457546,3180939.2432785,19625.482746051,2826166.5789807,15.075457545755,0,0
82.585106812709,-51.428051779147,9.8798879887989,3180939.2432785,19625.482746051,2826166.5789807,15.079887988799,0,0
82.585107191231,-51.445581369348,9.8843184318432,3180939.2432785,19625.482746051,2826166.5789807,15.084318431843,0,0
82.585107569753,-51.463110959549,9.8887488748875,3180939.2432785,19625.482746051,2826166.5789807,15.088748874887,0,0
82.585107948275,-51.48064054975,9.8931793179318,3180939.2432785,19625.482746051,2826166.5789807,15.093179317932,0,0
82.585108326797,-51.498170139951,9.8976097609761,3180939.2432785,19625.482746051,2826166.5789807,15.097609760976,0,0
82.585108705319,-51.515699730152,9.9020402040204,3180939.2432785,19625.482746051,2826166.5789807,15.10204020402,0,0
82.585109083841,-51.533229320353,9.9064706470647,3180939.2432785,19625.482746051,2826166.5789807,15.106470647065,0,0
82.585109462363,-51.550758910554,9.910901090109,3180939.2432785,19625.482746051,2826166.5789807,15.110901090109,0,0
82.585109840885,-51.568288500755,9.9153315331533,3180939.2432785,19625.482746051,2826166.5789807,15.115331533153,0,0
82.585110219407,-51.585818090957,9.9197619761976,3180939.2432785,19625.482746051,2826166.5789807,15.119761976198,0,0
82.585110597929,-51.603347681158,9.9241924192419,3180939.2432785,19625.482746051,2826166.5789807,15.124192419242,0,0
82.585110976451,-51.620877271359,9.9286228622862,3180939.2432785,19625.482746051,2826166.5789807,15.128622862286,0,0
82.585111354973,-51.63840686156,9.9330533053305,3180939.2432785,19625.482746051,2826166.5789807,15.133053305331,0,0
82.585111733495,-51.655936451761,9.9374837483748,3180939.2432785,19625.482746051,2826166.5789807,15.137483748375,0,0
82.585112112017,-51.673466041962,9.9419141914191,3180939.2432785,19625.482746051,2826166.5789807,15.141914191419,0,0
82.585112490539,-51.690995632163,9.9463446344634,3180939.2432785,19625.482746051,2826166.5789807,15.146344634463,0,0
82.585112869061,-51.708525222364,9.9507750775077,3180939.2432785,19625.482746051,2826166.5789807,15.150775077508,0,0
82.585113247583,-51.726054812565,9.9552055205521,3180939.2432785,19625.482746051,2826166.5789807,15.155205520552,0,0
82.585113626105,-51.743584402766,9.9596359635964,3180939.2432785,19625.482746051,2826166.5789807,15.159635963596,0,0
82.585114004627,-51.761113992968,9.9640664066407,3180939.2432785,19625.482746051,2826166.5789807,15.164066406641,0,0
82.585114383149,-51.778643583169,9.968496849685,3180939.2432785,19625.482746051,2826166.5789807,15.168496849685,0,0
82.585114761671,-51.79617317337,9.9729272927293,3180939.2432785,19625.482746051,2826166.5789807,15.172927292729,0,0
82.585115140193,-51.813702763571,9.9773577357736,3180939.2432785,19625.482746051,2826166.5789807,15.177357735774,0,0
82.585115518715,-51.831232353772,9.9817881788179,3180939.2432785,19625.482746051,2826166.5789807,15.181788178818,0,0
82.585115897237,-51.848761943973,9.9862186218622,3180939.2432785,19625.482746051,2826166.5789807,15.186218621862,0,0
82.58511627576,-51.866291534174,9.9906490649065,3180939.2432785,19625.482746051,2826166.5789807,15.190649064906,0,0
82.585116654282,-51.883821124375,9.9950795079508,3180939.2432785,19625.482746051,2826166.5789807,15.195079507951,0,0
82.585117032804,-51.901350714576,9.9995099509951,3180939.2432785,19625.482746051,2826166.5789807,15.199509950995,0,0
82.585117411326,-51.918880304777,10.003940394039,3180939.2432785,19625.482746051,2826166.5789807,15.203940394039,0,0
82.585117789848,-51.936409894979,10.008370837084,3180939.2432785,19625.482746051,2826166.5789807,15.208370837084,0,0
82.58511816837,-51.95393948518,10.012801280128,3180939.2432785,19625.482746051,2826166.5789807,15.212801280128,0,0
82.585118546892,-51.971469075381,10.017231723172,3180939.2432785,19625.482746051,2826166.5789807,15.217231723172,0,0
82.585118925414,-51.988998665582,10.021662166217,3180939.2432785,19625.482746051,2826166.5789807,15.221662166217,0,0
82.585119303936,-52.006528255783,10.026092609261,3180939.2432785,19625.482746051,2826166.5789807,15.226092609261,0,0
82.585119682458,-52.024057845984,10.030523052305,3180939.2432785,19625.482746051,2826166.5789807,15.230523052305,0,0
82.58512006098,-52.041587436185,10.03495349535,3180939.2432785,19625.482746051,2826166.5789807,15.23495349535,0,0
82.585120439502,-52.059117026386,10.039383938394,3180939.2432785,19625.482746051,2826166.5789807,15.239383938394,0,0
82.585120818024,-52.076646616587,10.043814381438,3180939.2432785,19625.482746051,2826166.5789807,15.243814381438,0,0
82.585121196546,-52.094176206789,10.048244824482,3180939.2432785,19625.482746051,2826166.5789807,15.248244824482,0,0
82.585121575068,-52.11170579699,10.052675267527,3180939.2432785,19625.482746051,2826166.5789807,15.252675267527,0,0
82.58512195359,-52.129235387191,10.057105710571,3180939.2432785,19625.482746051,2826166.5789807,15.257105710571,0,0
82.585122332112,-52.146764977392,10.061536153615,3180939.2432785,19625.482746051,2826166.5789807,15.261536153615,0,0
82.585122710634,-52.164294567593,10.06596659666,3180939.2432785,19625.482746051,2826166.5789807,15.26596659666,0,0
82.585123089156,-52.181824157794,10.070397039704,3180939.2432785,19625.482746051,2826166.5789807,15.270397039704,0,0
82.585123467678,-52.199353747995,10.074827482748,3180939.2432785,19625.482746051,2826166.5789807,15.274827482748,0,0
82.5851238462,-52.216883338196,10.079257925793,3180939.2432785,19625.482746051,2826166.5789807,15.279257925793,0,0
82.585124224722,-52.234412928397,10.083688368837,3180939.2432785,19625.482746051,2826166.5789807,15.283688368837,0,0
82.585124603244,-52.251942518598,10.088118811881,3180939.2432785,19625.482746051,2826166.5789807,15.288118811881,0,0
82.585124981766,-52.2694721088,10.092549254925,3180939.2432785,19625.482746051,2826166.5789807,15.292549254925,0,0
82.585125360288,-52.287001699001,10.09697969797,3180939.2432785,19625.482746051,2826166.5789807,15.29697969797,0,0
82.58512573881,-52.304531289202,10.101410141014,3180939.2432785,19625.482746051,2826166.5789807,15.301410141014,0,0
82.585126117332,-52.322060879403,10.105840584058,3180939.2432785,19625.482746051,2826166.5789807,15.305840584058,0,0
82.585126495854,-52.339590469604,10.110271027103,3180939.2432785,19625.482746051,2826166.5789807,15.310271027103,0,0
82.585126874376,-52.357120059805,10.114701470147,3180939.2432785,19625.482746051,2826166.5789807,15.314701470147,0,0
82.585127252898,-52.374649650006,10.119131913191,3180939.2432785,19625.482746051,2826166.5789807,15.319131913191,0,0
82.58512763142,-52.392179240207,10.123562356236,3180939.2432785,19625.482746051,2826166.5789807,15.323562356236,0,0
82.585128009942,-52.409708830408,10.12799279928,3180939.2432785,19625.482746051,2826166.5789807,15.32799279928,0,0
82.585128388464,-52.42723842061,10.132423242324,3180939.2432785,19625.482746051,2826166.5789807,15.332423242324,0,0
82.585128766986,-52.444768010811,10.136853685369,3180939.2432785,19625.482746051,2826166.5789807,15.336853685369,0,0
82.585129145508,-52.462297601012,10.141284128413,3180939.2432785,19625.482746051,2826166.5789807,15.341284128413,0,0
82.58512952403,-52.479827191213,10.145714571457,3180939.2432785,19625.482746051,2826166.5789807,15.345714571457,0,0
82.585129902552,-52.497356781414,10.150145014501,3180939.2432785,19625.482746051,2826166.5789807,15.350145014501,0,0
82.585130281074,-52.514886371615,10.154575457546,3180939.2432785,19625.482746051,2826166.5789807,15.354575457546,0,0
82.585130659596,-52.532415961816,10.15900590059,3180939.2432785,19625.482746051,2826166.5789807,15.35900590059,0,0
82.585131038118,-52.549945552017,10.163436343634,3180939.2432785,19625.482746051,2826166.5789807,15.363436343634,0,0
82.58513141664,-52.567475142218,10.167866786679,3180939.2432785,19625.482746051,2826166.5789807,15.367866786679,0,0
82.585131795162,-52.585004732419,10.172297229723,3180939.2432785,19625.482746051,2826166.5789807,15.372297229723,0,0
82.585132173684,-52.602534322621,10.176727672767,3180939.2432785,19625.482746051,2826166.5789807,15.376727672767,0,0
82.585132552206,-52.620063912822,10.181158115812,3180939.2432785,19625.482746051,2826166.5789807,15.381158115812,0,0
82.585132930728,-52.637593503023,10.185588558856,3180939.2432785,19625.482746051,2826166.5789807,15.385588558856,0,0
82.58513330925,-52.655123093224,10.1900190019,3180939.2432785,19625.482746051,2826166.5789807,15.3900190019,0,0
82.585133687772,-52.672652683425,10.194449444944,3180939.2432785,19625.482746051,2826166.5789807,15.394449444944,0,0
82.585134066294,-52.690182273626,10.198879887989,3180939.2432785,19625.482746051,2826166.5789807,15.398879887989,0,0
82.585134444816,-52.707711863827,10.203310331033,3180939.2432785,19625.482746051,2826166.5789807,15.403310331033,0,0
82.585134823338,-52.725241454028,10.207740774077,3180939.2432785,19625.482746051,2826166.5789807,15.407740774077,0,0
82.58513520186,-52.742771044229,10.212171217122,3180939.2432785,19625.482746051,2826166.5789807,15.412171217122,0,0
82.585135583035,-52.760300632524,10.216601660166,3240667.2318552,23718.882885078,2822431.0789051,15.416601660166,0,0
82.585135966427,-52.777830219225,10.22103210321,3240667.2318552,23718.882885078,2822431.0789051,15.42103210321,0,0
82.58513634982,-52.795359805926,10.225462546255,3240667.2318552,23718.882885078,2822431.0789051,15.425462546255,0,0
82.585136733212,-52.812889392628,10.229892989299,3240667.2318552,23718.882885078,2822431.0789051,15.429892989299,0,0
82.585137116604,-52.830418979329,10.234323432343,3240667.2318552,23718.882885078,2822431.0789051,15.434323432343,0,0
82.585137499996,-52.84794856603,10.238753875388,3240667.2318552,23718.882885078,2822431.0789051,15.438753875388,0,0
82.585137883389,-52.865478152731,10.243184318432,3240667.2318552,23718.882885078,2822431.0789051,15.443184318432,0,0
82.585138266781,-52.883007739432,10.247614761476,3240667.2318552,23718.882885078,2822431.0789051,15.447614761476,0,0
82.585138650173,-52.900537326133,10.25204520452,3240667.2318552,23718.882885078,2822431.0789051,15.45204520452,0,0
82.585139033566,-52.918066912834,10.256475647565,3240667.2318552,23718.882885078,2822431.0789051,15.456475647565,0,0
82.585139416958,-52.935596499535,10.260906090609,3240667.2318552,23718.882885078,2822431.0789051,15.460906090609,0,0
82.58513980035,-52.953126086236,10.265336533653,3240667.2318552,23718.882885078,2822431.0789051,15.465336533653,0,0
82.585140183742,-52.970655672938,10.269766976698,3240667.2318552,23718.882885078,2822431.0789051,15.469766976698,0,0
82.585140567135,-52.988185259639,10.274197419742,3240667.2318552,23718.882885078,2822431.0789051,15.474197419742,0,0
82.585140950527,-53.00571484634,10.278627862786,3240667.2318552,23718.882885078,2822431.0789051,15.478627862786,0,0
82.585141333919,-53.023244433041,10.283058305831,3240667.2318552,23718.882885078,2822431.0789051,15.483058305831,0,0
82.585141717312,-53.040774019742,10.287488748875,3240667.2318552,23718.882885078,2822431.0789051,15.487488748875,0,0
82.585142100704,-53.058303606443,10.291919191919,3240667.2318552,23718.882885078,2822431.0789051,15.491919191919,0,0
82.585142484096,-53.075833193144,10.296349634963,3240667.2318552,23718.882885078,2822431.0789051,15.496349634963,0,0
82.585142867489,-53.093362779845,10.300780078008,3240667.2318552,23718.882885078,2822431.0789051,15.500780078008,0,0
82.585143250881,-53.110892366547,10.305210521052,3240667.2318552,23718.882885078,2822431.0789051,15.505210521052,0,0
82.585143634273,-53.128421953248,10.309640964096,3240667.2318552,23718.882885078,2822431.0789051,15.509640964096,0,0
82.585144017665,-53.145951539949,10.314071407141,3240667.2318552,23718.882885078,2822431.0789051,15.514071407141,0,0
82.585144401058,-53.16348112665,10.318501850185,3240667.2318552,23718.882885078,2822431.0789051,15.518501850185,0,0
82.58514478445,-53.181010713351,10.322932293229,3240667.2318552,23718.882885078,2822431.0789051,15.522932293229,0,0
82.585145167842,-53.198540300052,10.327362736274,3240667.2318552,23718.882885078,2822431.0789051,15.527362736274,0,0
82.585145551235,-53.216069886753,10.331793179318,3240667.2318552,23718.882885078,2822431.0789051,15.531793179318,0,0
82.585145934627,-53.233599473454,10.336223622362,3240667.2318552,23718.882885078,2822431.0789051,15.536223622362,0,0
82.585146318019,-53.251129060156,10.340654065407,3240667.2318552,23718.882885078,2822431.0789051,15.540654065407,0,0
82.585146701411,-53.268658646857,10.345084508451,3240667.2318552,23718.882885078,2822431.0789051,15.545084508451,0,0
82.585147084804,-53.286188233558,10.349514951495,3240667.2318552,23718.882885078,2822431.0789051,15.549514951495,0,0
82.585147468196,-53.303717820259,10.353945394539,3240667.2318552,23718.882885078,2822431.0789051,15.553945394539,0,0
82.585147851588,-53.32124740696,10.358375837584,3240667.2318552,23718.882885078,2822431.0789051,15.558375837584,0,0
82.585148234981,-53.338776993661,10.362806280628,3240667.2318552,23718.882885078,2822431.0789051,15.562806280628,0,0
82.585148618373,-53.356306580362,10.367236723672,3240667.2318552,23718.882885078,2822431.0789051,15.567236723672,0,0
82.585149001765,-53.373836167063,10.371667166717,3240667.2318552,23718.882885078,2822431.0789051,15.571667166717,0,0
82.585149385157,-53.391365753764,10.376097609761,3240667.2318552,23718.882885078,2822431.0789051,15.576097609761,0,0
82.58514976855,-53.408895340466,10.380528052805,3240667.2318552,23718.882885078,2822431.0789051,15.580528052805,0,0
82.585150151942,-53.426424927167,10.38495849585,3240667.2318552,23718.882885078,2822431.0789051,15.58495849585,0,0
82.585150535334,-53.443954513868,10.389388938894,3240667.2318552,23718.882885078,2822431.0789051,15.589388938894,0,0
82.585150918727,-53.461484100569,10.393819381938,3240667.2318552,23718.882885078,2822431.0789051,15.593819381938,0,0
82.585151303044,-53.479013689205,10.398249824982,3254853.655053,10655.975170266,2788487.0289563,15.598249824982,0,0
82.585151688473,-53.496543280165,10.402680268027,3254853.655053,10655.975170266,2788487.0289563,15.602680268027,0,0
82.585152073902,-53.514072871126,10.407110711071,3254853.655053,10655.975170266,2788487.0289563,15.607110711071,0,0
82.585152459332,-53.531602462087,10.411541154115,3254853.655053,10655.975170266,2788487.0289563,15.611541154115,0,0
82.585152844761,-53.549132053047,10.41597159716,3254853.655053,10655.975170266,2788487.0289563,15.61597159716,0,0
82.58515323019,-53.566661644008,10.420402040204,3254853.655053,10655.975170266,2788487.0289563,15.620402040204,0,0
82.585153615619,-53.584191234969,10.424832483248,3254853.655053,10655.975170266,2788487.0289563,15.624832483248,0,0
82.585154001049,-53.60172082593,10.429262926293,3254853.655053,10655.975170266,2788487.0289563,15.629262926293,0,0
82.585154386478,-53.61925041689,10.433693369337,3254853.655053,10655.975170266,2788487.0289563,15.633693369337,0,0
82.585154771907,-53.636780007851,10.438123812381,3254853.655053,10655.975170266,2788487.0289563,15.638123812381,0,0
82.585155157336,-53.654309598812,10.442554255426,3254853.655053,10655.975170266,2788487.0289563,15.642554255426,0,0
82.585155542765,-53.671839189772,10.44698469847,3254853.655053,10655.975170266,2788487.0289563,15.64698469847,0,0
82.585155928195,-53.689368780733,10.451415141514,3254853.655053,10655.975170266,2788487.0289563,15.651415141514,0,0
82.585156313624,-53.706898371694,10.455845584558,3254853.655053,10655.975170266,2788487.0289563,15.655845584558,0,0
82.585156699053,-53.724427962655,10.460276027603,3254853.655053,10655.975170266,2788487.0289563,15.660276027603,0,0
82.585157084482,-53.741957553615,10.464706470647,3254853.655053,10655.975170266,2788487.0289563,15.664706470647,0,0
82.585157469911,-53.759487144576,10.469136913691,3254853.655053,10655.975170266,2788487.0289563,15.669136913691,0,0
82.585157855341,-53.777016735537,10.473567356736,3254853.655053,10655.975170266,2788487.0289563,15.673567356736,0,0
82.58515824077,-53.794546326497,10.47799779978,3254853.655053,10655.975170266,2788487.0289563,15.67799779978,0,0
82.585158626199,-53.812075917458,10.482428242824,3254853.655053,10655.975170266,2788487.0289563,15.682428242824,0,0
82.585159011628,-53.829605508419,10.486858685869,3254853.655053,10655.975170266,2788487.0289563,15.686858685869,0,0
82.585159397058,-53.847135099379,10.491289128913,3254853.655053,10655.975170266,2788487.0289563,15.691289128913,0,0
82.585159782487,-53.86466469034,10.495719571957,3254853.655053,10655.975170266,2788487.0289563,15.695719571957,0,0
82.585160167916,-53.882194281301,10.500150015001,3254853.655053,10655.975170266,2788487.0289563,15.700150015001,0,0
82.585160553345,-53.899723872262,10.504580458046,3254853.655053,10655.975170266,2788487.0289563,15.704580458046,0,0
82.585160938774,-53.917253463222,10.50901090109,3254853.655053,10655.975170266,2788487.0289563,15.70901090109,0,0
82.585161324204,-53.934783054183,10.513441344134,3254853.655053,10655.975170266,2788487.0289563,15.713441344134,0,0
82.585161709633,-53.952312645144,10.517871787179,3254853.655053,10655.975170266,2788487.0289563,15.717871787179,0,0
82.585162095062,-53.969842236104,10.522302230223,3254853.655053,10655.975170266,2788487.0289563,15.722302230223,0,0
82.585162480491,-53.987371827065,10.526732673267,3254853.655053,10655.975170266,2788487.0289563,15.726732673267,0,0
82.58516286592,-54.004901418026,10.531163116312,3254853.655053,10655.975170266,2788487.0289563,15.731163116312,0,0
82.58516325135,-54.022431008987,10.535593559356,3254853.655053,10655.975170266,2788487.0289563,15.735593559356,0,0
82.585163636779,-54.039960599947,10.5400240024,3254853.655053,10655.975170266,2788487.0289563,15.7400240024,0,0
82.585164022208,-54.057490190908,10.544454445445,3254853.655053,10655.975170266,2788487.0289563,15.744454445445,0,0
82.585164407637,-54.075019781869,10.548884888489,3254853.655053,10655.975170266,2788487.0289563,15.748884888489,0,0
82.585164793066,-54.092549372829,10.553315331533,3254853.655053,10655.975170266,2788487.0289563,15.753315331533,0,0
82.585165178496,-54.11007896379,10.557745774577,3254853.655053,10655.975170266,2788487.0289563,15.757745774577,0,0
82.585165563925,-54.127608554751,10.562176217622,3254853.655053,10655.975170266,2788487.0289563,15.762176217622,0,0
82.585165949354,-54.145138145712,10.566606660666,3254853.655053,10655.975170266,2788487.0289563,15.766606660666,0,0
82.585166334783,-54.162667736672,10.57103710371,3254853.655053,10655.975170266,2788487.0289563,15.77103710371,0,0
82.585166720213,-54.180197327633,10.575467546755,3254853.655053,10655.975170266,2788487.0289563,15.775467546755,0,0
82.585167105642,-54.197726918594,10.579897989799,3254853.655053,10655.975170266,2788487.0289563,15.779897989799,0,0
82.585167491071,-54.215256509554,10.584328432843,3254853.655053,10655.975170266,2788487.0289563,15.784328432843,0,0
82.5851678765,-54.232786100515,10.588758875888,3254853.655053,10655.975170266,2788487.0289563,15.788758875888,0,0
82.585168261929,-54.250315691476,10.593189318932,3254853.655053,10655.975170266,2788487.0289563,15.793189318932,0,0
82.585168647359,-54.267845282436,10.597619761976,3254853.655053,10655.975170266,2788487.0289563,15.797619761976,0,0
82.585169032788,-54.285374873397,10.602050205021,3254853.655053,10655.975170266,2788487.0289563,15.80205020502,0,0
82.585169418217,-54.302904464358,10.606480648065,3254853.655053,10655.975170266,2788487.0289563,15.806480648065,0,0
82.585169803646,-54.320434055319,10.610911091109,3254853.655053,10655.975170266,2788487.0289563,15.810911091109,0,0
82.585170189075,-54.337963646279,10.615341534153,3254853.655053,10655.975170266,2788487.0289563,15.815341534153,0,0
82.585170574505,-54.35549323724,10.619771977198,3254853.655053,10655.975170266,2788487.0289563,15.819771977198,0,0
82.585170959934,-54.373022828201,10.624202420242,3254853.655053,10655.975170266,2788487.0289563,15.824202420242,0,0
82.585171345363,-54.390552419161,10.628632863286,3254853.655053,10655.975170266,2788487.0289563,15.828632863286,0,0
82.585171730792,-54.408082010122,10.633063306331,3254853.655053,10655.975170266,2788487.0289563,15.833063306331,0,0
82.585172116222,-54.425611601083,10.637493749375,3254853.655053,10655.975170266,2788487.0289563,15.837493749375,0,0
82.585172501651,-54.443141192044,10.641924192419,3254853.655053,10655.975170266,2788487.0289563,15.841924192419,0,0
82.58517288708,-54.460670783004,10.646354635464,3254853.655053,10655.975170266,2788487.0289563,15.846354635464,0,0
82.585173272509,-54.478200373965,10.650785078508,3254853.655053,10655.975170266,2788487.0289563,15.850785078508,0,0
82.585173657938,-54.495729964926,10.655215521552,3254853.655053,10655.975170266,2788487.0289563,15.855215521552,0,0
82.585174043368,-54.513259555886,10.659645964596,3254853.655053,10655.975170266,2788487.0289563,15.859645964596,0,0
82.585174428797,-54.530789146847,10.664076407641,3254853.655053,10655.975170266,2788487.0289563,15.864076407641,0,0
82.585174814226,-54.548318737808,10.668506850685,3254853.655053,10655.975170266,2788487.0289563,15.868506850685,0,0
82.585175199655,-54.565848328769,10.672937293729,3254853.655053,10655.975170266,2788487.0289563,15.872937293729,0,0
82.585175585084,-54.583377919729,10.677367736774,3254853.655053,10655.975170266,2788487.0289563,15.877367736774,0,0
82.585175970514,-54.60090751069,10.681798179818,3254853.655053,10655.975170266,2788487.0289563,15.881798179818,0,0
82.585176355943,-54.618437101651,10.686228622862,3254853.655053,10655.975170266,2788487.0289563,15.886228622862,0,0
82.585176741372,-54.635966692611,10.690659065907,3254853.655053,10655.975170266,2788487.0289563,15.890659065907,0,0
82.585177126801,-54.653496283572,10.695089508951,3254853.655053,10655.975170266,2788487.0289563,15.895089508951,0,0
82.585177512231,-54.671025874533,10.699519951995,3254853.655053,10655.975170266,2788487.0289563,15.899519951995,0,0
82.58517789766,-54.688555465493,10.70395039504,3254853.655053,10655.975170266,2788487.0289563,15.90395039504,0,0
82.585178283089,-54.706085056454,10.708380838084,3254853.655053,10655.975170266,2788487.0289563,15.908380838084,0,0
82.585178668518,-54.723614647415,10.712811281128,3254853.655053,10655.975170266,2788487.0289563,15.912811281128,0,0
82.585179053947,-54.741144238376,10.717241724172,3254853.655053,10655.975170266,2788487.0289563,15.917241724172,0,0
82.585179439377,-54.758673829336,10.721672167217,3254853.655053,10655.975170266,2788487.0289563,15.921672167217,0,0
82.585179824806,-54.776203420297,10.726102610261,3254853.655053,10655.975170266,2788487.0289563,15.926102610261,0,0
82.585180210235,-54.793733011258,10.730533053305,3254853.655053,10655.975170266,2788487.0289563,15.930533053305,0,0
82.585180595664,-54.811262602218,10.73496349635,3254853.655053,10655.975170266,2788487.0289563,15.93496349635,0,0
82.585180981093,-54.828792193179,10.739393939394,3254853.655053,10655.975170266,2788487.0289563,15.939393939394,0,0
82.585181366523,-54.84632178414,10.743824382438,3254853.655053,10655.975170266,2788487.0289563,15.943824382438,0,0
82.585181751952,-54.863851375101,10.748254825483,3254853.655053,10655.975170266,2788487.0289563,15.948254825483,0,0
82.585182137381,-54.881380966061,10.752685268527,3254853.655053,10655.975170266,2788487.0289563,15.952685268527,0,0
82.58518252281,-54.898910557022,10.757115711571,3254853.655053,10655.975170266,2788487.0289563,15.957115711571,0,0
82.58518290824,-54.916440147983,10.761546154615,3254853.655053,10655.975170266,2788487.0289563,15.961546154615,0,0
82.585183293669,-54.933969738943,10.76597659766,3254853.655053,10655.975170266,2788487.0289563,15.96597659766,0,0
82.585183679098,-54.951499329904,10.770407040704,3254853.655053,10655.975170266,2788487.0289563,15.970407040704,0,0
82.585184064527,-54.969028920865,10.774837483748,3254853.655053,10655.975170266,2788487.0289563,15.974837483748,0,0
82.585184449956,-54.986558511825,10.779267926793,3254853.655053,10655.975170266,2788487.0289563,15.979267926793,0,0
82.585184835386,-55.004088102786,10.783698369837,3254853.655053,10655.975170266,2788487.0289563,15.983698369837,0,0
82.585185220815,-55.021617693747,10.788128812881,3254853.655053,10655.975170266,2788487.0289563,15.988128812881,0,0
82.585185606244,-55.039147284708,10.792559255926,3254853.655053,10655.975170266,2788487.0289563,15.992559255926,0,0
82.585185991673,-55.056676875668,10.79698969897,3254853.655053,10655.975170266,2788487.0289563,15.99698969897,0,0
82.585186377102,-55.074206466629,10.801420142014,3254853.655053,10655.975170266,2788487.0289563,16.001420142014,0,0
82.585186762532,-55.09173605759,10.805850585059,3254853.655053,10655.975170266,2788487.0289563,16.005850585059,0,0
82.585187147961,-55.10926564855,10.810281028103,3254853.655053,10655.975170266,2788487.0289563,16.010281028103,0,0
82.58518753339,-55.126795239511,10.814711471147,3254853.655053,10655.975170266,2788487.0289563,16.014711471147,0,0
82.585187918819,-55.144324830472,10.819141914191,3254853.655053,10655.975170266,2788487.0289563,16.019141914191,0,0
82.585188304249,-55.161854421433,10.823572357236,3254853.655053,10655.975170266,2788487.0289563,16.023572357236,0,0
82.585188689678,-55.179384012393,10.82800280028,3254853.655053,10655.975170266,2788487.0289563,16.02800280028,0,0
82.585189075107,-55.196913603354,10.832433243324,3254853.655053,10655.975170266,2788487.0289563,16.032433243324,0,0
82.585189460536,-55.214443194315,10.836863686369,3254853.655053,10655.975170266,2788487.0289563,16.036863686369,0,0
82.585189845965,-55.231972785275,10.841294129413,3254853.655053,10655.975170266,2788487.0289563,16.041294129413,0,0
82.585190231395,-55.249502376236,10.845724572457,3254853.655053,10655.975170266,2788487.0289563,16.045724572457,0,0
82.585190616824,-55.267031967197,10.850155015502,3254853.655053,10655.975170266,2788487.0289563,16.050155015502,0,0
82.585191002253,-55.284561558158,10.854585458546,3254853.655053,10655.975170266,2788487.0289563,16.054585458546,0,0
82.585191387682,-55.302091149118,10.85901590159,3254853.655053,10655.975170266,2788487.0289563,16.05901590159,0,0
82.585191773111,-55.319620740079,10.863446344634,3254853.655053,10655.975170266,2788487.0289563,16.063446344634,0,0
82.585192158541,-55.33715033104,10.867876787679,3254853.655053,10655.975170266,2788487.0289563,16.067876787679,0,0
82.58519254397,-55.354679922,10.872307230723,3254853.655053,10655.975170266,2788487.0289563,16.072307230723,0,0
82.585192929399,-55.372209512961,10.876737673767,3254853.655053,10655.975170266,2788487.0289563,16.076737673767,0,0
82.585193314828,-55.389739103922,10.881168116812,3254853.655053,10655.975170266,2788487.0289563,16.081168116812,0,0
82.585193700258,-55.407268694882,10.885598559856,3254853.655053,10655.975170266,2788487.0289563,16.085598559856,0,0
82.585194085687,-55.424798285843,10.8900290029,3254853.655053,10655.975170266,2788487.0289563,16.0900290029,0,0
82.585194471116,-55.442327876804,10.894459445945,3254853.655053,10655.975170266,2788487.0289563,16.094459445945,0,0
82.585194856545,-55.459857467765,10.898889888989,3254853.655053,10655.975170266,2788487.0289563,16.098889888989,0,0
82.585195241974,-55.477387058725,10.903320332033,3254853.655053,10655.975170266,2788487.0289563,16.103320332033,0,0
82.585195627404,-55.494916649686,10.907750775078,3254853.655053,10655.975170266,2788487.0289563,16.107750775078,0,0
82.585196012833,-55.512446240647,10.912181218122,3254853.655053,10655.975170266,2788487.0289563,16.112181218122,0,0
82.585196398262,-55.529975831607,10.916611661166,3254853.655053,10655.975170266,2788487.0289563,16.116611661166,0,0
82.585196783691,-55.547505422568,10.92104210421,3254853.655053,10655.975170266,2788487.0289563,16.12104210421,0,0
82.58519716912,-55.565035013529,10.925472547255,3254853.655053,10655.975170266,2788487.0289563,16.125472547255,0,0
82.58519755455,-55.58256460449,10.929902990299,3254853.655053,10655.975170266,2788487.0289563,16.129902990299,0,0
82.585197939979,-55.60009419545,10.934333433343,3254853.655053,10655.975170266,2788487.0289563,16.134333433343,0,0
82.585198325408,-55.617623786411,10.938763876388,3254853.655053,10655.975170266,2788487.0289563,16.138763876388,0,0
82.585198710837,-55.635153377372,10.943194319432,3254853.655053,10655.975170266,2788487.0289563,16.143194319432,0,0
82.585199096266,-55.652682968332,10.947624762476,3254853.655053,10655.975170266,2788487.0289563,16.147624762476,0,0
82.585199481696,-55.670212559293,10.952055205521,3254853.655053,10655.975170266,2788487.0289563,16.152055205521,0,0
82.585199867125,-55.687742150254,10.956485648565,3254853.655053,10655.975170266,2788487.0289563,16.156485648565,0,0
82.585200252554,-55.705271741215,10.960916091609,3254853.655053,10655.975170266,2788487.0289563,16.160916091609,0,0
82.585200637983,-55.722801332175,10.965346534653,3254853.655053,10655.975170266,2788487.0289563,16.165346534653,0,0
82.585201023413,-55.740330923136,10.969776977698,3254853.655053,10655.975170266,2788487.0289563,16.169776977698,0,0
82.585201408842,-55.757860514097,10.974207420742,3254853.655053,10655.975170266,2788487.0289563,16.174207420742,0,0
82.585201794271,-55.775390105057,10.978637863786,3254853.655053,10655.975170266,2788487.0289563,16.178637863786,0,0
82.5852021797,-55.792919696018,10.983068306831,3254853.655053,10655.975170266,2788487.0289563,16.183068306831,0,0
82.585202565129,-55.810449286979,10.987498749875,3254853.655053,10655.975170266,2788487.0289563,16.187498749875,0,0
82.585202950559,-55.827978877939,10.991929192919,3254853.655053,10655.975170266,2788487.0289563,16.191929192919,0,0
82.585203335988,-55.8455084689,10.996359635964,3254853.655053,10655.975170266,2788487.0289563,16.196359635964,0,0
82.585203721417,-55.863038059861,11.000790079008,3254853.655053,10655.975170266,2788487.0289563,16.200790079008,0,0
82.585204106846,-55.880567650822,11.005220522052,3254853.655053,10655.975170266,2788487.0289563,16.205220522052,0,0
82.585204492275,-55.898097241782,11.009650965097,3254853.655053,10655.975170266,2788487.0289563,16.209650965097,0,0
82.585204877705,-55.915626832743,11.014081408141,3254853.655053,10655.975170266,2788487.0289563,16.214081408141,0,0
82.585205263134,-55.933156423704,11.018511851185,3254853.655053,10655.975170266,2788487.0289563,16.218511851185,0,0
82.585205648563,-55.950686014664,11.022942294229,3254853.655053,10655.975170266,2788487.0289563,16.222942294229,0,0
82.585206033992,-55.968215605625,11.027372737274,3254853.655053,10655.975170266,2788487.0289563,16.227372737274,0,0
82.585206419422,-55.985745196586,11.031803180318,3254853.655053,10655.975170266,2788487.0289563,16.231803180318,0,0
82.585206804851,-56.003274787547,11.036233623362,3254853.655053,10655.975170266,2788487.0289563,16.236233623362,0,0
82.58520719028,-56.020804378507,11.040664066407,3254853.655053,10655.975170266,2788487.0289563,16.240664066407,0,0
82.585207575709,-56.038333969468,11.045094509451,3254853.655053,10655.975170266,2788487.0289563,16.245094509451,0,0
82.585207961138,-56.055863560429,11.049524952495,3254853.655053,10655.975170266,2788487.0289563,16.249524952495,0,0
82.585208346568,-56.073393151389,11.05395539554,3254853.655053,10655.975170266,2788487.0289563,16.25395539554,0,0
82.585208731997,-56.09092274235,11.058385838584,3254853.655053,10655.975170266,2788487.0289563,16.258385838584,0,0
82.585209117426,-56.108452333311,11.062816281628,3254853.655053,10655.975170266,2788487.0289563,16.262816281628,0,0
82.585209502855,-56.125981924272,11.067246724672,3254853.655053,10655.975170266,2788487.0289563,16.267246724672,0,0
82.585209888284,-56.143511515232,11.071677167717,3254853.655053,10655.975170266,2788487.0289563,16.271677167717,0,0
82.585210273714,-56.161041106193,11.076107610761,3254853.655053,10655.975170266,2788487.0289563,16.276107610761,0,0
82.585210659143,-56.178570697154,11.080538053805,3254853.655053,10655.975170266,2788487.0289563,16.280538053805,0,0
82.585211044572,-56.196100288114,11.08496849685,3254853.655053,10655.975170266,2788487.0289563,16.28496849685,0,0
82.585211430001,-56.213629879075,11.089398939894,3254853.655053,10655.975170266,2788487.0289563,16.289398939894,0,0
82.585211815431,-56.231159470036,11.093829382938,3254853.655053,10655.975170266,2788487.0289563,16.293829382938,0,0
82.58521220086,-56.248689060996,11.098259825983,3254853.655053,10655.975170266,2788487.0289563,16.298259825983,0,0
82.585212586289,-56.266218651957,11.102690269027,3254853.655053,10655.975170266,2788487.0289563,16.302690269027,0,0
82.585212971718,-56.283748242918,11.107120712071,3254853.655053,10655.975170266,2788487.0289563,16.307120712071,0,0
82.585213357147,-56.301277833879,11.111551155116,3254853.655053,10655.975170266,2788487.0289563,16.311551155116,0,0
82.585213742577,-56.318807424839,11.11598159816,3254853.655053,10655.975170266,2788487.0289563,16.31598159816,0,0
82.585214128006,-56.3363370158,11.120412041204,3254853.655053,10655.975170266,2788487.0289563,16.320412041204,0,0
82.585214513435,-56.353866606761,11.124842484248,3254853.655053,10655.975170266,2788487.0289563,16.324842484248,0,0
82.585214898864,-56.371396197721,11.129272927293,3254853.655053,10655.975170266,2788487.0289563,16.329272927293,0,0
82.585215284293,-56.388925788682,11.133703370337,3254853.655053,10655.975170266,2788487.0289563,16.333703370337,0,0
82.585215669723,-56.406455379643,11.138133813381,3254853.655053,10655.975170266,2788487.0289563,16.338133813381,0,0
82.585216055152,-56.423984970604,11.142564256426,3254853.655053,10655.975170266,2788487.0289563,16.342564256426,0,0
82.585216440581,-56.441514561564,11.14699469947,3254853.655053,10655.975170266,2788487.0289563,16.34699469947,0,0
82.58521682601,-56.459044152525,11.151425142514,3254853.655053,10655.975170266,2788487.0289563,16.351425142514,0,0
82.585217211439,-56.476573743486,11.155855585559,3254853.655053,10655.975170266,2788487.0289563,16.355855585559,0,0
82.585217596869,-56.494103334446,11.160286028603,3254853.655053,10655.975170266,2788487.0289563,16.360286028603,0,0
82.585217982298,-56.511632925407,11.164716471647,3254853.655053,10655.975170266,2788487.0289563,16.364716471647,0,0
82.585218367727,-56.529162516368,11.169146914691,3254853.655053,10655.975170266,2788487.0289563,16.369146914691,0,0
82.585218753156,-56.546692107328,11.173577357736,3254853.655053,10655.975170266,2788487.0289563,16.373577357736,0,0
82.585219138586,-56.564221698289,11.17800780078,3254853.655053,10655.975170266,2788487.0289563,16.37800780078,0,0
82.585219524015,-56.58175128925,11.182438243824,3254853.655053,10655.975170266,2788487.0289563,16.382438243824,0,0
82.585219909444,-56.599280880211,11.186868686869,3254853.655053,10655.975170266,2788487.0289563,16.386868686869,0,0
82.585220294873,-56.616810471171,11.191299129913,3254853.655053,10655.975170266,2788487.0289563,16.391299129913,0,0
82.585220680302,-56.634340062132,11.195729572957,3254853.655053,10655.975170266,2788487.0289563,16.395729572957,0,0
82.585221065732,-56.651869653093,11.200160016002,3254853.655053,10655.975170266,2788487.0289563,16.400160016002,0,0
82.585221451161,-56.669399244053,11.204590459046,3254853.655053,10655.975170266,2788487.0289563,16.404590459046,0,0
82.58522183659,-56.686928835014,11.20902090209,3254853.655053,10655.975170266,2788487.0289563,16.40902090209,0,0
82.585222222019,-56.704458425975,11.213451345135,3254853.655053,10655.975170266,2788487.0289563,16.413451345135,0,0
82.585222607448,-56.721988016936,11.217881788179,3254853.655053,10655.975170266,2788487.0289563,16.417881788179,0,0
82.585222992878,-56.739517607896,11.222312231223,3254853.655053,10655.975170266,2788487.0289563,16.422312231223,0,0
82.585223379565,-56.757047197889,11.226742674267,3306058.513956,15416.343335346,2784145.6191959,16.426742674267,0,0
82.585223769199,-56.774576785614,11.231173117312,3306058.513956,15416.343335346,2784145.6191959,16.431173117312,0,0
82.585224158834,-56.792106373338,11.235603560356,3306058.513956,15416.343335346,2784145.6191959,16.435603560356,0,0
82.585224548469,-56.809635961062,11.2400340034,3306058.513956,15416.343335346,2784145.6191959,16.4400340034,0,0
82.585224938104,-56.827165548787,11.244464446445,3306058.513956,15416.343335346,2784145.6191959,16.444464446445,0,0
82.585225327739,-56.844695136511,11.248894889489,3306058.513956,15416.343335346,2784145.6191959,16.448894889489,0,0
82.585225717374,-56.862224724236,11.253325332533,3306058.513956,15416.343335346,2784145.6191959,16.453325332533,0,0
82.585226107008,-56.87975431196,11.257755775578,3306058.513956,15416.343335346,2784145.6191959,16.457755775578,0,0
82.585226496643,-56.897283899685,11.262186218622,3306058.513956,15416.343335346,2784145.6191959,16.462186218622,0,0
82.585226886278,-56.914813487409,11.266616661666,3306058.513956,15416.343335346,2784145.6191959,16.466616661666,0,0
82.585227275913,-56.932343075133,11.27104710471,3306058.513956,15416.343335346,2784145.6191959,16.47104710471,0,0
82.585227665548,-56.949872662858,11.275477547755,3306058.513956,15416.343335346,2784145.6191959,16.475477547755,0,0
82.585228055183,-56.967402250582,11.279907990799,3306058.513956,15416.343335346,2784145.6191959,16.479907990799,0,0
82.585228444817,-56.984931838307,11.284338433843,3306058.513956,15416.343335346,2784145.6191959,16.484338433843,0,0
82.585228834452,-57.002461426031,11.288768876888,3306058.513956,15416.343335346,2784145.6191959,16.488768876888,0,0
82.585229224087,-57.019991013755,11.293199319932,3306058.513956,15416.343335346,2784145.6191959,16.493199319932,0,0
82.585229613722,-57.03752060148,11.297629762976,3306058.513956,15416.343335346,2784145.6191959,16.497629762976,0,0
82.585230003357,-57.055050189204,11.302060206021,3306058.513956,15416.343335346,2784145.6191959,16.502060206021,0,0
82.585230392992,-57.072579776929,11.306490649065,3306058.513956,15416.343335346,2784145.6191959,16.506490649065,0,0
82.585230782626,-57.090109364653,11.310921092109,3306058.513956,15416.343335346,2784145.6191959,16.510921092109,0,0
82.585231172261,-57.107638952377,11.315351535154,3306058.513956,15416.343335346,2784145.6191959,16.515351535154,0,0
82.585231561896,-57.125168540102,11.319781978198,3306058.513956,15416.343335346,2784145.6191959,16.519781978198,0,0
82.585231951531,-57.142698127826,11.324212421242,3306058.513956,15416.343335346,2784145.6191959,16.524212421242,0,0
82.585232341166,-57.160227715551,11.328642864286,3306058.513956,15416.343335346,2784145.6191959,16.528642864286,0,0
82.5852327308,-57.177757303275,11.333073307331,3306058.513956,15416.343335346,2784145.6191959,16.533073307331,0,0
82.585233120435,-57.195286891,11.337503750375,3306058.513956,15416.343335346,2784145.6191959,16.537503750375,0,0
82.58523351007,-57.212816478724,11.341934193419,3306058.513956,15416.343335346,2784145.6191959,16.541934193419,0,0
82.585233899705,-57.230346066448,11.346364636464,3306058.513956,15416.343335346,2784145.6191959,16.546364636464,0,0
82.58523428934,-57.247875654173,11.350795079508,3306058.513956,15416.343335346,2784145.6191959,16.550795079508,0,0
82.585234678975,-57.265405241897,11.355225522552,3306058.513956,15416.343335346,2784145.6191959,16.555225522552,0,0
82.585235068609,-57.282934829622,11.359655965597,3306058.513956,15416.343335346,2784145.6191959,16.559655965597,0,0
82.585235458244,-57.300464417346,11.364086408641,3306058.513956,15416.343335346,2784145.6191959,16.564086408641,0,0
82.585235847879,-57.31799400507,11.368516851685,3306058.513956,15416.343335346,2784145.6191959,16.568516851685,0,0
82.585236237514,-57.335523592795,11.372947294729,3306058.513956,15416.343335346,2784145.6191959,16.572947294729,0,0
82.585236627149,-57.353053180519,11.377377737774,3306058.513956,15416.343335346,2784145.6191959,16.577377737774,0,0
82.585237016784,-57.370582768244,11.381808180818,3306058.513956,15416.343335346,2784145.6191959,16.581808180818,0,0
82.585237406418,-57.388112355968,11.386238623862,3306058.513956,15416.343335346,2784145.6191959,16.586238623862,0,0
82.585237796053,-57.405641943693,11.390669066907,3306058.513956,15416.343335346,2784145.6191959,16.590669066907,0,0
82.585238185688,-57.423171531417,11.395099509951,3306058.513956,15416.343335346,2784145.6191959,16.595099509951,0,0
82.585238575323,-57.440701119141,11.399529952995,3306058.513956,15416.343335346,2784145.6191959,16.599529952995,0,0
82.585238964958,-57.458230706866,11.40396039604,3306058.513956,15416.343335346,2784145.6191959,16.60396039604,0,0
82.585239354593,-57.47576029459,11.408390839084,3306058.513956,15416.343335346,2784145.6191959,16.608390839084,0,0
82.585239744227,-57.493289882315,11.412821282128,3306058.513956,15416.343335346,2784145.6191959,16.612821282128,0,0
82.585240133862,-57.510819470039,11.417251725173,3306058.513956,15416.343335346,2784145.6191959,16.617251725173,0,0
82.585240523497,-57.528349057763,11.421682168217,3306058.513956,15416.343335346,2784145.6191959,16.621682168217,0,0
82.585240913132,-57.545878645488,11.426112611261,3306058.513956,15416.343335346,2784145.6191959,16.626112611261,0,0
82.585241302767,-57.563408233212,11.430543054305,3306058.513956,15416.343335346,2784145.6191959,16.630543054305,0,0
82.585241692402,-57.580937820937,11.43497349735,3306058.513956,15416.343335346,2784145.6191959,16.63497349735,0,0
82.585242082036,-57.598467408661,11.439403940394,3306058.513956,15416.343335346,2784145.6191959,16.639403940394,0,0
82.585242471671,-57.615996996386,11.443834383438,3306058.513956,15416.343335346,2784145.6191959,16.643834383438,0,0
82.585242861306,-57.63352658411,11.448264826483,3306058.513956,15416.343335346,2784145.6191959,16.648264826483,0,0
82.585243250941,-57.651056171834,11.452695269527,3306058.513956,15416.343335346,2784145.6191959,16.652695269527,0,0
82.585243640576,-57.668585759559,11.457125712571,3306058.513956,15416.343335346,2784145.6191959,16.657125712571,0,0
82.585244030211,-57.686115347283,11.461556155616,3306058.513956,15416.343335346,2784145.6191959,16.661556155616,0,0
82.585244419845,-57.703644935008,11.46598659866,3306058.513956,15416.343335346,2784145.6191959,16.66598659866,0,0
82.58524480948,-57.721174522732,11.470417041704,3306058.513956,15416.343335346,2784145.6191959,16.670417041704,0,0
82.585245199115,-57.738704110456,11.474847484748,3306058.513956,15416.343335346,2784145.6191959,16.674847484748,0,0
82.58524558875,-57.756233698181,11.479277927793,3306058.513956,15416.343335346,2784145.6191959,16.679277927793,0,0
82.585245978385,-57.773763285905,11.483708370837,3306058.513956,15416.343335346,2784145.6191959,16.683708370837,0,0
82.58524636802,-57.79129287363,11.488138813881,3306058.513956,15416.343335346,2784145.6191959,16.688138813881,0,0
82.585246757654,-57.808822461354,11.492569256926,3306058.513956,15416.343335346,2784145.6191959,16.692569256926,0,0
82.585247147289,-57.826352049078,11.49699969997,3306058.513956,15416.343335346,2784145.6191959,16.69699969997,0,0
82.585247536924,-57.843881636803,11.501430143014,3306058.513956,15416.343335346,2784145.6191959,16.701430143014,0,0
82.585247926559,-57.861411224527,11.505860586059,3306058.513956,15416.343335346,2784145.6191959,16.705860586059,0,0
82.585248316194,-57.878940812252,11.510291029103,3306058.513956,15416.343335346,2784145.6191959,16.710291029103,0,0
82.585248705829,-57.896470399976,11.514721472147,3306058.513956,15416.343335346,2784145.6191959,16.714721472147,0,0
82.585249095463,-57.913999987701,11.519151915192,3306058.513956,15416.343335346,2784145.6191959,16.719151915192,0,0
82.585249485098,-57.931529575425,11.523582358236,3306058.513956,15416.343335346,2784145.6191959,16.723582358236,0,0
82.585249874733,-57.949059163149,11.52801280128,3306058.513956,15416.343335346,2784145.6191959,16.72801280128,0,0
82.585250264567,-57.966588751223,11.532443244324,3324688.9918837,4366.3619112521,2759571.8009843,16.732443244324,0,0
82.585250656344,-57.984118342704,11.536873687369,3324688.9918837,4366.3619112521,2759571.8009843,16.736873687369,0,0
82.585251048122,-58.001647934184,11.541304130413,3324688.9918837,4366.3619112521,2759571.8009843,16.741304130413,0,0
82.585251439899,-58.019177525665,11.545734573457,3324688.9918837,4366.3619112521,2759571.8009843,16.745734573457,0,0
82.585251831676,-58.036707117145,11.550165016502,3324688.9918837,4366.3619112521,2759571.8009843,16.750165016502,0,0
82.585252223453,-58.054236708626,11.554595459546,3324688.9918837,4366.3619112521,2759571.8009843,16.754595459546,0,0
82.585252615231,-58.071766300107,11.55902590259,3324688.9918837,4366.3619112521,2759571.8009843,16.75902590259,0,0
82.585253007008,-58.089295891587,11.563456345635,3324688.9918837,4366.3619112521,2759571.8009843,16.763456345635,0,0
82.585253398785,-58.106825483068,11.567886788679,3324688.9918837,4366.3619112521,2759571.8009843,16.767886788679,0,0
82.585253790562,-58.124355074548,11.572317231723,3324688.9918837,4366.3619112521,2759571.8009843,16.772317231723,0,0
82.58525418234,-58.141884666029,11.576747674767,3324688.9918837,4366.3619112521,2759571.8009843,16.776747674767,0,0
82.585254574117,-58.159414257509,11.581178117812,3324688.9918837,4366.3619112521,2759571.8009843,16.781178117812,0,0
82.585254965894,-58.17694384899,11.585608560856,3324688.9918837,4366.3619112521,2759571.8009843,16.785608560856,0,0
82.585255357671,-58.19447344047,11.5900390039,3324688.9918837,4366.3619112521,2759571.8009843,16.7900390039,0,0
82.585255749449,-58.212003031951,11.594469446945,3324688.9918837,4366.3619112521,2759571.8009843,16.794469446945,0,0
82.585256141226,-58.229532623432,11.598899889989,3324688.9918837,4366.3619112521,2759571.8009843,16.798899889989,0,0
82.585256533003,-58.247062214912,11.603330333033,3324688.9918837,4366.3619112521,2759571.8009843,16.803330333033,0,0
82.58525692478,-58.264591806393,11.607760776078,3324688.9918837,4366.3619112521,2759571.8009843,16.807760776078,0,0
82.585257316558,-58.282121397873,11.612191219122,3324688.9918837,4366.3619112521,2759571.8009843,16.812191219122,0,0
82.585257708335,-58.299650989354,11.616621662166,3324688.9918837,4366.3619112521,2759571.8009843,16.816621662166,0,0
82.585258100112,-58.317180580834,11.621052105211,3324688.9918837,4366.3619112521,2759571.8009843,16.821052105211,0,0
82.585258491889,-58.334710172315,11.625482548255,3324688.9918837,4366.3619112521,2759571.8009843,16.825482548255,0,0
82.585258883666,-58.352239763796,11.629912991299,3324688.9918837,4366.3619112521,2759571.8009843,16.829912991299,0,0
82.585259275444,-58.369769355276,11.634343434343,3324688.9918837,4366.3619112521,2759571.8009843,16.834343434343,0,0
82.585259667221,-58.387298946757,11.638773877388,3324688.9918837,4366.3619112521,2759571.8009843,16.838773877388,0,0
82.585260058998,-58.404828538237,11.643204320432,3324688.9918837,4366.3619112521,2759571.8009843,16.843204320432,0,0
82.585260450775,-58.422358129718,11.647634763476,3324688.9918837,4366.3619112521,2759571.8009843,16.847634763476,0,0
82.585260842553,-58.439887721198,11.652065206521,3324688.9918837,4366.3619112521,2759571.8009843,16.852065206521,0,0
82.58526123433,-58.457417312679,11.656495649565,3324688.9918837,4366.3619112521,2759571.8009843,16.856495649565,0,0
82.585261626107,-58.47494690416,11.660926092609,3324688.9918837,4366.3619112521,2759571.8009843,16.860926092609,0,0
82.585262017884,-58.49247649564,11.665356535654,3324688.9918837,4366.3619112521,2759571.8009843,16.865356535654,0,0
82.585262409662,-58.510006087121,11.669786978698,3324688.9918837,4366.3619112521,2759571.8009843,16.869786978698,0,0
82.585262801439,-58.527535678601,11.674217421742,3324688.9918837,4366.3619112521,2759571.8009843,16.874217421742,0,0
82.585263193216,-58.545065270082,11.678647864786,3324688.9918837,4366.3619112521,2759571.8009843,16.878647864786,0,0
82.585263584993,-58.562594861562,11.683078307831,3324688.9918837,4366.3619112521,2759571.8009843,16.883078307831,0,0
82.585263976771,-58.580124453043,11.687508750875,3324688.9918837,4366.3619112521,2759571.8009843,16.887508750875,0,0
82.585264368548,-58.597654044524,11.691939193919,3324688.9918837,4366.3619112521,2759571.8009843,16.891939193919,0,0
82.585264760325,-58.615183636004,11.696369636964,3324688.9918837,4366.3619112521,2759571.8009843,16.896369636964,0,0
82.585265152102,-58.632713227485,11.700800080008,3324688.9918837,4366.3619112521,2759571.8009843,16.900800080008,0,0
82.58526554388,-58.650242818965,11.705230523052,3324688.9918837,4366.3619112521,2759571.8009843,16.905230523052,0,0
82.585265935657,-58.667772410446,11.709660966097,3324688.9918837,4366.3619112521,2759571.8009843,16.909660966097,0,0
82.585266327434,-58.685302001926,11.714091409141,3324688.9918837,4366.3619112521,2759571.8009843,16.914091409141,0,0
82.585266719211,-58.702831593407,11.718521852185,3324688.9918837,4366.3619112521,2759571.8009843,16.918521852185,0,0
82.585267110988,-58.720361184888,11.72295229523,3324688.9918837,4366.3619112521,2759571.8009843,16.92295229523,0,0
82.585267502766,-58.737890776368,11.727382738274,3324688.9918837,4366.3619112521,2759571.8009843,16.927382738274,0,0
82.585267894543,-58.755420367849,11.731813181318,3324688.9918837,4366.3619112521,2759571.8009843,16.931813181318,0,0
82.58526828632,-58.772949959329,11.736243624362,3324688.9918837,4366.3619112521,2759571.8009843,16.936243624362,0,0
82.585268678097,-58.79047955081,11.740674067407,3324688.9918837,4366.3619112521,2759571.8009843,16.940674067407,0,0
82.585269069875,-58.80800914229,11.745104510451,3324688.9918837,4366.3619112521,2759571.8009843,16.945104510451,0,0
82.585269461652,-58.825538733771,11.749534953495,3324688.9918837,4366.3619112521,2759571.8009843,16.949534953495,0,0
82.585269853429,-58.843068325252,11.75396539654,3324688.9918837,4366.3619112521,2759571.8009843,16.95396539654,0,0
82.585270245206,-58.860597916732,11.758395839584,3324688.9918837,4366.3619112521,2759571.8009843,16.958395839584,0,0
82.585270636984,-58.878127508213,11.762826282628,3324688.9918837,4366.3619112521,2759571.8009843,16.962826282628,0,0
82.585271028761,-58.895657099693,11.767256725673,3324688.9918837,4366.3619112521,2759571.8009843,16.967256725673,0,0
82.585271420538,-58.913186691174,11.771687168717,3324688.9918837,4366.3619112521,2759571.8009843,16.971687168717,0,0
82.585271812315,-58.930716282654,11.776117611761,3324688.9918837,4366.3619112521,2759571.8009843,16.976117611761,0,0
82.585272204093,-58.948245874135,11.780548054805,3324688.9918837,4366.3619112521,2759571.8009843,16.980548054805,0,0
82.58527259587,-58.965775465616,11.78497849785,3324688.9918837,4366.3619112521,2759571.8009843,16.98497849785,0,0
82.585272987647,-58.983305057096,11.789408940894,3324688.9918837,4366.3619112521,2759571.8009843,16.989408940894,0,0
82.585273379424,-59.000834648577,11.793839383938,3324688.9918837,4366.3619112521,2759571.8009843,16.993839383938,0,0
82.585273771202,-59.018364240057,11.798269826983,3324688.9918837,4366.3619112521,2759571.8009843,16.998269826983,0,0
82.585274162979,-59.035893831538,11.802700270027,3324688.9918837,4366.3619112521,2759571.8009843,17.002700270027,0,0
82.585274554756,-59.053423423018,11.807130713071,3324688.9918837,4366.3619112521,2759571.8009843,17.007130713071,0,0
82.585274946533,-59.070953014499,11.811561156116,3324688.9918837,4366.3619112521,2759571.8009843,17.011561156116,0,0
82.585275338311,-59.08848260598,11.81599159916,3324688.9918837,4366.3619112521,2759571.8009843,17.01599159916,0,0
82.585275730088,-59.10601219746,11.820422042204,3324688.9918837,4366.3619112521,2759571.8009843,17.020422042204,0,0
82.585276121865,-59.123541788941,11.824852485249,3324688.9918837,4366.3619112521,2759571.8009843,17.024852485249,0,0
82.585276513642,-59.141071380421,11.829282928293,3324688.9918837,4366.3619112521,2759571.8009843,17.029282928293,0,0
82.58527690542,-59.158600971902,11.833713371337,3324688.9918837,4366.3619112521,2759571.8009843,17.033713371337,0,0
82.585277297197,-59.176130563382,11.838143814381,3324688.9918837,4366.3619112521,2759571.8009843,17.038143814381,0,0
82.585277688974,-59.193660154863,11.842574257426,3324688.9918837,4366.3619112521,2759571.8009843,17.042574257426,0,0
82.585278080751,-59.211189746343,11.84700470047,3324688.9918837,4366.3619112521,2759571.8009843,17.04700470047,0,0
82.585278472528,-59.228719337824,11.851435143514,3324688.9918837,4366.3619112521,2759571.8009843,17.051435143514,0,0
82.585278864306,-59.246248929305,11.855865586559,3324688.9918837,4366.3619112521,2759571.8009843,17.055865586559,0,0
82.585279256083,-59.263778520785,11.860296029603,3324688.9918837,4366.3619112521,2759571.8009843,17.060296029603,0,0
82.58527964786,-59.281308112266,11.864726472647,3324688.9918837,4366.3619112521,2759571.8009843,17.064726472647,0,0
82.585280039637,-59.298837703746,11.869156915692,3324688.9918837,4366.3619112521,2759571.8009843,17.069156915692,0,0
82.585280431415,-59.316367295227,11.873587358736,3324688.9918837,4366.3619112521,2759571.8009843,17.073587358736,0,0
82.585280823192,-59.333896886707,11.87801780178,3324688.9918837,4366.3619112521,2759571.8009843,17.07801780178,0,0
82.585281214969,-59.351426478188,11.882448244824,3324688.9918837,4366.3619112521,2759571.8009843,17.082448244824,0,0
82.585281606746,-59.368956069669,11.886878687869,3324688.9918837,4366.3619112521,2759571.8009843,17.086878687869,0,0
82.585281998524,-59.386485661149,11.891309130913,3324688.9918837,4366.3619112521,2759571.8009843,17.091309130913,0,0
82.585282390301,-59.40401525263,11.895739573957,3324688.9918837,4366.3619112521,2759571.8009843,17.095739573957,0,0
82.585282782078,-59.42154484411,11.900170017002,3324688.9918837,4366.3619112521,2759571.8009843,17.100170017002,0,0
82.585283173855,-59.439074435591,11.904600460046,3324688.9918837,4366.3619112521,2759571.8009843,17.104600460046,0,0
82.585283565633,-59.456604027071,11.90903090309,3324688.9918837,4366.3619112521,2759571.8009843,17.10903090309,0,0
82.58528395741,-59.474133618552,11.913461346135,3324688.9918837,4366.3619112521,2759571.8009843,17.113461346135,0,0
82.585284349187,-59.491663210033,11.917891789179,3324688.9918837,4366.3619112521,2759571.8009843,17.117891789179,0,0
82.585284740964,-59.509192801513,11.922322232223,3324688.9918837,4366.3619112521,2759571.8009843,17.122322232223,0,0
82.585285132742,-59.526722392994,11.926752675268,3324688.9918837,4366.3619112521,2759571.8009843,17.126752675268,0,0
82.585285524519,-59.544251984474,11.931183118312,3324688.9918837,4366.3619112521,2759571.8009843,17.131183118312,0,0
82.585285916296,-59.561781575955,11.935613561356,3324688.9918837,4366.3619112521,2759571.8009843,17.135613561356,0,0
82.585286308073,-59.579311167435,11.9400440044,3324688.9918837,4366.3619112521,2759571.8009843,17.1400440044,0,0
82.585286699851,-59.596840758916,11.944474447445,3324688.9918837,4366.3619112521,2759571.8009843,17.144474447445,0,0
82.585287091628,-59.614370350397,11.948904890489,3324688.9918837,4366.3619112521,2759571.8009843,17.148904890489,0,0
82.585287483405,-59.631899941877,11.953335333533,3324688.9918837,4366.3619112521,2759571.8009843,17.153335333533,0,0
82.585287875182,-59.649429533358,11.957765776578,3324688.9918837,4366.3619112521,2759571.8009843,17.157765776578,0,0
82.585288266959,-59.666959124838,11.962196219622,3324688.9918837,4366.3619112521,2759571.8009843,17.162196219622,0,0
82.585288658737,-59.684488716319,11.966626662666,3324688.9918837,4366.3619112521,2759571.8009843,17.166626662666,0,0
82.585289050514,-59.702018307799,11.971057105711,3324688.9918837,4366.3619112521,2759571.8009843,17.171057105711,0,0
82.585289442291,-59.71954789928,11.975487548755,3324688.9918837,4366.3619112521,2759571.8009843,17.175487548755,0,0
82.585289834068,-59.737077490761,11.979917991799,3324688.9918837,4366.3619112521,2759571.8009843,17.179917991799,0,0
82.585290225846,-59.754607082241,11.984348434843,3324688.9918837,4366.3619112521,2759571.8009843,17.184348434843,0,0
82.585290617623,-59.772136673722,11.988778877888,3324688.9918837,4366.3619112521,2759571.8009843,17.188778877888,0,0
82.5852910094,-59.789666265202,11.993209320932,3324688.9918837,4366.3619112521,2759571.8009843,17.193209320932,0,0
82.585291401177,-59.807195856683,11.997639763976,3324688.9918837,4366.3619112521,2759571.8009843,17.197639763976,0,0
82.585291792955,-59.824725448163,12.002070207021,3324688.9918837,4366.3619112521,2759571.8009843,17.202070207021,0,0
82.585292184732,-59.842255039644,12.006500650065,3324688.9918837,4366.3619112521,2759571.8009843,17.206500650065,0,0
82.585292576509,-59.859784631125,12.010931093109,3324688.9918837,4366.3619112521,2759571.8009843,17.210931093109,0,0
82.585292968286,-59.877314222605,12.015361536154,3324688.9918837,4366.3619112521,2759571.8009843,17.215361536154,0,0
82.585293360064,-59.894843814086,12.019791979198,3324688.9918837,4366.3619112521,2759571.8009843,17.219791979198,0,0
82.585293751841,-59.912373405566,12.024222422242,3324688.9918837,4366.3619112521,2759571.8009843,17.224222422242,0,0
82.585294143618,-59.929902997047,12.028652865287,3324688.9918837,4366.3619112521,2759571.8009843,17.228652865287,0,0
82.585294535395,-59.947432588527,12.033083308331,3324688.9918837,4366.3619112521,2759571.8009843,17.233083308331,0,0
82.585294927173,-59.964962180008,12.037513751375,3324688.9918837,4366.3619112521,2759571.8009843,17.237513751375,0,0
82.58529531895,-59.982491771489,12.041944194419,3324688.9918837,4366.3619112521,2759571.8009843,17.241944194419,0,0
82.585295710727,-60.000021362969,12.046374637464,3324688.9918837,4366.3619112521,2759571.8009843,17.246374637464,0,0
82.585296102504,-60.01755095445,12.050805080508,3324688.9918837,4366.3619112521,2759571.8009843,17.250805080508,0,0
82.585296494282,-60.03508054593,12.055235523552,3324688.9918837,4366.3619112521,2759571.8009843,17.255235523552,0,0
82.585296886059,-60.052610137411,12.059665966597,3324688.9918837,4366.3619112521,2759571.8009843,17.259665966597,0,0
82.585297277836,-60.070139728891,12.064096409641,3324688.9918837,4366.3619112521,2759571.8009843,17.264096409641,0,0
82.585297669613,-60.087669320372,12.068526852685,3324688.9918837,4366.3619112521,2759571.8009843,17.268526852685,0,0
82.585298061391,-60.105198911853,12.07295729573,3324688.9918837,4366.3619112521,2759571.8009843,17.27295729573,0,0
82.585298453168,-60.122728503333,12.077387738774,3324688.9918837,4366.3619112521,2759571.8009843,17.277387738774,0,0
82.585298844945,-60.140258094814,12.081818181818,3324688.9918837,4366.3619112521,2759571.8009843,17.281818181818,0,0
82.585299236722,-60.157787686294,12.086248624862,3324688.9918837,4366.3619112521,2759571.8009843,17.286248624862,0,0
82.585299628499,-60.175317277775,12.090679067907,3324688.9918837,4366.3619112521,2759571.8009843,17.290679067907,0,0
82.585300020277,-60.192846869255,12.095109510951,3324688.9918837,4366.3619112521,2759571.8009843,17.295109510951,0,0
82.585300412054,-60.210376460736,12.099539953995,3324688.9918837,4366.3619112521,2759571.8009843,17.299539953995,0,0
82.585300803831,-60.227906052217,12.10397039704,3324688.9918837,4366.3619112521,2759571.8009843,17.30397039704,0,0
82.585301195608,-60.245435643697,12.108400840084,3324688.9918837,4366.3619112521,2759571.8009843,17.308400840084,0,0
82.585301587386,-60.262965235178,12.112831283128,3324688.9918837,4366.3619112521,2759571.8009843,17.312831283128,0,0
82.585301979163,-60.280494826658,12.117261726173,3324688.9918837,4366.3619112521,2759571.8009843,17.317261726173,0,0
82.58530237094,-60.298024418139,12.121692169217,3324688.9918837,4366.3619112521,2759571.8009843,17.321692169217,0,0
82.585302762717,-60.315554009619,12.126122612261,3324688.9918837,4366.3619112521,2759571.8009843,17.326122612261,0,0
82.585303154495,-60.3330836011,12.130553055306,3324688.9918837,4366.3619112521,2759571.8009843,17.330553055306,0,0
82.585303546272,-60.35061319258,12.13498349835,3324688.9918837,4366.3619112521,2759571.8009843,17.33498349835,0,0
82.585303938049,-60.368142784061,12.139413941394,3324688.9918837,4366.3619112521,2759571.8009843,17.339413941394,0,0
82.585304329826,-60.385672375542,12.143844384438,3324688.9918837,4366.3619112521,2759571.8009843,17.343844384438,0,0
82.585304721604,-60.403201967022,12.148274827483,3324688.9918837,4366.3619112521,2759571.8009843,17.348274827483,0,0
82.585305113381,-60.420731558503,12.152705270527,3324688.9918837,4366.3619112521,2759571.8009843,17.352705270527,0,0
82.585305505158,-60.438261149983,12.157135713571,3324688.9918837,4366.3619112521,2759571.8009843,17.357135713571,0,0
82.585305896935,-60.455790741464,12.161566156616,3324688.9918837,4366.3619112521,2759571.8009843,17.361566156616,0,0
82.585306288713,-60.473320332944,12.16599659966,3324688.9918837,4366.3619112521,2759571.8009843,17.36599659966,0,0
82.58530668049,-60.490849924425,12.170427042704,3324688.9918837,4366.3619112521,2759571.8009843,17.370427042704,0,0
82.585307072267,-60.508379515906,12.174857485749,3324688.9918837,4366.3619112521,2759571.8009843,17.374857485749,0,0
82.585307464044,-60.525909107386,12.179287928793,3324688.9918837,4366.3619112521,2759571.8009843,17.379287928793,0,0
82.585307855822,-60.543438698867,12.183718371837,3324688.9918837,4366.3619112521,2759571.8009843,17.383718371837,0,0
82.585308247599,-60.560968290347,12.188148814881,3324688.9918837,4366.3619112521,2759571.8009843,17.388148814881,0,0
82.585308639376,-60.578497881828,12.192579257926,3324688.9918837,4366.3619112521,2759571.8009843,17.392579257926,0,0
82.585309031153,-60.596027473308,12.19700970097,3324688.9918837,4366.3619112521,2759571.8009843,17.39700970097,0,0
82.58530942293,-60.613557064789,12.201440144014,3324688.9918837,4366.3619112521,2759571.8009843,17.401440144014,0,0
82.585309814708,-60.63108665627,12.205870587059,3324688.9918837,4366.3619112521,2759571.8009843,17.405870587059,0,0
82.585310206485,-60.64861624775,12.210301030103,3324688.9918837,4366.3619112521,2759571.8009843,17.410301030103,0,0
82.585310598262,-60.666145839231,12.214731473147,3324688.9918837,4366.3619112521,2759571.8009843,17.414731473147,0,0
82.585310990039,-60.683675430711,12.219161916192,3324688.9918837,4366.3619112521,2759571.8009843,17.419161916192,0,0
82.585311381817,-60.701205022192,12.223592359236,3324688.9918837,4366.3619112521,2759571.8009843,17.423592359236,0,0
82.585311773594,-60.718734613672,12.22802280228,3324688.9918837,4366.3619112521,2759571.8009843,17.42802280228,0,0
82.585312165371,-60.736264205153,12.232453245325,3324688.9918837,4366.3619112521,2759571.8009843,17.432453245325,0,0
82.585312557148,-60.753793796634,12.236883688369,3324688.9918837,4366.3619112521,2759571.8009843,17.436883688369,0,0
82.585312948926,-60.771323388114,12.241314131413,3324688.9918837,4366.3619112521,2759571.8009843,17.441314131413,0,0
82.585313340703,-60.788852979595,12.245744574457,3324688.9918837,4366.3619112521,2759571.8009843,17.445744574457,0,0
82.58531373248,-60.806382571075,12.250175017502,3324688.9918837,4366.3619112521,2759571.8009843,17.450175017502,0,0
82.585314124257,-60.823912162556,12.254605460546,3324688.9918837,4366.3619112521,2759571.8009843,17.454605460546,0,0
82.585314516035,-60.841441754036,12.25903590359,3324688.9918837,4366.3619112521,2759571.8009843,17.45903590359,0,0
82.585314907812,-60.858971345517,12.263466346635,3324688.9918837,4366.3619112521,2759571.8009843,17.463466346635,0,0
82.585315299589,-60.876500936998,12.267896789679,3324688.9918837,4366.3619112521,2759571.8009843,17.467896789679,0,0
82.585315691366,-60.894030528478,12.272327232723,3324688.9918837,4366.3619112521,2759571.8009843,17.472327232723,0,0
82.585316083144,-60.911560119959,12.276757675768,3324688.9918837,4366.3619112521,2759571.8009843,17.476757675768,0,0
82.585316474921,-60.929089711439,12.281188118812,3324688.9918837,4366.3619112521,2759571.8009843,17.481188118812,0,0
82.585316866698,-60.94661930292,12.285618561856,3324688.9918837,4366.3619112521,2759571.8009843,17.485618561856,0,0
82.585317258475,-60.9641488944,12.2900490049,3324688.9918837,4366.3619112521,2759571.8009843,17.4900490049,0,0
82.585317650253,-60.981678485881,12.294479447945,3324688.9918837,4366.3619112521,2759571.8009843,17.494479447945,0,0
82.58531804203,-60.999208077362,12.298909890989,3324688.9918837,4366.3619112521,2759571.8009843,17.498909890989,0,0
82.585318433807,-61.016737668842,12.303340334033,3324688.9918837,4366.3619112521,2759571.8009843,17.503340334033,0,0
82.585318825584,-61.034267260323,12.307770777078,3324688.9918837,4366.3619112521,2759571.8009843,17.507770777078,0,0
82.585319217361,-61.051796851803,12.312201220122,3324688.9918837,4366.3619112521,2759571.8009843,17.512201220122,0,0
82.585319609139,-61.069326443284,12.316631663166,3324688.9918837,4366.3619112521,2759571.8009843,17.516631663166,0,0
82.58532000208,-61.086856033698,12.321062106211,3371994.9147576,12410.597473718,2753604.4814519,17.521062106211,0,0
82.585320397795,-61.10438562157,12.325492549255,3371994.9147576,12410.597473718,2753604.4814519,17.525492549255,0,0
82.585320793509,-61.121915209443,12.329922992299,3371994.9147576,12410.597473718,2753604.4814519,17.529922992299,0,0
82.585321189224,-61.139444797315,12.334353435344,3371994.9147576,12410.597473718,2753604.4814519,17.534353435344,0,0
82.585321584939,-61.156974385188,12.338783878388,3371994.9147576,12410.597473718,2753604.4814519,17.538783878388,0,0
82.585321980654,-61.17450397306,12.343214321432,3371994.9147576,12410.597473718,2753604.4814519,17.543214321432,0,0
82.585322376368,-61.192033560933,12.347644764476,3371994.9147576,12410.597473718,2753604.4814519,17.547644764476,0,0
82.585322772083,-61.209563148805,12.352075207521,3371994.9147576,12410.597473718,2753604.4814519,17.552075207521,0,0
82.585323167798,-61.227092736677,12.356505650565,3371994.9147576,12410.597473718,2753604.4814519,17.556505650565,0,0
82.585323563512,-61.24462232455,12.360936093609,3371994.9147576,12410.597473718,2753604.4814519,17.560936093609,0,0
82.585323959227,-61.262151912422,12.365366536654,3371994.9147576,12410.597473718,2753604.4814519,17.565366536654,0,0
82.585324354942,-61.279681500295,12.369796979698,3371994.9147576,12410.597473718,2753604.4814519,17.569796979698,0,0
82.585324750657,-61.297211088167,12.374227422742,3371994.9147576,12410.597473718,2753604.4814519,17.574227422742,0,0
82.585325146371,-61.31474067604,12.378657865787,3371994.9147576,12410.597473718,2753604.4814519,17.578657865787,0,0
82.585325542086,-61.332270263912,12.383088308831,3371994.9147576,12410.597473718,2753604.4814519,17.583088308831,0,0
82.585325937801,-61.349799851785,12.387518751875,3371994.9147576,12410.597473718,2753604.4814519,17.587518751875,0,0
82.585326333515,-61.367329439657,12.391949194919,3371994.9147576,12410.597473718,2753604.4814519,17.591949194919,0,0
82.58532672923,-61.38485902753,12.396379637964,3371994.9147576,12410.597473718,2753604.4814519,17.596379637964,0,0
82.585327124945,-61.402388615402,12.400810081008,3371994.9147576,12410.597473718,2753604.4814519,17.600810081008,0,0
82.58532752066,-61.419918203275,12.405240524052,3371994.9147576,12410.597473718,2753604.4814519,17.605240524052,0,0
82.585327916374,-61.437447791147,12.409670967097,3371994.9147576,12410.597473718,2753604.4814519,17.609670967097,0,0
82.585328312089,-61.45497737902,12.414101410141,3371994.9147576,12410.597473718,2753604.4814519,17.614101410141,0,0
82.585328707804,-61.472506966892,12.418531853185,3371994.9147576,12410.597473718,2753604.4814519,17.618531853185,0,0
82.585329103518,-61.490036554764,12.42296229623,3371994.9147576,12410.597473718,2753604.4814519,17.62296229623,0,0
82.585329499233,-61.507566142637,12.427392739274,3371994.9147576,12410.597473718,2753604.4814519,17.627392739274,0,0
82.585329894948,-61.525095730509,12.431823182318,3371994.9147576,12410.597473718,2753604.4814519,17.631823182318,0,0
82.585330290663,-61.542625318382,12.436253625363,3371994.9147576,12410.597473718,2753604.4814519,17.636253625363,0,0
82.585330686377,-61.560154906254,12.440684068407,3371994.9147576,12410.597473718,2753604.4814519,17.640684068407,0,0
82.585331082092,-61.577684494127,12.445114511451,3371994.9147576,12410.597473718,2753604.4814519,17.645114511451,0,0
82.585331477807,-61.595214081999,12.449544954495,3371994.9147576,12410.597473718,2753604.4814519,17.649544954495,0,0
82.585331873522,-61.612743669872,12.45397539754,3371994.9147576,12410.597473718,2753604.4814519,17.65397539754,0,0
82.585332269236,-61.630273257744,12.458405840584,3371994.9147576,12410.597473718,2753604.4814519,17.658405840584,0,0
82.585332664951,-61.647802845617,12.462836283628,3371994.9147576,12410.597473718,2753604.4814519,17.662836283628,0,0
82.585333060666,-61.665332433489,12.467266726673,3371994.9147576,12410.597473718,2753604.4814519,17.667266726673,0,0
82.58533345638,-61.682862021362,12.471697169717,3371994.9147576,12410.597473718,2753604.4814519,17.671697169717,0,0
82.585333852095,-61.700391609234,12.476127612761,3371994.9147576,12410.597473718,2753604.4814519,17.676127612761,0,0
82.58533424781,-61.717921197106,12.480558055806,3371994.9147576,12410.597473718,2753604.4814519,17.680558055806,0,0
82.585334643525,-61.735450784979,12.48498849885,3371994.9147576,12410.597473718,2753604.4814519,17.68498849885,0,0
82.585335039239,-61.752980372851,12.489418941894,3371994.9147576,12410.597473718,2753604.4814519,17.689418941894,0,0
82.585335434954,-61.770509960724,12.493849384938,3371994.9147576,12410.597473718,2753604.4814519,17.693849384938,0,0
82.585335830669,-61.788039548596,12.498279827983,3371994.9147576,12410.597473718,2753604.4814519,17.698279827983,0,0
82.585336226383,-61.805569136469,12.502710271027,3371994.9147576,12410.597473718,2753604.4814519,17.702710271027,0,0
82.585336622098,-61.823098724341,12.507140714071,3371994.9147576,12410.597473718,2753604.4814519,17.707140714071,0,0
82.585337017813,-61.840628312214,12.511571157116,3371994.9147576,12410.597473718,2753604.4814519,17.711571157116,0,0
82.585337413528,-61.858157900086,12.51600160016,3371994.9147576,12410.597473718,2753604.4814519,17.71600160016,0,0
82.585337809242,-61.875687487959,12.520432043204,3371994.9147576,12410.597473718,2753604.4814519,17.720432043204,0,0
82.585338204957,-61.893217075831,12.524862486249,3371994.9147576,12410.597473718,2753604.4814519,17.724862486249,0,0
82.585338600672,-61.910746663704,12.529292929293,3371994.9147576,12410.597473718,2753604.4814519,17.729292929293,0,0
82.585338996386,-61.928276251576,12.533723372337,3371994.9147576,12410.597473718,2753604.4814519,17.733723372337,0,0
82.585339392101,-61.945805839448,12.538153815382,3371994.9147576,12410.597473718,2753604.4814519,17.738153815382,0,0
82.585339787816,-61.963335427321,12.542584258426,3371994.9147576,12410.597473718,2753604.4814519,17.742584258426,0,0
82.585340183531,-61.980865015193,12.54701470147,3371994.9147576,12410.597473718,2753604.4814519,17.74701470147,0,0
82.585340579245,-61.998394603066,12.551445144514,3371994.9147576,12410.597473718,2753604.4814519,17.751445144514,0,0
82.58534097496,-62.015924190938,12.555875587559,3371994.9147576,12410.597473718,2753604.4814519,17.755875587559,0,0
82.585341370675,-62.033453778811,12.560306030603,3371994.9147576,12410.597473718,2753604.4814519,17.760306030603,0,0
82.585341766389,-62.050983366683,12.564736473647,3371994.9147576,12410.597473718,2753604.4814519,17.764736473647,0,0
82.585342162104,-62.068512954556,12.569166916692,3371994.9147576,12410.597473718,2753604.4814519,17.769166916692,0,0
82.585342557819,-62.086042542428,12.573597359736,3371994.9147576,12410.597473718,2753604.4814519,17.773597359736,0,0
82.585342953534,-62.103572130301,12.57802780278,3371994.9147576,12410.597473718,2753604.4814519,17.77802780278,0,0
82.585343349248,-62.121101718173,12.582458245825,3371994.9147576,12410.597473718,2753604.4814519,17.782458245825,0,0
82.585343744963,-62.138631306046,12.586888688869,3371994.9147576,12410.597473718,2753604.4814519,17.786888688869,0,0
82.585344140678,-62.156160893918,12.591319131913,3371994.9147576,12410.597473718,2753604.4814519,17.791319131913,0,0
82.585344536393,-62.173690481791,12.595749574957,3371994.9147576,12410.597473718,2753604.4814519,17.795749574957,0,0
82.585344932107,-62.191220069663,12.600180018002,3371994.9147576,12410.597473718,2753604.4814519,17.800180018002,0,0
82.585345327822,-62.208749657535,12.604610461046,3371994.9147576,12410.597473718,2753604.4814519,17.804610461046,0,0
82.585345723537,-62.226279245408,12.60904090409,3371994.9147576,12410.597473718,2753604.4814519,17.80904090409,0,0
82.585346119251,-62.24380883328,12.613471347135,3371994.9147576,12410.597473718,2753604.4814519,17.813471347135,0,0
82.585346514966,-62.261338421153,12.617901790179,3371994.9147576,12410.597473718,2753604.4814519,17.817901790179,0,0
82.585346910681,-62.278868009025,12.622332233223,3371994.9147576,12410.597473718,2753604.4814519,17.822332233223,0,0
82.585347306396,-62.296397596898,12.626762676268,3371994.9147576,12410.597473718,2753604.4814519,17.826762676268,0,0
82.58534770211,-62.31392718477,12.631193119312,3371994.9147576,12410.597473718,2753604.4814519,17.831193119312,0,0
82.585348097825,-62.331456772643,12.635623562356,3371994.9147576,12410.597473718,2753604.4814519,17.835623562356,0,0
82.58534849354,-62.348986360515,12.640054005401,3371994.9147576,12410.597473718,2753604.4814519,17.840054005401,0,0
82.585348889254,-62.366515948388,12.644484448445,3371994.9147576,12410.597473718,2753604.4814519,17.844484448445,0,0
82.585349284969,-62.38404553626,12.648914891489,3371994.9147576,12410.597473718,2753604.4814519,17.848914891489,0,0
82.585349680684,-62.401575124133,12.653345334533,3371994.9147576,12410.597473718,2753604.4814519,17.853345334533,0,0
82.585350076399,-62.419104712005,12.657775777578,3371994.9147576,12410.597473718,2753604.4814519,17.857775777578,0,0
82.585350472113,-62.436634299877,12.662206220622,3371994.9147576,12410.597473718,2753604.4814519,17.862206220622,0,0
82.585350867828,-62.45416388775,12.666636663666,3371994.9147576,12410.597473718,2753604.4814519,17.866636663666,0,0
82.585351263543,-62.471693475622,12.671067106711,3371994.9147576,12410.597473718,2753604.4814519,17.871067106711,0,0
82.585351659257,-62.489223063495,12.675497549755,3371994.9147576,12410.597473718,2753604.4814519,17.875497549755,0,0
82.585352054972,-62.506752651367,12.679927992799,3371994.9147576,12410.597473718,2753604.4814519,17.879927992799,0,0
82.585352450687,-62.52428223924,12.684358435844,3371994.9147576,12410.597473718,2753604.4814519,17.884358435844,0,0
82.585352846402,-62.541811827112,12.688788878888,3371994.9147576,12410.597473718,2753604.4814519,17.888788878888,0,0
82.585353242116,-62.559341414985,12.693219321932,3371994.9147576,12410.597473718,2753604.4814519,17.893219321932,0,0
82.585353637831,-62.576871002857,12.697649764976,3371994.9147576,12410.597473718,2753604.4814519,17.897649764976,0,0
82.585354033546,-62.59440059073,12.702080208021,3371994.9147576,12410.597473718,2753604.4814519,17.902080208021,0,0
82.585354429261,-62.611930178602,12.706510651065,3371994.9147576,12410.597473718,2753604.4814519,17.906510651065,0,0
82.585354824975,-62.629459766475,12.710941094109,3371994.9147576,12410.597473718,2753604.4814519,17.910941094109,0,0
82.58535522069,-62.646989354347,12.715371537154,3371994.9147576,12410.597473718,2753604.4814519,17.915371537154,0,0
82.585355616405,-62.664518942219,12.719801980198,3371994.9147576,12410.597473718,2753604.4814519,17.919801980198,0,0
82.585356012119,-62.682048530092,12.724232423242,3371994.9147576,12410.597473718,2753604.4814519,17.924232423242,0,0
82.585356407834,-62.699578117964,12.728662866287,3371994.9147576,12410.597473718,2753604.4814519,17.928662866287,0,0
82.585356803549,-62.717107705837,12.733093309331,3371994.9147576,12410.597473718,2753604.4814519,17.933093309331,0,0
82.585357199264,-62.734637293709,12.737523752375,3371994.9147576,12410.597473718,2753604.4814519,17.937523752375,0,0
82.585357595615,-62.752166882961,12.74195419542,3383408.4083844,1434.0736970552,2729537.1040248,17.94195419542,0,0
82.585357992882,-62.769696474199,12.746384638464,3383408.4083844,1434.0736970552,2729537.1040248,17.946384638464,0,0
82.585358390149,-62.787226065436,12.750815081508,3383408.4083844,1434.0736970552,2729537.1040248,17.950815081508,0,0
82.585358787416,-62.804755656674,12.755245524552,3383408.4083844,1434.0736970552,2729537.1040248,17.955245524552,0,0
82.585359184683,-62.822285247912,12.759675967597,3383408.4083844,1434.0736970552,2729537.1040248,17.959675967597,0,0
82.585359581951,-62.839814839149,12.764106410641,3383408.4083844,1434.0736970552,2729537.1040248,17.964106410641,0,0
82.585359979218,-62.857344430387,12.768536853685,3383408.4083844,1434.0736970552,2729537.1040248,17.968536853685,0,0
82.585360376485,-62.874874021624,12.77296729673,3383408.4083844,1434.0736970552,2729537.1040248,17.97296729673,0,0
82.585360773752,-62.892403612862,12.777397739774,3383408.4083844,1434.0736970552,2729537.1040248,17.977397739774,0,0
82.585361171019,-62.909933204099,12.781828182818,3383408.4083844,1434.0736970552,2729537.1040248,17.981828182818,0,0
82.585361568286,-62.927462795337,12.786258625863,3383408.4083844,1434.0736970552,2729537.1040248,17.986258625863,0,0
82.585361965554,-62.944992386575,12.790689068907,3383408.4083844,1434.0736970552,2729537.1040248,17.990689068907,0,0
82.585362362821,-62.962521977812,12.795119511951,3383408.4083844,1434.0736970552,2729537.1040248,17.995119511951,0,0
82.585362760088,-62.98005156905,12.799549954995,3383408.4083844,1434.0736970552,2729537.1040248,17.999549954995,0,0
82.585363157355,-62.997581160287,12.80398039804,3383408.4083844,1434.0736970552,2729537.1040248,18.00398039804,0,0
82.585363554622,-63.015110751525,12.808410841084,3383408.4083844,1434.0736970552,2729537.1040248,18.008410841084,0,0
82.58536395189,-63.032640342762,12.812841284128,3383408.4083844,1434.0736970552,2729537.1040248,18.012841284128,0,0
82.585364349157,-63.050169934,12.817271727173,3383408.4083844,1434.0736970552,2729537.1040248,18.017271727173,0,0
82.585364746424,-63.067699525237,12.821702170217,3383408.4083844,1434.0736970552,2729537.1040248,18.021702170217,0,0
82.585365143691,-63.085229116475,12.826132613261,3383408.4083844,1434.0736970552,2729537.1040248,18.026132613261,0,0
82.585365540958,-63.102758707713,12.830563056306,3383408.4083844,1434.0736970552,2729537.1040248,18.030563056306,0,0
82.585365938225,-63.12028829895,12.83499349935,3383408.4083844,1434.0736970552,2729537.1040248,18.03499349935,0,0
82.585366335493,-63.137817890188,12.839423942394,3383408.4083844,1434.0736970552,2729537.1040248,18.039423942394,0,0
82.58536673276,-63.155347481425,12.843854385439,3383408.4083844,1434.0736970552,2729537.1040248,18.043854385439,0,0
82.585367130027,-63.172877072663,12.848284828483,3383408.4083844,1434.0736970552,2729537.1040248,18.048284828483,0,0
82.585367527294,-63.1904066639,12.852715271527,3383408.4083844,1434.0736970552,2729537.1040248,18.052715271527,0,0
82.585367924561,-63.207936255138,12.857145714571,3383408.4083844,1434.0736970552,2729537.1040248,18.057145714571,0,0
82.585368321829,-63.225465846376,12.861576157616,3383408.4083844,1434.0736970552,2729537.1040248,18.061576157616,0,0
82.585368719096,-63.242995437613,12.86600660066,3383408.4083844,1434.0736970552,2729537.1040248,18.06600660066,0,0
82.585369116363,-63.260525028851,12.870437043704,3383408.4083844,1434.0736970552,2729537.1040248,18.070437043704,0,0
82.58536951363,-63.278054620088,12.874867486749,3383408.4083844,1434.0736970552,2729537.1040248,18.074867486749,0,0
82.585369910897,-63.295584211326,12.879297929793,3383408.4083844,1434.0736970552,2729537.1040248,18.079297929793,0,0
82.585370308164,-63.313113802563,12.883728372837,3383408.4083844,1434.0736970552,2729537.1040248,18.083728372837,0,0
82.585370705432,-63.330643393801,12.888158815882,3383408.4083844,1434.0736970552,2729537.1040248,18.088158815882,0,0
82.585371102699,-63.348172985039,12.892589258926,3383408.4083844,1434.0736970552,2729537.1040248,18.092589258926,0,0
82.585371499966,-63.365702576276,12.89701970197,3383408.4083844,1434.0736970552,2729537.1040248,18.09701970197,0,0
82.585371897233,-63.383232167514,12.901450145015,3383408.4083844,1434.0736970552,2729537.1040248,18.101450145014,0,0
82.5853722945,-63.400761758751,12.905880588059,3383408.4083844,1434.0736970552,2729537.1040248,18.105880588059,0,0
82.585372691768,-63.418291349989,12.910311031103,3383408.4083844,1434.0736970552,2729537.1040248,18.110311031103,0,0
82.585373089035,-63.435820941226,12.914741474147,3383408.4083844,1434.0736970552,2729537.1040248,18.114741474147,0,0
82.585373486302,-63.453350532464,12.919171917192,3383408.4083844,1434.0736970552,2729537.1040248,18.119171917192,0,0
82.585373883569,-63.470880123702,12.923602360236,3383408.4083844,1434.0736970552,2729537.1040248,18.123602360236,0,0
82.585374280836,-63.488409714939,12.92803280328,3383408.4083844,1434.0736970552,2729537.1040248,18.12803280328,0,0
82.585374678103,-63.505939306177,12.932463246325,3383408.4083844,1434.0736970552,2729537.1040248,18.132463246325,0,0
82.585375075371,-63.523468897414,12.936893689369,3383408.4083844,1434.0736970552,2729537.1040248,18.136893689369,0,0
82.585375472638,-63.540998488652,12.941324132413,3383408.4083844,1434.0736970552,2729537.1040248,18.141324132413,0,0
82.585375869905,-63.558528079889,12.945754575458,3383408.4083844,1434.0736970552,2729537.1040248,18.145754575458,0,0
82.585376267172,-63.576057671127,12.950185018502,3383408.4083844,1434.0736970552,2729537.1040248,18.150185018502,0,0
82.585376664439,-63.593587262364,12.954615461546,3383408.4083844,1434.0736970552,2729537.1040248,18.154615461546,0,0
82.585377061707,-63.611116853602,12.95904590459,3383408.4083844,1434.0736970552,2729537.1040248,18.15904590459,0,0
82.585377458974,-63.62864644484,12.963476347635,3383408.4083844,1434.0736970552,2729537.1040248,18.163476347635,0,0
82.585377856241,-63.646176036077,12.967906790679,3383408.4083844,1434.0736970552,2729537.1040248,18.167906790679,0,0
82.585378253508,-63.663705627315,12.972337233723,3383408.4083844,1434.0736970552,2729537.1040248,18.172337233723,0,0
82.585378650775,-63.681235218552,12.976767676768,3383408.4083844,1434.0736970552,2729537.1040248,18.176767676768,0,0
82.585379048042,-63.69876480979,12.981198119812,3383408.4083844,1434.0736970552,2729537.1040248,18.181198119812,0,0
82.58537944531,-63.716294401027,12.985628562856,3383408.4083844,1434.0736970552,2729537.1040248,18.185628562856,0,0
82.585379842577,-63.733823992265,12.990059005901,3383408.4083844,1434.0736970552,2729537.1040248,18.190059005901,0,0
82.585380239844,-63.751353583503,12.994489448945,3383408.4083844,1434.0736970552,2729537.1040248,18.194489448945,0,0
82.585380637111,-63.76888317474,12.998919891989,3383408.4083844,1434.0736970552,2729537.1040248,18.198919891989,0,0
82.585381034378,-63.786412765978,13.003350335034,3383408.4083844,1434.0736970552,2729537.1040248,18.203350335034,0,0
82.585381431646,-63.803942357215,13.007780778078,3383408.4083844,1434.0736970552,2729537.1040248,18.207780778078,0,0
82.585381828913,-63.821471948453,13.012211221122,3383408.4083844,1434.0736970552,2729537.1040248,18.212211221122,0,0
82.58538222618,-63.83900153969,13.016641664166,3383408.4083844,1434.0736970552,2729537.1040248,18.216641664166,0,0
82.585382623447,-63.856531130928,13.021072107211,3383408.4083844,1434.0736970552,2729537.1040248,18.221072107211,0,0
82.585383020714,-63.874060722165,13.025502550255,3383408.4083844,1434.0736970552,2729537.1040248,18.225502550255,0,0
82.585383417981,-63.891590313403,13.029932993299,3383408.4083844,1434.0736970552,2729537.1040248,18.229932993299,0,0
82.585383815249,-63.909119904641,13.034363436344,3383408.4083844,1434.0736970552,2729537.1040248,18.234363436344,0,0
82.585384212516,-63.926649495878,13.038793879388,3383408.4083844,1434.0736970552,2729537.1040248,18.238793879388,0,0
82.585384609783,-63.944179087116,13.043224322432,3383408.4083844,1434.0736970552,2729537.1040248,18.243224322432,0,0
82.58538500705,-63.961708678353,13.047654765477,3383408.4083844,1434.0736970552,2729537.1040248,18.247654765477,0,0
82.585385404317,-63.979238269591,13.052085208521,3383408.4083844,1434.0736970552,2729537.1040248,18.252085208521,0,0
82.585385801585,-63.996767860828,13.056515651565,3383408.4083844,1434.0736970552,2729537.1040248,18.256515651565,0,0
82.585386198852,-64.014297452066,13.060946094609,3383408.4083844,1434.0736970552,2729537.1040248,18.260946094609,0,0
82.585386596119,-64.031827043304,13.065376537654,3383408.4083844,1434.0736970552,2729537.1040248,18.265376537654,0,0
82.585386993386,-64.049356634541,13.069806980698,3383408.4083844,1434.0736970552,2729537.1040248,18.269806980698,0,0
82.585387390653,-64.066886225779,13.074237423742,3383408.4083844,1434.0736970552,2729537.1040248,18.274237423742,0,0
82.58538778792,-64.084415817016,13.078667866787,3383408.4083844,1434.0736970552,2729537.1040248,18.278667866787,0,0
82.585388185188,-64.101945408254,13.083098309831,3383408.4083844,1434.0736970552,2729537.1040248,18.283098309831,0,0
82.585388582455,-64.119474999491,13.087528752875,3383408.4083844,1434.0736970552,2729537.1040248,18.287528752875,0,0
82.585388979722,-64.137004590729,13.09195919592,3383408.4083844,1434.0736970552,2729537.1040248,18.29195919592,0,0
82.585389376989,-64.154534181967,13.096389638964,3383408.4083844,1434.0736970552,2729537.1040248,18.296389638964,0,0
82.585389774256,-64.172063773204,13.100820082008,3383408.4083844,1434.0736970552,2729537.1040248,18.300820082008,0,0
82.585390171524,-64.189593364442,13.105250525053,3383408.4083844,1434.0736970552,2729537.1040248,18.305250525053,0,0
82.585390568791,-64.207122955679,13.109680968097,3383408.4083844,1434.0736970552,2729537.1040248,18.309680968097,0,0
82.585390966058,-64.224652546917,13.114111411141,3383408.4083844,1434.0736970552,2729537.1040248,18.314111411141,0,0
82.585391363325,-64.242182138154,13.118541854185,3383408.4083844,1434.0736970552,2729537.1040248,18.318541854185,0,0
82.585391760592,-64.259711729392,13.12297229723,3383408.4083844,1434.0736970552,2729537.1040248,18.32297229723,0,0
82.585392157859,-64.277241320629,13.127402740274,3383408.4083844,1434.0736970552,2729537.1040248,18.327402740274,0,0
82.585392555127,-64.294770911867,13.131833183318,3383408.4083844,1434.0736970552,2729537.1040248,18.331833183318,0,0
82.585392952394,-64.312300503105,13.136263626363,3383408.4083844,1434.0736970552,2729537.1040248,18.336263626363,0,0
82.585393349661,-64.329830094342,13.140694069407,3383408.4083844,1434.0736970552,2729537.1040248,18.340694069407,0,0
82.585393746928,-64.34735968558,13.145124512451,3383408.4083844,1434.0736970552,2729537.1040248,18.345124512451,0,0
82.585394144195,-64.364889276817,13.149554955496,3383408.4083844,1434.0736970552,2729537.1040248,18.349554955496,0,0
82.585394541463,-64.382418868055,13.15398539854,3383408.4083844,1434.0736970552,2729537.1040248,18.35398539854,0,0
82.58539493873,-64.399948459292,13.158415841584,3383408.4083844,1434.0736970552,2729537.1040248,18.358415841584,0,0
82.585395335997,-64.41747805053,13.162846284628,3383408.4083844,1434.0736970552,2729537.1040248,18.362846284628,0,0
82.585395733264,-64.435007641768,13.167276727673,3383408.4083844,1434.0736970552,2729537.1040248,18.367276727673,0,0
82.585396130531,-64.452537233005,13.171707170717,3383408.4083844,1434.0736970552,2729537.1040248,18.371707170717,0,0
82.585396527798,-64.470066824243,13.176137613761,3383408.4083844,1434.0736970552,2729537.1040248,18.376137613761,0,0
82.585396925066,-64.48759641548,13.180568056806,3383408.4083844,1434.0736970552,2729537.1040248,18.380568056806,0,0
82.585397322333,-64.505126006718,13.18499849985,3383408.4083844,1434.0736970552,2729537.1040248,18.38499849985,0,0
82.5853977196,-64.522655597955,13.189428942894,3383408.4083844,1434.0736970552,2729537.1040248,18.389428942894,0,0
82.585398116867,-64.540185189193,13.193859385939,3383408.4083844,1434.0736970552,2729537.1040248,18.393859385939,0,0
82.585398514134,-64.557714780431,13.198289828983,3383408.4083844,1434.0736970552,2729537.1040248,18.398289828983,0,0
82.585398911402,-64.575244371668,13.202720272027,3383408.4083844,1434.0736970552,2729537.1040248,18.402720272027,0,0
82.585399308669,-64.592773962906,13.207150715072,3383408.4083844,1434.0736970552,2729537.1040248,18.407150715072,0,0
82.585399705936,-64.610303554143,13.211581158116,3383408.4083844,1434.0736970552,2729537.1040248,18.411581158116,0,0
82.585400103203,-64.627833145381,13.21601160116,3383408.4083844,1434.0736970552,2729537.1040248,18.41601160116,0,0
82.58540050047,-64.645362736618,13.220442044204,3383408.4083844,1434.0736970552,2729537.1040248,18.420442044204,0,0
82.585400897737,-64.662892327856,13.224872487249,3383408.4083844,1434.0736970552,2729537.1040248,18.424872487249,0,0
82.585401295005,-64.680421919093,13.229302930293,3383408.4083844,1434.0736970552,2729537.1040248,18.429302930293,0,0
82.585401692272,-64.697951510331,13.233733373337,3383408.4083844,1434.0736970552,2729537.1040248,18.433733373337,0,0
82.585402089539,-64.715481101569,13.238163816382,3383408.4083844,1434.0736970552,2729537.1040248,18.438163816382,0,0
82.585402486806,-64.733010692806,13.242594259426,3383408.4083844,1434.0736970552,2729537.1040248,18.442594259426,0,0
82.585402884073,-64.750540284044,13.24702470247,3383408.4083844,1434.0736970552,2729537.1040248,18.44702470247,0,0
82.585403281341,-64.768069875281,13.251455145515,3383408.4083844,1434.0736970552,2729537.1040248,18.451455145515,0,0
82.585403678608,-64.785599466519,13.255885588559,3383408.4083844,1434.0736970552,2729537.1040248,18.455885588559,0,0
82.585404075875,-64.803129057756,13.260316031603,3383408.4083844,1434.0736970552,2729537.1040248,18.460316031603,0,0
82.585404473142,-64.820658648994,13.264746474647,3383408.4083844,1434.0736970552,2729537.1040248,18.464746474647,0,0
82.585404870409,-64.838188240232,13.269176917692,3383408.4083844,1434.0736970552,2729537.1040248,18.469176917692,0,0
82.585405267676,-64.855717831469,13.273607360736,3383408.4083844,1434.0736970552,2729537.1040248,18.473607360736,0,0
82.585405664944,-64.873247422707,13.27803780378,3383408.4083844,1434.0736970552,2729537.1040248,18.47803780378,0,0
82.585406062211,-64.890777013944,13.282468246825,3383408.4083844,1434.0736970552,2729537.1040248,18.482468246825,0,0
82.585406459478,-64.908306605182,13.286898689869,3383408.4083844,1434.0736970552,2729537.1040248,18.486898689869,0,0
82.585406856745,-64.925836196419,13.291329132913,3383408.4083844,1434.0736970552,2729537.1040248,18.491329132913,0,0
82.585407254012,-64.943365787657,13.295759575958,3383408.4083844,1434.0736970552,2729537.1040248,18.495759575958,0,0
82.585407651279,-64.960895378895,13.300190019002,3383408.4083844,1434.0736970552,2729537.1040248,18.500190019002,0,0
82.585408048547,-64.978424970132,13.304620462046,3383408.4083844,1434.0736970552,2729537.1040248,18.504620462046,0,0
82.585408445814,-64.99595456137,13.309050905091,3383408.4083844,1434.0736970552,2729537.1040248,18.509050905091,0,0
82.585408843081,-65.013484152607,13.313481348135,3383408.4083844,1434.0736970552,2729537.1040248,18.513481348135,0,0
82.585409240348,-65.031013743845,13.317911791179,3383408.4083844,1434.0736970552,2729537.1040248,18.517911791179,0,0
82.585409637615,-65.048543335082,13.322342234223,3383408.4083844,1434.0736970552,2729537.1040248,18.522342234223,0,0
82.585410034883,-65.06607292632,13.326772677268,3383408.4083844,1434.0736970552,2729537.1040248,18.526772677268,0,0
82.58541043215,-65.083602517557,13.331203120312,3383408.4083844,1434.0736970552,2729537.1040248,18.531203120312,0,0
82.585410829417,-65.101132108795,13.335633563356,3383408.4083844,1434.0736970552,2729537.1040248,18.535633563356,0,0
82.585411226684,-65.118661700033,13.340064006401,3383408.4083844,1434.0736970552,2729537.1040248,18.540064006401,0,0
82.585411623951,-65.13619129127,13.344494449445,3383408.4083844,1434.0736970552,2729537.1040248,18.544494449445,0,0
82.585412021218,-65.153720882508,13.348924892489,3383408.4083844,1434.0736970552,2729537.1040248,18.548924892489,0,0
82.585412418486,-65.171250473745,13.353355335534,3383408.4083844,1434.0736970552,2729537.1040248,18.553355335534,0,0
82.585412815753,-65.188780064983,13.357785778578,3383408.4083844,1434.0736970552,2729537.1040248,18.557785778578,0,0
82.58541321302,-65.20630965622,13.362216221622,3383408.4083844,1434.0736970552,2729537.1040248,18.562216221622,0,0
82.585413610287,-65.223839247458,13.366646664666,3383408.4083844,1434.0736970552,2729537.1040248,18.566646664666,0,0
82.585414007554,-65.241368838696,13.371077107711,3383408.4083844,1434.0736970552,2729537.1040248,18.571077107711,0,0
82.585414404822,-65.258898429933,13.375507550755,3383408.4083844,1434.0736970552,2729537.1040248,18.575507550755,0,0
82.585414802089,-65.276428021171,13.379937993799,3383408.4083844,1434.0736970552,2729537.1040248,18.579937993799,0,0
82.585415199356,-65.293957612408,13.384368436844,3383408.4083844,1434.0736970552,2729537.1040248,18.584368436844,0,0
82.585415596623,-65.311487203646,13.388798879888,3383408.4083844,1434.0736970552,2729537.1040248,18.588798879888,0,0
82.58541599389,-65.329016794883,13.393229322932,3383408.4083844,1434.0736970552,2729537.1040248,18.593229322932,0,0
82.585416391157,-65.346546386121,13.397659765977,3383408.4083844,1434.0736970552,2729537.1040248,18.597659765977,0,0
82.585416788425,-65.364075977359,13.402090209021,3383408.4083844,1434.0736970552,2729537.1040248,18.602090209021,0,0
82.585417185692,-65.381605568596,13.406520652065,3383408.4083844,1434.0736970552,2729537.1040248,18.606520652065,0,0
82.585417582959,-65.399135159834,13.41095109511,3383408.4083844,1434.0736970552,2729537.1040248,18.61095109511,0,0
82.585417980226,-65.416664751071,13.415381538154,3383408.4083844,1434.0736970552,2729537.1040248,18.615381538154,0,0
82.585418377493,-65.434194342309,13.419811981198,3383408.4083844,1434.0736970552,2729537.1040248,18.619811981198,0,0
82.585418774761,-65.451723933546,13.424242424242,3383408.4083844,1434.0736970552,2729537.1040248,18.624242424242,0,0
82.585419172028,-65.469253524784,13.428672867287,3383408.4083844,1434.0736970552,2729537.1040248,18.628672867287,0,0
82.585419569295,-65.486783116021,13.433103310331,3383408.4083844,1434.0736970552,2729537.1040248,18.633103310331,0,0
82.585419966562,-65.504312707259,13.437533753375,3383408.4083844,1434.0736970552,2729537.1040248,18.637533753375,0,0
82.585420363829,-65.521842298497,13.44196419642,3383408.4083844,1434.0736970552,2729537.1040248,18.64196419642,0,0
82.585420761096,-65.539371889734,13.446394639464,3383408.4083844,1434.0736970552,2729537.1040248,18.646394639464,0,0
82.585421158364,-65.556901480972,13.450825082508,3383408.4083844,1434.0736970552,2729537.1040248,18.650825082508,0,0
82.585421555631,-65.574431072209,13.455255525553,3383408.4083844,1434.0736970552,2729537.1040248,18.655255525553,0,0
82.585421952898,-65.591960663447,13.459685968597,3383408.4083844,1434.0736970552,2729537.1040248,18.659685968597,0,0
82.585422350165,-65.609490254684,13.464116411641,3383408.4083844,1434.0736970552,2729537.1040248,18.664116411641,0,0
82.585422747432,-65.627019845922,13.468546854685,3383408.4083844,1434.0736970552,2729537.1040248,18.668546854685,0,0
82.5854231447,-65.64454943716,13.47297729773,3383408.4083844,1434.0736970552,2729537.1040248,18.67297729773,0,0
82.585423541967,-65.662079028397,13.477407740774,3383408.4083844,1434.0736970552,2729537.1040248,18.677407740774,0,0
82.585423941349,-65.679608617893,13.481838183818,3424434.8790745,6747.3991467181,2726350.6120968,18.681838183818,0,0
82.585424341978,-65.697138206363,13.486268626863,3424434.8790745,6747.3991467181,2726350.6120968,18.686268626863,0,0
82.585424742607,-65.714667794833,13.490699069907,3424434.8790745,6747.3991467181,2726350.6120968,18.690699069907,0,0
82.585425143236,-65.732197383303,13.495129512951,3424434.8790745,6747.3991467181,2726350.6120968,18.695129512951,0,0
82.585425543865,-65.749726971773,13.499559955996,3424434.8790745,6747.3991467181,2726350.6120968,18.699559955996,0,0
82.585425944494,-65.767256560242,13.50399039904,3424434.8790745,6747.3991467181,2726350.6120968,18.70399039904,0,0
82.585426345123,-65.784786148712,13.508420842084,3424434.8790745,6747.3991467181,2726350.6120968,18.708420842084,0,0
82.585426745752,-65.802315737182,13.512851285129,3424434.8790745,6747.3991467181,2726350.6120968,18.712851285129,0,0
82.585427146381,-65.819845325652,13.517281728173,3424434.8790745,6747.3991467181,2726350.6120968,18.717281728173,0,0
82.585427547011,-65.837374914122,13.521712171217,3424434.8790745,6747.3991467181,2726350.6120968,18.721712171217,0,0
82.58542794764,-65.854904502592,13.526142614261,3424434.8790745,6747.3991467181,2726350.6120968,18.726142614261,0,0
82.585428348269,-65.872434091061,13.530573057306,3424434.8790745,6747.3991467181,2726350.6120968,18.730573057306,0,0
82.585428748898,-65.889963679531,13.53500350035,3424434.8790745,6747.3991467181,2726350.6120968,18.73500350035,0,0
82.585429149527,-65.907493268001,13.539433943394,3424434.8790745,6747.3991467181,2726350.6120968,18.739433943394,0,0
82.585429550156,-65.925022856471,13.543864386439,3424434.8790745,6747.3991467181,2726350.6120968,18.743864386439,0,0
82.585429950785,-65.942552444941,13.548294829483,3424434.8790745,6747.3991467181,2726350.6120968,18.748294829483,0,0
82.585430351414,-65.960082033411,13.552725272527,3424434.8790745,6747.3991467181,2726350.6120968,18.752725272527,0,0
82.585430752043,-65.97761162188,13.557155715572,3424434.8790745,6747.3991467181,2726350.6120968,18.757155715572,0,0
82.585431152672,-65.99514121035,13.561586158616,3424434.8790745,6747.3991467181,2726350.6120968,18.761586158616,0,0
82.585431553301,-66.01267079882,13.56601660166,3424434.8790745,6747.3991467181,2726350.6120968,18.76601660166,0,0
82.58543195393,-66.03020038729,13.570447044704,3424434.8790745,6747.3991467181,2726350.6120968,18.770447044704,0,0
82.585432354559,-66.04772997576,13.574877487749,3424434.8790745,6747.3991467181,2726350.6120968,18.774877487749,0,0
82.585432755188,-66.06525956423,13.579307930793,3424434.8790745,6747.3991467181,2726350.6120968,18.779307930793,0,0
82.585433155817,-66.082789152699,13.583738373837,3424434.8790745,6747.3991467181,2726350.6120968,18.783738373837,0,0
82.585433556446,-66.100318741169,13.588168816882,3424434.8790745,6747.3991467181,2726350.6120968,18.788168816882,0,0
82.585433957075,-66.117848329639,13.592599259926,3424434.8790745,6747.3991467181,2726350.6120968,18.792599259926,0,0
82.585434357704,-66.135377918109,13.59702970297,3424434.8790745,6747.3991467181,2726350.6120968,18.79702970297,0,0
82.585434758333,-66.152907506579,13.601460146015,3424434.8790745,6747.3991467181,2726350.6120968,18.801460146015,0,0
82.585435158962,-66.170437095049,13.605890589059,3424434.8790745,6747.3991467181,2726350.6120968,18.805890589059,0,0
82.585435559591,-66.187966683518,13.610321032103,3424434.8790745,6747.3991467181,2726350.6120968,18.810321032103,0,0
82.58543596022,-66.205496271988,13.614751475148,3424434.8790745,6747.3991467181,2726350.6120968,18.814751475148,0,0
82.585436360849,-66.223025860458,13.619181918192,3424434.8790745,6747.3991467181,2726350.6120968,18.819181918192,0,0
82.585436761479,-66.240555448928,13.623612361236,3424434.8790745,6747.3991467181,2726350.6120968,18.823612361236,0,0
82.585437162108,-66.258085037398,13.62804280428,3424434.8790745,6747.3991467181,2726350.6120968,18.82804280428,0,0
82.585437562737,-66.275614625868,13.632473247325,3424434.8790745,6747.3991467181,2726350.6120968,18.832473247325,0,0
82.585437963366,-66.293144214337,13.636903690369,3424434.8790745,6747.3991467181,2726350.6120968,18.836903690369,0,0
82.585438363995,-66.310673802807,13.641334133413,3424434.8790745,6747.3991467181,2726350.6120968,18.841334133413,0,0
82.585438764624,-66.328203391277,13.645764576458,3424434.8790745,6747.3991467181,2726350.6120968,18.845764576458,0,0
82.585439165253,-66.345732979747,13.650195019502,3424434.8790745,6747.3991467181,2726350.6120968,18.850195019502,0,0
82.585439565882,-66.363262568217,13.654625462546,3424434.8790745,6747.3991467181,2726350.6120968,18.854625462546,0,0
82.585439966511,-66.380792156686,13.659055905591,3424434.8790745,6747.3991467181,2726350.6120968,18.859055905591,0,0
82.58544036714,-66.398321745156,13.663486348635,3424434.8790745,6747.3991467181,2726350.6120968,18.863486348635,0,0
82.585440767769,-66.415851333626,13.667916791679,3424434.8790745,6747.3991467181,2726350.6120968,18.867916791679,0,0
82.585441168398,-66.433380922096,13.672347234723,3424434.8790745,6747.3991467181,2726350.6120968,18.872347234723,0,0
82.585441569027,-66.450910510566,13.676777677768,3424434.8790745,6747.3991467181,2726350.6120968,18.876777677768,0,0
82.585441969656,-66.468440099036,13.681208120812,3424434.8790745,6747.3991467181,2726350.6120968,18.881208120812,0,0
82.585442370285,-66.485969687506,13.685638563856,3424434.8790745,6747.3991467181,2726350.6120968,18.885638563856,0,0
82.585442770914,-66.503499275975,13.690069006901,3424434.8790745,6747.3991467181,2726350.6120968,18.890069006901,0,0
82.585443171543,-66.521028864445,13.694499449945,3424434.8790745,6747.3991467181,2726350.6120968,18.894499449945,0,0
82.585443572172,-66.538558452915,13.698929892989,3424434.8790745,6747.3991467181,2726350.6120968,18.898929892989,0,0
82.585443972801,-66.556088041385,13.703360336034,3424434.8790745,6747.3991467181,2726350.6120968,18.903360336034,0,0
82.58544437343,-66.573617629855,13.707790779078,3424434.8790745,6747.3991467181,2726350.6120968,18.907790779078,0,0
82.585444774059,-66.591147218324,13.712221222122,3424434.8790745,6747.3991467181,2726350.6120968,18.912221222122,0,0
82.585445174688,-66.608676806794,13.716651665167,3424434.8790745,6747.3991467181,2726350.6120968,18.916651665167,0,0
82.585445575317,-66.626206395264,13.721082108211,3424434.8790745,6747.3991467181,2726350.6120968,18.921082108211,0,0
82.585445975947,-66.643735983734,13.725512551255,3424434.8790745,6747.3991467181,2726350.6120968,18.925512551255,0,0
82.585446376576,-66.661265572204,13.729942994299,3424434.8790745,6747.3991467181,2726350.6120968,18.929942994299,0,0
82.585446777205,-66.678795160674,13.734373437344,3424434.8790745,6747.3991467181,2726350.6120968,18.934373437344,0,0
82.585447177834,-66.696324749143,13.738803880388,3424434.8790745,6747.3991467181,2726350.6120968,18.938803880388,0,0
82.585447578463,-66.713854337613,13.743234323432,3424434.8790745,6747.3991467181,2726350.6120968,18.943234323432,0,0
82.585447979092,-66.731383926083,13.747664766477,3424434.8790745,6747.3991467181,2726350.6120968,18.947664766477,0,0
82.585448379721,-66.748913514553,13.752095209521,3424434.8790745,6747.3991467181,2726350.6120968,18.952095209521,0,0
82.58544878035,-66.766443103023,13.756525652565,3424434.8790745,6747.3991467181,2726350.6120968,18.956525652565,0,0
82.585449180979,-66.783972691493,13.76095609561,3424434.8790745,6747.3991467181,2726350.6120968,18.96095609561,0,0
82.585449581608,-66.801502279962,13.765386538654,3424434.8790745,6747.3991467181,2726350.6120968,18.965386538654,0,0
82.585449982237,-66.819031868432,13.769816981698,3424434.8790745,6747.3991467181,2726350.6120968,18.969816981698,0,0
82.585450382866,-66.836561456902,13.774247424742,3424434.8790745,6747.3991467181,2726350.6120968,18.974247424742,0,0
82.585450783495,-66.854091045372,13.778677867787,3424434.8790745,6747.3991467181,2726350.6120968,18.978677867787,0,0
82.585451184124,-66.871620633842,13.783108310831,3424434.8790745,6747.3991467181,2726350.6120968,18.983108310831,0,0
82.585451584753,-66.889150222312,13.787538753875,3424434.8790745,6747.3991467181,2726350.6120968,18.987538753875,0,0
82.585451985382,-66.906679810781,13.79196919692,3424434.8790745,6747.3991467181,2726350.6120968,18.99196919692,0,0
82.585452386011,-66.924209399251,13.796399639964,3424434.8790745,6747.3991467181,2726350.6120968,18.996399639964,0,0
82.58545278664,-66.941738987721,13.800830083008,3424434.8790745,6747.3991467181,2726350.6120968,19.000830083008,0,0
82.585453187269,-66.959268576191,13.805260526053,3424434.8790745,6747.3991467181,2726350.6120968,19.005260526053,0,0
82.585453587898,-66.976798164661,13.809690969097,3424434.8790745,6747.3991467181,2726350.6120968,19.009690969097,0,0
82.585453988527,-66.994327753131,13.814121412141,3424434.8790745,6747.3991467181,2726350.6120968,19.014121412141,0,0
82.585454389156,-67.0118573416,13.818551855186,3424434.8790745,6747.3991467181,2726350.6120968,19.018551855186,0,0
82.585454789785,-67.02938693007,13.82298229823,3424434.8790745,6747.3991467181,2726350.6120968,19.02298229823,0,0
82.585455190415,-67.04691651854,13.827412741274,3424434.8790745,6747.3991467181,2726350.6120968,19.027412741274,0,0
82.585455591044,-67.06444610701,13.831843184318,3424434.8790745,6747.3991467181,2726350.6120968,19.031843184318,0,0
82.585455991673,-67.08197569548,13.836273627363,3424434.8790745,6747.3991467181,2726350.6120968,19.036273627363,0,0
82.585456392302,-67.09950528395,13.840704070407,3424434.8790745,6747.3991467181,2726350.6120968,19.040704070407,0,0
82.585456792931,-67.117034872419,13.845134513451,3424434.8790745,6747.3991467181,2726350.6120968,19.045134513451,0,0
82.58545719356,-67.134564460889,13.849564956496,3424434.8790745,6747.3991467181,2726350.6120968,19.049564956496,0,0
82.585457594189,-67.152094049359,13.85399539954,3424434.8790745,6747.3991467181,2726350.6120968,19.05399539954,0,0
82.585457994818,-67.169623637829,13.858425842584,3424434.8790745,6747.3991467181,2726350.6120968,19.058425842584,0,0
82.585458395447,-67.187153226299,13.862856285629,3424434.8790745,6747.3991467181,2726350.6120968,19.062856285629,0,0
82.585458796076,-67.204682814769,13.867286728673,3424434.8790745,6747.3991467181,2726350.6120968,19.067286728673,0,0
82.585459196705,-67.222212403238,13.871717171717,3424434.8790745,6747.3991467181,2726350.6120968,19.071717171717,0,0
82.585459597334,-67.239741991708,13.876147614761,3424434.8790745,6747.3991467181,2726350.6120968,19.076147614761,0,0
82.585459997963,-67.257271580178,13.880578057806,3424434.8790745,6747.3991467181,2726350.6120968,19.080578057806,0,0
82.585460398592,-67.274801168648,13.88500850085,3424434.8790745,6747.3991467181,2726350.6120968,19.08500850085,0,0
82.585460799221,-67.292330757118,13.889438943894,3424434.8790745,6747.3991467181,2726350.6120968,19.089438943894,0,0
82.58546119985,-67.309860345588,13.893869386939,3424434.8790745,6747.3991467181,2726350.6120968,19.093869386939,0,0
82.585461600479,-67.327389934057,13.898299829983,3424434.8790745,6747.3991467181,2726350.6120968,19.098299829983,0,0
82.585462001108,-67.344919522527,13.902730273027,3424434.8790745,6747.3991467181,2726350.6120968,19.102730273027,0,0
82.585462401737,-67.362449110997,13.907160716072,3424434.8790745,6747.3991467181,2726350.6120968,19.107160716072,0,0
82.585462802366,-67.379978699467,13.911591159116,3424434.8790745,6747.3991467181,2726350.6120968,19.111591159116,0,0
82.585463202995,-67.397508287937,13.91602160216,3424434.8790745,6747.3991467181,2726350.6120968,19.11602160216,0,0
82.585463603624,-67.415037876407,13.920452045205,3424434.8790745,6747.3991467181,2726350.6120968,19.120452045205,0,0
82.585464004253,-67.432567464876,13.924882488249,3424434.8790745,6747.3991467181,2726350.6120968,19.124882488249,0,0
82.585464404883,-67.450097053346,13.929312931293,3424434.8790745,6747.3991467181,2726350.6120968,19.129312931293,0,0
82.585464805512,-67.467626641816,13.933743374337,3424434.8790745,6747.3991467181,2726350.6120968,19.133743374337,0,0
82.585465206141,-67.485156230286,13.938173817382,3424434.8790745,6747.3991467181,2726350.6120968,19.138173817382,0,0
82.58546560677,-67.502685818756,13.942604260426,3424434.8790745,6747.3991467181,2726350.6120968,19.142604260426,0,0
82.585466007399,-67.520215407225,13.94703470347,3424434.8790745,6747.3991467181,2726350.6120968,19.14703470347,0,0
82.585466408028,-67.537744995695,13.951465146515,3424434.8790745,6747.3991467181,2726350.6120968,19.151465146515,0,0
82.585466808657,-67.555274584165,13.955895589559,3424434.8790745,6747.3991467181,2726350.6120968,19.155895589559,0,0
82.585467209286,-67.572804172635,13.960326032603,3424434.8790745,6747.3991467181,2726350.6120968,19.160326032603,0,0
82.585467609915,-67.590333761105,13.964756475648,3424434.8790745,6747.3991467181,2726350.6120968,19.164756475648,0,0
82.585468010544,-67.607863349575,13.969186918692,3424434.8790745,6747.3991467181,2726350.6120968,19.169186918692,0,0
82.585468411173,-67.625392938044,13.973617361736,3424434.8790745,6747.3991467181,2726350.6120968,19.173617361736,0,0
82.585468811802,-67.642922526514,13.97804780478,3424434.8790745,6747.3991467181,2726350.6120968,19.17804780478,0,0
82.585469212431,-67.660452114984,13.982478247825,3424434.8790745,6747.3991467181,2726350.6120968,19.182478247825,0,0
82.58546961306,-67.677981703454,13.986908690869,3424434.8790745,6747.3991467181,2726350.6120968,19.186908690869,0,0
82.585470013689,-67.695511291924,13.991339133913,3424434.8790745,6747.3991467181,2726350.6120968,19.191339133913,0,0
82.585470414318,-67.713040880394,13.995769576958,3424434.8790745,6747.3991467181,2726350.6120968,19.195769576958,0,0
82.585470814947,-67.730570468863,14.000200020002,3424434.8790745,6747.3991467181,2726350.6120968,19.200200020002,0,0
82.585471215576,-67.748100057333,14.004630463046,3424434.8790745,6747.3991467181,2726350.6120968,19.204630463046,0,0
82.585471616205,-67.765629645803,14.009060906091,3424434.8790745,6747.3991467181,2726350.6120968,19.209060906091,0,0
82.585472016834,-67.783159234273,14.013491349135,3424434.8790745,6747.3991467181,2726350.6120968,19.213491349135,0,0
82.585472417548,-67.800688822914,14.017921792179,3434952.7369864,-1944.3982932899,2705569.6028151,19.217921792179,0,0
82.585472819571,-67.818218414196,14.022352235224,3434952.7369864,-1944.3982932899,2705569.6028151,19.222352235224,0,0
82.585473221593,-67.835748005479,14.026782678268,3434952.7369864,-1944.3982932899,2705569.6028151,19.226782678268,0,0
82.585473623616,-67.853277596761,14.031213121312,3434952.7369864,-1944.3982932899,2705569.6028151,19.231213121312,0,0
82.585474025638,-67.870807188043,14.035643564356,3434952.7369864,-1944.3982932899,2705569.6028151,19.235643564356,0,0
82.585474427661,-67.888336779326,14.040074007401,3434952.7369864,-1944.3982932899,2705569.6028151,19.240074007401,0,0
82.585474829683,-67.905866370608,14.044504450445,3434952.7369864,-1944.3982932899,2705569.6028151,19.244504450445,0,0
82.585475231706,-67.92339596189,14.048934893489,3434952.7369864,-1944.3982932899,2705569.6028151,19.248934893489,0,0
82.585475633728,-67.940925553173,14.053365336534,3434952.7369864,-1944.3982932899,2705569.6028151,19.253365336534,0,0
82.58547603575,-67.958455144455,14.057795779578,3434952.7369864,-1944.3982932899,2705569.6028151,19.257795779578,0,0
82.585476437773,-67.975984735737,14.062226222622,3434952.7369864,-1944.3982932899,2705569.6028151,19.262226222622,0,0
82.585476839795,-67.99351432702,14.066656665667,3434952.7369864,-1944.3982932899,2705569.6028151,19.266656665667,0,0
82.585477241818,-68.011043918302,14.071087108711,3434952.7369864,-1944.3982932899,2705569.6028151,19.271087108711,0,0
82.58547764384,-68.028573509584,14.075517551755,3434952.7369864,-1944.3982932899,2705569.6028151,19.275517551755,0,0
82.585478045863,-68.046103100867,14.079947994799,3434952.7369864,-1944.3982932899,2705569.6028151,19.279947994799,0,0
82.585478447885,-68.063632692149,14.084378437844,3434952.7369864,-1944.3982932899,2705569.6028151,19.284378437844,0,0
82.585478849908,-68.081162283431,14.088808880888,3434952.7369864,-1944.3982932899,2705569.6028151,19.288808880888,0,0
82.58547925193,-68.098691874714,14.093239323932,3434952.7369864,-1944.3982932899,2705569.6028151,19.293239323932,0,0
82.585479653953,-68.116221465996,14.097669766977,3434952.7369864,-1944.3982932899,2705569.6028151,19.297669766977,0,0
82.585480055975,-68.133751057278,14.102100210021,3434952.7369864,-1944.3982932899,2705569.6028151,19.302100210021,0,0
82.585480457998,-68.151280648561,14.106530653065,3434952.7369864,-1944.3982932899,2705569.6028151,19.306530653065,0,0
82.58548086002,-68.168810239843,14.11096109611,3434952.7369864,-1944.3982932899,2705569.6028151,19.31096109611,0,0
82.585481262042,-68.186339831125,14.115391539154,3434952.7369864,-1944.3982932899,2705569.6028151,19.315391539154,0,0
82.585481664065,-68.203869422408,14.119821982198,3434952.7369864,-1944.3982932899,2705569.6028151,19.319821982198,0,0
82.585482066087,-68.22139901369,14.124252425243,3434952.7369864,-1944.3982932899,2705569.6028151,19.324252425243,0,0
82.58548246811,-68.238928604972,14.128682868287,3434952.7369864,-1944.3982932899,2705569.6028151,19.328682868287,0,0
82.585482870132,-68.256458196255,14.133113311331,3434952.7369864,-1944.3982932899,2705569.6028151,19.333113311331,0,0
82.585483272155,-68.273987787537,14.137543754375,3434952.7369864,-1944.3982932899,2705569.6028151,19.337543754375,0,0
82.585483674177,-68.291517378819,14.14197419742,3434952.7369864,-1944.3982932899,2705569.6028151,19.34197419742,0,0
82.5854840762,-68.309046970102,14.146404640464,3434952.7369864,-1944.3982932899,2705569.6028151,19.346404640464,0,0
82.585484478222,-68.326576561384,14.150835083508,3434952.7369864,-1944.3982932899,2705569.6028151,19.350835083508,0,0
82.585484880245,-68.344106152666,14.155265526553,3434952.7369864,-1944.3982932899,2705569.6028151,19.355265526553,0,0
82.585485282267,-68.361635743949,14.159695969597,3434952.7369864,-1944.3982932899,2705569.6028151,19.359695969597,0,0
82.58548568429,-68.379165335231,14.164126412641,3434952.7369864,-1944.3982932899,2705569.6028151,19.364126412641,0,0
82.585486086312,-68.396694926513,14.168556855686,3434952.7369864,-1944.3982932899,2705569.6028151,19.368556855686,0,0
82.585486488335,-68.414224517796,14.17298729873,3434952.7369864,-1944.3982932899,2705569.6028151,19.37298729873,0,0
82.585486890357,-68.431754109078,14.177417741774,3434952.7369864,-1944.3982932899,2705569.6028151,19.377417741774,0,0
82.585487292379,-68.44928370036,14.181848184818,3434952.7369864,-1944.3982932899,2705569.6028151,19.381848184818,0,0
82.585487694402,-68.466813291642,14.186278627863,3434952.7369864,-1944.3982932899,2705569.6028151,19.386278627863,0,0
82.585488096424,-68.484342882925,14.190709070907,3434952.7369864,-1944.3982932899,2705569.6028151,19.390709070907,0,0
82.585488498447,-68.501872474207,14.195139513951,3434952.7369864,-1944.3982932899,2705569.6028151,19.395139513951,0,0
82.585488900469,-68.519402065489,14.199569956996,3434952.7369864,-1944.3982932899,2705569.6028151,19.399569956996,0,0
82.585489302492,-68.536931656772,14.20400040004,3434952.7369864,-1944.3982932899,2705569.6028151,19.40400040004,0,0
82.585489704514,-68.554461248054,14.208430843084,3434952.7369864,-1944.3982932899,2705569.6028151,19.408430843084,0,0
82.585490106537,-68.571990839336,14.212861286129,3434952.7369864,-1944.3982932899,2705569.6028151,19.412861286129,0,0
82.585490508559,-68.589520430619,14.217291729173,3434952.7369864,-1944.3982932899,2705569.6028151,19.417291729173,0,0
82.585490910582,-68.607050021901,14.221722172217,3434952.7369864,-1944.3982932899,2705569.6028151,19.421722172217,0,0
82.585491312604,-68.624579613183,14.226152615262,3434952.7369864,-1944.3982932899,2705569.6028151,19.426152615262,0,0
82.585491714627,-68.642109204466,14.230583058306,3434952.7369864,-1944.3982932899,2705569.6028151,19.430583058306,0,0
82.585492116649,-68.659638795748,14.23501350135,3434952.7369864,-1944.3982932899,2705569.6028151,19.43501350135,0,0
82.585492518672,-68.67716838703,14.239443944394,3434952.7369864,-1944.3982932899,2705569.6028151,19.439443944394,0,0
82.585492920694,-68.694697978313,14.243874387439,3434952.7369864,-1944.3982932899,2705569.6028151,19.443874387439,0,0
82.585493322716,-68.712227569595,14.248304830483,3434952.7369864,-1944.3982932899,2705569.6028151,19.448304830483,0,0
82.585493724739,-68.729757160877,14.252735273527,3434952.7369864,-1944.3982932899,2705569.6028151,19.452735273527,0,0
82.585494126761,-68.74728675216,14.257165716572,3434952.7369864,-1944.3982932899,2705569.6028151,19.457165716572,0,0
82.585494528784,-68.764816343442,14.261596159616,3434952.7369864,-1944.3982932899,2705569.6028151,19.461596159616,0,0
82.585494930806,-68.782345934724,14.26602660266,3434952.7369864,-1944.3982932899,2705569.6028151,19.46602660266,0,0
82.585495332829,-68.799875526007,14.270457045705,3434952.7369864,-1944.3982932899,2705569.6028151,19.470457045705,0,0
82.585495734851,-68.817405117289,14.274887488749,3434952.7369864,-1944.3982932899,2705569.6028151,19.474887488749,0,0
82.585496136874,-68.834934708571,14.279317931793,3434952.7369864,-1944.3982932899,2705569.6028151,19.479317931793,0,0
82.585496538896,-68.852464299854,14.283748374837,3434952.7369864,-1944.3982932899,2705569.6028151,19.483748374837,0,0
82.585496940919,-68.869993891136,14.288178817882,3434952.7369864,-1944.3982932899,2705569.6028151,19.488178817882,0,0
82.585497342941,-68.887523482418,14.292609260926,3434952.7369864,-1944.3982932899,2705569.6028151,19.492609260926,0,0
82.585497744964,-68.905053073701,14.29703970397,3434952.7369864,-1944.3982932899,2705569.6028151,19.49703970397,0,0
82.585498146986,-68.922582664983,14.301470147015,3434952.7369864,-1944.3982932899,2705569.6028151,19.501470147015,0,0
82.585498549008,-68.940112256265,14.305900590059,3434952.7369864,-1944.3982932899,2705569.6028151,19.505900590059,0,0
82.585498951031,-68.957641847548,14.310331033103,3434952.7369864,-1944.3982932899,2705569.6028151,19.510331033103,0,0
82.585499353053,-68.97517143883,14.314761476148,3434952.7369864,-1944.3982932899,2705569.6028151,19.514761476148,0,0
82.585499755076,-68.992701030112,14.319191919192,3434952.7369864,-1944.3982932899,2705569.6028151,19.519191919192,0,0
82.585500157098,-69.010230621395,14.323622362236,3434952.7369864,-1944.3982932899,2705569.6028151,19.523622362236,0,0
82.585500559121,-69.027760212677,14.328052805281,3434952.7369864,-1944.3982932899,2705569.6028151,19.528052805281,0,0
82.585500961143,-69.045289803959,14.332483248325,3434952.7369864,-1944.3982932899,2705569.6028151,19.532483248325,0,0
82.585501363166,-69.062819395242,14.336913691369,3434952.7369864,-1944.3982932899,2705569.6028151,19.536913691369,0,0
82.585501765188,-69.080348986524,14.341344134413,3434952.7369864,-1944.3982932899,2705569.6028151,19.541344134413,0,0
82.585502167211,-69.097878577806,14.345774577458,3434952.7369864,-1944.3982932899,2705569.6028151,19.545774577458,0,0
82.585502569233,-69.115408169089,14.350205020502,3434952.7369864,-1944.3982932899,2705569.6028151,19.550205020502,0,0
82.585502971256,-69.132937760371,14.354635463546,3434952.7369864,-1944.3982932899,2705569.6028151,19.554635463546,0,0
82.585503373278,-69.150467351653,14.359065906591,3434952.7369864,-1944.3982932899,2705569.6028151,19.559065906591,0,0
82.585503775301,-69.167996942936,14.363496349635,3434952.7369864,-1944.3982932899,2705569.6028151,19.563496349635,0,0
82.585504177323,-69.185526534218,14.367926792679,3434952.7369864,-1944.3982932899,2705569.6028151,19.567926792679,0,0
82.585504579345,-69.2030561255,14.372357235724,3434952.7369864,-1944.3982932899,2705569.6028151,19.572357235724,0,0
82.585504981368,-69.220585716782,14.376787678768,3434952.7369864,-1944.3982932899,2705569.6028151,19.576787678768,0,0
82.58550538339,-69.238115308065,14.381218121812,3434952.7369864,-1944.3982932899,2705569.6028151,19.581218121812,0,0
82.585505785413,-69.255644899347,14.385648564856,3434952.7369864,-1944.3982932899,2705569.6028151,19.585648564856,0,0
82.585506187435,-69.273174490629,14.390079007901,3434952.7369864,-1944.3982932899,2705569.6028151,19.590079007901,0,0
82.585506589458,-69.290704081912,14.394509450945,3434952.7369864,-1944.3982932899,2705569.6028151,19.594509450945,0,0
82.58550699148,-69.308233673194,14.398939893989,3434952.7369864,-1944.3982932899,2705569.6028151,19.598939893989,0,0
82.585507393503,-69.325763264476,14.403370337034,3434952.7369864,-1944.3982932899,2705569.6028151,19.603370337034,0,0
82.585507795525,-69.343292855759,14.407800780078,3434952.7369864,-1944.3982932899,2705569.6028151,19.607800780078,0,0
82.585508197548,-69.360822447041,14.412231223122,3434952.7369864,-1944.3982932899,2705569.6028151,19.612231223122,0,0
82.58550859957,-69.378352038323,14.416661666167,3434952.7369864,-1944.3982932899,2705569.6028151,19.616661666167,0,0
82.585509001593,-69.395881629606,14.421092109211,3434952.7369864,-1944.3982932899,2705569.6028151,19.621092109211,0,0
82.585509403615,-69.413411220888,14.425522552255,3434952.7369864,-1944.3982932899,2705569.6028151,19.625522552255,0,0
82.585509805638,-69.43094081217,14.4299529953,3434952.7369864,-1944.3982932899,2705569.6028151,19.6299529953,0,0
82.58551020766,-69.448470403453,14.434383438344,3434952.7369864,-1944.3982932899,2705569.6028151,19.634383438344,0,0
82.585510609682,-69.465999994735,14.438813881388,3434952.7369864,-1944.3982932899,2705569.6028151,19.638813881388,0,0
82.585511011705,-69.483529586017,14.443244324432,3434952.7369864,-1944.3982932899,2705569.6028151,19.643244324432,0,0
82.585511413727,-69.5010591773,14.447674767477,3434952.7369864,-1944.3982932899,2705569.6028151,19.647674767477,0,0
82.58551181575,-69.518588768582,14.452105210521,3434952.7369864,-1944.3982932899,2705569.6028151,19.652105210521,0,0
82.585512217772,-69.536118359864,14.456535653565,3434952.7369864,-1944.3982932899,2705569.6028151,19.656535653565,0,0
82.585512619795,-69.553647951147,14.46096609661,3434952.7369864,-1944.3982932899,2705569.6028151,19.66096609661,0,0
82.585513021817,-69.571177542429,14.465396539654,3434952.7369864,-1944.3982932899,2705569.6028151,19.665396539654,0,0
82.58551342384,-69.588707133711,14.469826982698,3434952.7369864,-1944.3982932899,2705569.6028151,19.669826982698,0,0
82.585513825862,-69.606236724994,14.474257425743,3434952.7369864,-1944.3982932899,2705569.6028151,19.674257425743,0,0
82.585514227885,-69.623766316276,14.478687868787,3434952.7369864,-1944.3982932899,2705569.6028151,19.678687868787,0,0
82.585514629907,-69.641295907558,14.483118311831,3434952.7369864,-1944.3982932899,2705569.6028151,19.683118311831,0,0
82.58551503193,-69.658825498841,14.487548754875,3434952.7369864,-1944.3982932899,2705569.6028151,19.687548754875,0,0
82.585515433952,-69.676355090123,14.49197919792,3434952.7369864,-1944.3982932899,2705569.6028151,19.69197919792,0,0
82.585515835974,-69.693884681405,14.496409640964,3434952.7369864,-1944.3982932899,2705569.6028151,19.696409640964,0,0
82.585516237997,-69.711414272688,14.500840084008,3434952.7369864,-1944.3982932899,2705569.6028151,19.700840084008,0,0
82.585516640019,-69.72894386397,14.505270527053,3434952.7369864,-1944.3982932899,2705569.6028151,19.705270527053,0,0
82.585517042042,-69.746473455252,14.509700970097,3434952.7369864,-1944.3982932899,2705569.6028151,19.709700970097,0,0
82.585517444064,-69.764003046535,14.514131413141,3434952.7369864,-1944.3982932899,2705569.6028151,19.714131413141,0,0
82.585517846087,-69.781532637817,14.518561856186,3434952.7369864,-1944.3982932899,2705569.6028151,19.718561856186,0,0
82.585518248109,-69.799062229099,14.52299229923,3434952.7369864,-1944.3982932899,2705569.6028151,19.72299229923,0,0
82.585518650132,-69.816591820382,14.527422742274,3434952.7369864,-1944.3982932899,2705569.6028151,19.727422742274,0,0
82.585519052154,-69.834121411664,14.531853185319,3434952.7369864,-1944.3982932899,2705569.6028151,19.731853185319,0,0
82.585519454177,-69.851651002946,14.536283628363,3434952.7369864,-1944.3982932899,2705569.6028151,19.736283628363,0,0
82.585519856199,-69.869180594229,14.540714071407,3434952.7369864,-1944.3982932899,2705569.6028151,19.740714071407,0,0
82.585520258222,-69.886710185511,14.545144514451,3434952.7369864,-1944.3982932899,2705569.6028151,19.745144514451,0,0
82.585520660244,-69.904239776793,14.549574957496,3434952.7369864,-1944.3982932899,2705569.6028151,19.749574957496,0,0
82.585521062267,-69.921769368075,14.55400540054,3434952.7369864,-1944.3982932899,2705569.6028151,19.75400540054,0,0
82.585521464289,-69.939298959358,14.558435843584,3434952.7369864,-1944.3982932899,2705569.6028151,19.758435843584,0,0
82.585521866311,-69.95682855064,14.562866286629,3434952.7369864,-1944.3982932899,2705569.6028151,19.762866286629,0,0
82.585522268334,-69.974358141922,14.567296729673,3434952.7369864,-1944.3982932899,2705569.6028151,19.767296729673,0,0
82.585522670356,-69.991887733205,14.571727172717,3434952.7369864,-1944.3982932899,2705569.6028151,19.771727172717,0,0
82.585523072379,-70.009417324487,14.576157615762,3434952.7369864,-1944.3982932899,2705569.6028151,19.776157615762,0,0
82.585523474401,-70.026946915769,14.580588058806,3434952.7369864,-1944.3982932899,2705569.6028151,19.780588058806,0,0
82.585523876424,-70.044476507052,14.58501850185,3434952.7369864,-1944.3982932899,2705569.6028151,19.78501850185,0,0
82.585524278446,-70.062006098334,14.589448944894,3434952.7369864,-1944.3982932899,2705569.6028151,19.789448944894,0,0
82.585524680469,-70.079535689616,14.593879387939,3434952.7369864,-1944.3982932899,2705569.6028151,19.793879387939,0,0
82.585525082491,-70.097065280899,14.598309830983,3434952.7369864,-1944.3982932899,2705569.6028151,19.798309830983,0,0
82.585525484514,-70.114594872181,14.602740274027,3434952.7369864,-1944.3982932899,2705569.6028151,19.802740274027,0,0
82.585525886536,-70.132124463463,14.607170717072,3434952.7369864,-1944.3982932899,2705569.6028151,19.807170717072,0,0
82.585526288559,-70.149654054746,14.611601160116,3434952.7369864,-1944.3982932899,2705569.6028151,19.811601160116,0,0
82.585526690581,-70.167183646028,14.61603160316,3434952.7369864,-1944.3982932899,2705569.6028151,19.81603160316,0,0
82.585527092604,-70.18471323731,14.620462046205,3434952.7369864,-1944.3982932899,2705569.6028151,19.820462046205,0,0
82.585527494626,-70.202242828593,14.624892489249,3434952.7369864,-1944.3982932899,2705569.6028151,19.824892489249,0,0
82.585527896648,-70.219772419875,14.629322932293,3434952.7369864,-1944.3982932899,2705569.6028151,19.829322932293,0,0
82.585528298671,-70.237302011157,14.633753375338,3434952.7369864,-1944.3982932899,2705569.6028151,19.833753375338,0,0
82.585528700693,-70.25483160244,14.638183818382,3434952.7369864,-1944.3982932899,2705569.6028151,19.838183818382,0,0
82.585529102716,-70.272361193722,14.642614261426,3434952.7369864,-1944.3982932899,2705569.6028151,19.842614261426,0,0
82.585529504738,-70.289890785004,14.64704470447,3434952.7369864,-1944.3982932899,2705569.6028151,19.84704470447,0,0
82.585529906761,-70.307420376287,14.651475147515,3434952.7369864,-1944.3982932899,2705569.6028151,19.851475147515,0,0
82.585530308783,-70.324949967569,14.655905590559,3434952.7369864,-1944.3982932899,2705569.6028151,19.855905590559,0,0
82.585530710806,-70.342479558851,14.660336033603,3434952.7369864,-1944.3982932899,2705569.6028151,19.860336033603,0,0
82.585531112828,-70.360009150134,14.664766476648,3434952.7369864,-1944.3982932899,2705569.6028151,19.864766476648,0,0
82.585531514851,-70.377538741416,14.669196919692,3434952.7369864,-1944.3982932899,2705569.6028151,19.869196919692,0,0
82.585531916873,-70.395068332698,14.673627362736,3434952.7369864,-1944.3982932899,2705569.6028151,19.873627362736,0,0
82.585532318896,-70.412597923981,14.678057805781,3434952.7369864,-1944.3982932899,2705569.6028151,19.878057805781,0,0
82.585532720918,-70.430127515263,14.682488248825,3434952.7369864,-1944.3982932899,2705569.6028151,19.882488248825,0,0
82.58553312294,-70.447657106545,14.686918691869,3434952.7369864,-1944.3982932899,2705569.6028151,19.886918691869,0,0
82.585533527677,-70.465186695543,14.691349134913,3468847.0043599,2370.3351462245,2701604.4900998,19.891349134913,0,0
82.585533932513,-70.482716284458,14.695779577958,3468847.0043599,2370.3351462245,2701604.4900998,19.895779577958,0,0
82.585534337348,-70.500245873372,14.700210021002,3468847.0043599,2370.3351462245,2701604.4900998,19.900210021002,0,0
82.585534742184,-70.517775462287,14.704640464046,3468847.0043599,2370.3351462245,2701604.4900998,19.904640464046,0,0
82.585535147019,-70.535305051202,14.709070907091,3468847.0043599,2370.3351462245,2701604.4900998,19.909070907091,0,0
82.585535551854,-70.552834640117,14.713501350135,3468847.0043599,2370.3351462245,2701604.4900998,19.913501350135,0,0
82.58553595669,-70.570364229032,14.717931793179,3468847.0043599,2370.3351462245,2701604.4900998,19.917931793179,0,0
82.585536361525,-70.587893817946,14.722362236224,3468847.0043599,2370.3351462245,2701604.4900998,19.922362236224,0,0
82.58553676636,-70.605423406861,14.726792679268,3468847.0043599,2370.3351462245,2701604.4900998,19.926792679268,0,0
82.585537171196,-70.622952995776,14.731223122312,3468847.0043599,2370.3351462245,2701604.4900998,19.931223122312,0,0
82.585537576031,-70.640482584691,14.735653565357,3468847.0043599,2370.3351462245,2701604.4900998,19.935653565357,0,0
82.585537980867,-70.658012173605,14.740084008401,3468847.0043599,2370.3351462245,2701604.4900998,19.940084008401,0,0
82.585538385702,-70.67554176252,14.744514451445,3468847.0043599,2370.3351462245,2701604.4900998,19.944514451445,0,0
82.585538790537,-70.693071351435,14.748944894489,3468847.0043599,2370.3351462245,2701604.4900998,19.948944894489,0,0
82.585539195373,-70.71060094035,14.753375337534,3468847.0043599,2370.3351462245,2701604.4900998,19.953375337534,0,0
82.585539600208,-70.728130529265,14.757805780578,3468847.0043599,2370.3351462245,2701604.4900998,19.957805780578,0,0
82.585540005043,-70.745660118179,14.762236223622,3468847.0043599,2370.3351462245,2701604.4900998,19.962236223622,0,0
82.585540409879,-70.763189707094,14.766666666667,3468847.0043599,2370.3351462245,2701604.4900998,19.966666666667,0,0
82.585540814714,-70.780719296009,14.771097109711,3468847.0043599,2370.3351462245,2701604.4900998,19.971097109711,0,0
82.585541219549,-70.798248884924,14.775527552755,3468847.0043599,2370.3351462245,2701604.4900998,19.975527552755,0,0
82.585541624385,-70.815778473838,14.7799579958,3468847.0043599,2370.3351462245,2701604.4900998,19.9799579958,0,0
82.58554202922,-70.833308062753,14.784388438844,3468847.0043599,2370.3351462245,2701604.4900998,19.984388438844,0,0
82.585542434056,-70.850837651668,14.788818881888,3468847.0043599,2370.3351462245,2701604.4900998,19.988818881888,0,0
82.585542838891,-70.868367240583,14.793249324932,3468847.0043599,2370.3351462245,2701604.4900998,19.993249324932,0,0
82.585543243726,-70.885896829498,14.797679767977,3468847.0043599,2370.3351462245,2701604.4900998,19.997679767977,0,0
82.585543648562,-70.903426418412,14.802110211021,3468847.0043599,2370.3351462245,2701604.4900998,20.002110211021,0,0
82.585544053397,-70.920956007327,14.806540654065,3468847.0043599,2370.3351462245,2701604.4900998,20.006540654065,0,0
82.585544458232,-70.938485596242,14.81097109711,3468847.0043599,2370.3351462245,2701604.4900998,20.01097109711,0,0
82.585544863068,-70.956015185157,14.815401540154,3468847.0043599,2370.3351462245,2701604.4900998,20.015401540154,0,0
82.585545267903,-70.973544774071,14.819831983198,3468847.0043599,2370.3351462245,2701604.4900998,20.019831983198,0,0
82.585545672739,-70.991074362986,14.824262426243,3468847.0043599,2370.3351462245,2701604.4900998,20.024262426243,0,0
82.585546077574,-71.008603951901,14.828692869287,3468847.0043599,2370.3351462245,2701604.4900998,20.028692869287,0,0
82.585546482409,-71.026133540816,14.833123312331,3468847.0043599,2370.3351462245,2701604.4900998,20.033123312331,0,0
82.585546887245,-71.043663129731,14.837553755376,3468847.0043599,2370.3351462245,2701604.4900998,20.037553755376,0,0
82.58554729208,-71.061192718645,14.84198419842,3468847.0043599,2370.3351462245,2701604.4900998,20.04198419842,0,0
82.585547696915,-71.07872230756,14.846414641464,3468847.0043599,2370.3351462245,2701604.4900998,20.046414641464,0,0
82.585548101751,-71.096251896475,14.850845084508,3468847.0043599,2370.3351462245,2701604.4900998,20.050845084508,0,0
82.585548506586,-71.11378148539,14.855275527553,3468847.0043599,2370.3351462245,2701604.4900998,20.055275527553,0,0
82.585548911421,-71.131311074305,14.859705970597,3468847.0043599,2370.3351462245,2701604.4900998,20.059705970597,0,0
82.585549316257,-71.148840663219,14.864136413641,3468847.0043599,2370.3351462245,2701604.4900998,20.064136413641,0,0
82.585549721092,-71.166370252134,14.868566856686,3468847.0043599,2370.3351462245,2701604.4900998,20.068566856686,0,0
82.585550125928,-71.183899841049,14.87299729973,3468847.0043599,2370.3351462245,2701604.4900998,20.07299729973,0,0
82.585550530763,-71.201429429964,14.877427742774,3468847.0043599,2370.3351462245,2701604.4900998,20.077427742774,0,0
82.585550935598,-71.218959018878,14.881858185819,3468847.0043599,2370.3351462245,2701604.4900998,20.081858185819,0,0
82.585551340434,-71.236488607793,14.886288628863,3468847.0043599,2370.3351462245,2701604.4900998,20.086288628863,0,0
82.585551745269,-71.254018196708,14.890719071907,3468847.0043599,2370.3351462245,2701604.4900998,20.090719071907,0,0
82.585552150104,-71.271547785623,14.895149514951,3468847.0043599,2370.3351462245,2701604.4900998,20.095149514951,0,0
82.58555255494,-71.289077374538,14.899579957996,3468847.0043599,2370.3351462245,2701604.4900998,20.099579957996,0,0
82.585552959775,-71.306606963452,14.90401040104,3468847.0043599,2370.3351462245,2701604.4900998,20.10401040104,0,0
82.585553364611,-71.324136552367,14.908440844084,3468847.0043599,2370.3351462245,2701604.4900998,20.108440844084,0,0
82.585553769446,-71.341666141282,14.912871287129,3468847.0043599,2370.3351462245,2701604.4900998,20.112871287129,0,0
82.585554174281,-71.359195730197,14.917301730173,3468847.0043599,2370.3351462245,2701604.4900998,20.117301730173,0,0
82.585554579117,-71.376725319111,14.921732173217,3468847.0043599,2370.3351462245,2701604.4900998,20.121732173217,0,0
82.585554983952,-71.394254908026,14.926162616262,3468847.0043599,2370.3351462245,2701604.4900998,20.126162616262,0,0
82.585555388787,-71.411784496941,14.930593059306,3468847.0043599,2370.3351462245,2701604.4900998,20.130593059306,0,0
82.585555793623,-71.429314085856,14.93502350235,3468847.0043599,2370.3351462245,2701604.4900998,20.13502350235,0,0
82.585556198458,-71.446843674771,14.939453945395,3468847.0043599,2370.3351462245,2701604.4900998,20.139453945395,0,0
82.585556603293,-71.464373263685,14.943884388439,3468847.0043599,2370.3351462245,2701604.4900998,20.143884388439,0,0
82.585557008129,-71.4819028526,14.948314831483,3468847.0043599,2370.3351462245,2701604.4900998,20.148314831483,0,0
82.585557412964,-71.499432441515,14.952745274527,3468847.0043599,2370.3351462245,2701604.4900998,20.152745274527,0,0
82.5855578178,-71.51696203043,14.957175717572,3468847.0043599,2370.3351462245,2701604.4900998,20.157175717572,0,0
82.585558222635,-71.534491619344,14.961606160616,3468847.0043599,2370.3351462245,2701604.4900998,20.161606160616,0,0
82.58555862747,-71.552021208259,14.96603660366,3468847.0043599,2370.3351462245,2701604.4900998,20.16603660366,0,0
82.585559032306,-71.569550797174,14.970467046705,3468847.0043599,2370.3351462245,2701604.4900998,20.170467046705,0,0
82.585559437141,-71.587080386089,14.974897489749,3468847.0043599,2370.3351462245,2701604.4900998,20.174897489749,0,0
82.585559841976,-71.604609975004,14.979327932793,3468847.0043599,2370.3351462245,2701604.4900998,20.179327932793,0,0
82.585560246812,-71.622139563918,14.983758375838,3468847.0043599,2370.3351462245,2701604.4900998,20.183758375838,0,0
82.585560651647,-71.639669152833,14.988188818882,3468847.0043599,2370.3351462245,2701604.4900998,20.188188818882,0,0
82.585561056483,-71.657198741748,14.992619261926,3468847.0043599,2370.3351462245,2701604.4900998,20.192619261926,0,0
82.585561461318,-71.674728330663,14.99704970497,3468847.0043599,2370.3351462245,2701604.4900998,20.19704970497,0,0
82.585561866153,-71.692257919578,15.001480148015,3468847.0043599,2370.3351462245,2701604.4900998,20.201480148015,0,0
82.585562270989,-71.709787508492,15.005910591059,3468847.0043599,2370.3351462245,2701604.4900998,20.205910591059,0,0
82.585562675824,-71.727317097407,15.010341034103,3468847.0043599,2370.3351462245,2701604.4900998,20.210341034103,0,0
82.585563080659,-71.744846686322,15.014771477148,3468847.0043599,2370.3351462245,2701604.4900998,20.214771477148,0,0
82.585563485495,-71.762376275237,15.019201920192,3468847.0043599,2370.3351462245,2701604.4900998,20.219201920192,0,0
82.58556389033,-71.779905864151,15.023632363236,3468847.0043599,2370.3351462245,2701604.4900998,20.223632363236,0,0
82.585564295165,-71.797435453066,15.028062806281,3468847.0043599,2370.3351462245,2701604.4900998,20.228062806281,0,0
82.585564700001,-71.814965041981,15.032493249325,3468847.0043599,2370.3351462245,2701604.4900998,20.232493249325,0,0
82.585565104836,-71.832494630896,15.036923692369,3468847.0043599,2370.3351462245,2701604.4900998,20.236923692369,0,0
82.585565509672,-71.850024219811,15.041354135414,3468847.0043599,2370.3351462245,2701604.4900998,20.241354135414,0,0
82.585565914507,-71.867553808725,15.045784578458,3468847.0043599,2370.3351462245,2701604.4900998,20.245784578458,0,0
82.585566319342,-71.88508339764,15.050215021502,3468847.0043599,2370.3351462245,2701604.4900998,20.250215021502,0,0
82.585566724178,-71.902612986555,15.054645464546,3468847.0043599,2370.3351462245,2701604.4900998,20.254645464546,0,0
82.585567129013,-71.92014257547,15.059075907591,3468847.0043599,2370.3351462245,2701604.4900998,20.259075907591,0,0
82.585567533848,-71.937672164384,15.063506350635,3468847.0043599,2370.3351462245,2701604.4900998,20.263506350635,0,0
82.585567938684,-71.955201753299,15.067936793679,3468847.0043599,2370.3351462245,2701604.4900998,20.267936793679,0,0
82.585568343519,-71.972731342214,15.072367236724,3468847.0043599,2370.3351462245,2701604.4900998,20.272367236724,0,0
82.585568748355,-71.990260931129,15.076797679768,3468847.0043599,2370.3351462245,2701604.4900998,20.276797679768,0,0
82.58556915319,-72.007790520044,15.081228122812,3468847.0043599,2370.3351462245,2701604.4900998,20.281228122812,0,0
82.585569558025,-72.025320108958,15.085658565857,3468847.0043599,2370.3351462245,2701604.4900998,20.285658565857,0,0
82.585569962861,-72.042849697873,15.090089008901,3468847.0043599,2370.3351462245,2701604.4900998,20.290089008901,0,0
82.585570367696,-72.060379286788,15.094519451945,3468847.0043599,2370.3351462245,2701604.4900998,20.294519451945,0,0
82.585570772531,-72.077908875703,15.098949894989,3468847.0043599,2370.3351462245,2701604.4900998,20.298949894989,0,0
82.585571177367,-72.095438464617,15.103380338034,3468847.0043599,2370.3351462245,2701604.4900998,20.303380338034,0,0
82.585571582202,-72.112968053532,15.107810781078,3468847.0043599,2370.3351462245,2701604.4900998,20.307810781078,0,0
82.585571987037,-72.130497642447,15.112241224122,3468847.0043599,2370.3351462245,2701604.4900998,20.312241224122,0,0
82.585572391873,-72.148027231362,15.116671667167,3468847.0043599,2370.3351462245,2701604.4900998,20.316671667167,0,0
82.585572796708,-72.165556820277,15.121102110211,3468847.0043599,2370.3351462245,2701604.4900998,20.321102110211,0,0
82.585573201544,-72.183086409191,15.125532553255,3468847.0043599,2370.3351462245,2701604.4900998,20.325532553255,0,0
82.585573606379,-72.200615998106,15.1299629963,3468847.0043599,2370.3351462245,2701604.4900998,20.3299629963,0,0
82.585574011214,-72.218145587021,15.134393439344,3468847.0043599,2370.3351462245,2701604.4900998,20.334393439344,0,0
82.58557441605,-72.235675175936,15.138823882388,3468847.0043599,2370.3351462245,2701604.4900998,20.338823882388,0,0
82.585574820885,-72.253204764851,15.143254325433,3468847.0043599,2370.3351462245,2701604.4900998,20.343254325433,0,0
82.58557522572,-72.270734353765,15.147684768477,3468847.0043599,2370.3351462245,2701604.4900998,20.347684768477,0,0
82.585575630556,-72.28826394268,15.152115211521,3468847.0043599,2370.3351462245,2701604.4900998,20.352115211521,0,0
82.585576035391,-72.305793531595,15.156545654565,3468847.0043599,2370.3351462245,2701604.4900998,20.356545654565,0,0
82.585576440227,-72.32332312051,15.16097609761,3468847.0043599,2370.3351462245,2701604.4900998,20.36097609761,0,0
82.585576845062,-72.340852709424,15.165406540654,3468847.0043599,2370.3351462245,2701604.4900998,20.365406540654,0,0
82.585577249897,-72.358382298339,15.169836983698,3468847.0043599,2370.3351462245,2701604.4900998,20.369836983698,0,0
82.585577654733,-72.375911887254,15.174267426743,3468847.0043599,2370.3351462245,2701604.4900998,20.374267426743,0,0
82.585578059568,-72.393441476169,15.178697869787,3468847.0043599,2370.3351462245,2701604.4900998,20.378697869787,0,0
82.585578464403,-72.410971065084,15.183128312831,3468847.0043599,2370.3351462245,2701604.4900998,20.383128312831,0,0
82.585578869239,-72.428500653998,15.187558755876,3468847.0043599,2370.3351462245,2701604.4900998,20.387558755876,0,0
82.585579274074,-72.446030242913,15.19198919892,3468847.0043599,2370.3351462245,2701604.4900998,20.39198919892,0,0
82.585579678909,-72.463559831828,15.196419641964,3468847.0043599,2370.3351462245,2701604.4900998,20.396419641964,0,0
82.585580083745,-72.481089420743,15.200850085009,3468847.0043599,2370.3351462245,2701604.4900998,20.400850085008,0,0
82.58558048858,-72.498619009657,15.205280528053,3468847.0043599,2370.3351462245,2701604.4900998,20.405280528053,0,0
82.585580893416,-72.516148598572,15.209710971097,3468847.0043599,2370.3351462245,2701604.4900998,20.409710971097,0,0
82.585581298251,-72.533678187487,15.214141414141,3468847.0043599,2370.3351462245,2701604.4900998,20.414141414141,0,0
82.585581703086,-72.551207776402,15.218571857186,3468847.0043599,2370.3351462245,2701604.4900998,20.418571857186,0,0
82.585582107922,-72.568737365317,15.22300230023,3468847.0043599,2370.3351462245,2701604.4900998,20.42300230023,0,0
82.585582512757,-72.586266954231,15.227432743274,3468847.0043599,2370.3351462245,2701604.4900998,20.427432743274,0,0
82.585582917592,-72.603796543146,15.231863186319,3468847.0043599,2370.3351462245,2701604.4900998,20.431863186319,0,0
82.585583322428,-72.621326132061,15.236293629363,3468847.0043599,2370.3351462245,2701604.4900998,20.436293629363,0,0
82.585583727263,-72.638855720976,15.240724072407,3468847.0043599,2370.3351462245,2701604.4900998,20.440724072407,0,0
82.585584132098,-72.656385309891,15.245154515452,3468847.0043599,2370.3351462245,2701604.4900998,20.445154515452,0,0
82.585584536934,-72.673914898805,15.249584958496,3468847.0043599,2370.3351462245,2701604.4900998,20.449584958496,0,0
82.585584941769,-72.69144448772,15.25401540154,3468847.0043599,2370.3351462245,2701604.4900998,20.45401540154,0,0
82.585585346605,-72.708974076635,15.258445844584,3468847.0043599,2370.3351462245,2701604.4900998,20.458445844584,0,0
82.58558575144,-72.72650366555,15.262876287629,3468847.0043599,2370.3351462245,2701604.4900998,20.462876287629,0,0
82.585586156275,-72.744033254464,15.267306730673,3468847.0043599,2370.3351462245,2701604.4900998,20.467306730673,0,0
82.585586561111,-72.761562843379,15.271737173717,3468847.0043599,2370.3351462245,2701604.4900998,20.471737173717,0,0
82.585586965946,-72.779092432294,15.276167616762,3468847.0043599,2370.3351462245,2701604.4900998,20.476167616762,0,0
82.585587370781,-72.796622021209,15.280598059806,3468847.0043599,2370.3351462245,2701604.4900998,20.480598059806,0,0
82.585587775617,-72.814151610124,15.28502850285,3468847.0043599,2370.3351462245,2701604.4900998,20.48502850285,0,0
82.585588180452,-72.831681199038,15.289458945895,3468847.0043599,2370.3351462245,2701604.4900998,20.489458945895,0,0
82.585588585288,-72.849210787953,15.293889388939,3468847.0043599,2370.3351462245,2701604.4900998,20.493889388939,0,0
82.585588990123,-72.866740376868,15.298319831983,3468847.0043599,2370.3351462245,2701604.4900998,20.498319831983,0,0
82.585589394958,-72.884269965783,15.302750275028,3468847.0043599,2370.3351462245,2701604.4900998,20.502750275028,0,0
82.585589799794,-72.901799554697,15.307180718072,3468847.0043599,2370.3351462245,2701604.4900998,20.507180718072,0,0
82.585590204629,-72.919329143612,15.311611161116,3468847.0043599,2370.3351462245,2701604.4900998,20.511611161116,0,0
82.585590609464,-72.936858732527,15.31604160416,3468847.0043599,2370.3351462245,2701604.4900998,20.51604160416,0,0
82.5855910143,-72.954388321442,15.320472047205,3468847.0043599,2370.3351462245,2701604.4900998,20.520472047205,0,0
82.585591419135,-72.971917910357,15.324902490249,3468847.0043599,2370.3351462245,2701604.4900998,20.524902490249,0,0
82.585591823971,-72.989447499271,15.329332933293,3468847.0043599,2370.3351462245,2701604.4900998,20.529332933293,0,0
82.585592228806,-73.006977088186,15.333763376338,3468847.0043599,2370.3351462245,2701604.4900998,20.533763376338,0,0
82.585592633641,-73.024506677101,15.338193819382,3468847.0043599,2370.3351462245,2701604.4900998,20.538193819382,0,0
82.585593038477,-73.042036266016,15.342624262426,3468847.0043599,2370.3351462245,2701604.4900998,20.542624262426,0,0
82.585593443312,-73.05956585493,15.347054705471,3468847.0043599,2370.3351462245,2701604.4900998,20.547054705471,0,0
82.585593848147,-73.077095443845,15.351485148515,3468847.0043599,2370.3351462245,2701604.4900998,20.551485148515,0,0
82.585594253873,-73.094625034348,15.355915591559,3479546.1924341,-4264.8371004362,2684500.2664368,20.555915591559,0,0
82.585594660018,-73.112154625602,15.360346034603,3479546.1924341,-4264.8371004362,2684500.2664368,20.560346034603,0,0
82.585595066163,-73.129684216855,15.364776477648,3479546.1924341,-4264.8371004362,2684500.2664368,20.564776477648,0,0
82.585595472309,-73.147213808108,15.369206920692,3479546.1924341,-4264.8371004362,2684500.2664368,20.569206920692,0,0
82.585595878454,-73.164743399361,15.373637363736,3479546.1924341,-4264.8371004362,2684500.2664368,20.573637363736,0,0
82.585596284599,-73.182272990614,15.378067806781,3479546.1924341,-4264.8371004362,2684500.2664368,20.578067806781,0,0
82.585596690745,-73.199802581867,15.382498249825,3479546.1924341,-4264.8371004362,2684500.2664368,20.582498249825,0,0
82.58559709689,-73.21733217312,15.386928692869,3479546.1924341,-4264.8371004362,2684500.2664368,20.586928692869,0,0
82.585597503036,-73.234861764373,15.391359135914,3479546.1924341,-4264.8371004362,2684500.2664368,20.591359135914,0,0
82.585597909181,-73.252391355626,15.395789578958,3479546.1924341,-4264.8371004362,2684500.2664368,20.595789578958,0,0
82.585598315326,-73.269920946879,15.400220022002,3479546.1924341,-4264.8371004362,2684500.2664368,20.600220022002,0,0
82.585598721472,-73.287450538132,15.404650465047,3479546.1924341,-4264.8371004362,2684500.2664368,20.604650465047,0,0
82.585599127617,-73.304980129385,15.409080908091,3479546.1924341,-4264.8371004362,2684500.2664368,20.609080908091,0,0
82.585599533763,-73.322509720639,15.413511351135,3479546.1924341,-4264.8371004362,2684500.2664368,20.613511351135,0,0
82.585599939908,-73.340039311892,15.417941794179,3479546.1924341,-4264.8371004362,2684500.2664368,20.617941794179,0,0
82.585600346053,-73.357568903145,15.422372237224,3479546.1924341,-4264.8371004362,2684500.2664368,20.622372237224,0,0
82.585600752199,-73.375098494398,15.426802680268,3479546.1924341,-4264.8371004362,2684500.2664368,20.626802680268,0,0
82.585601158344,-73.392628085651,15.431233123312,3479546.1924341,-4264.8371004362,2684500.2664368,20.631233123312,0,0
82.585601564489,-73.410157676904,15.435663566357,3479546.1924341,-4264.8371004362,2684500.2664368,20.635663566357,0,0
82.585601970635,-73.427687268157,15.440094009401,3479546.1924341,-4264.8371004362,2684500.2664368,20.640094009401,0,0
82.58560237678,-73.44521685941,15.444524452445,3479546.1924341,-4264.8371004362,2684500.2664368,20.644524452445,0,0
82.585602782926,-73.462746450663,15.44895489549,3479546.1924341,-4264.8371004362,2684500.2664368,20.64895489549,0,0
82.585603189071,-73.480276041916,15.453385338534,3479546.1924341,-4264.8371004362,2684500.2664368,20.653385338534,0,0
82.585603595216,-73.497805633169,15.457815781578,3479546.1924341,-4264.8371004362,2684500.2664368,20.657815781578,0,0
82.585604001362,-73.515335224423,15.462246224622,3479546.1924341,-4264.8371004362,2684500.2664368,20.662246224622,0,0
82.585604407507,-73.532864815676,15.466676667667,3479546.1924341,-4264.8371004362,2684500.2664368,20.666676667667,0,0
82.585604813652,-73.550394406929,15.471107110711,3479546.1924341,-4264.8371004362,2684500.2664368,20.671107110711,0,0
82.585605219798,-73.567923998182,15.475537553755,3479546.1924341,-4264.8371004362,2684500.2664368,20.675537553755,0,0
82.585605625943,-73.585453589435,15.4799679968,3479546.1924341,-4264.8371004362,2684500.2664368,20.6799679968,0,0
82.585606032089,-73.602983180688,15.484398439844,3479546.1924341,-4264.8371004362,2684500.2664368,20.684398439844,0,0
82.585606438234,-73.620512771941,15.488828882888,3479546.1924341,-4264.8371004362,2684500.2664368,20.688828882888,0,0
82.585606844379,-73.638042363194,15.493259325933,3479546.1924341,-4264.8371004362,2684500.2664368,20.693259325933,0,0
82.585607250525,-73.655571954447,15.497689768977,3479546.1924341,-4264.8371004362,2684500.2664368,20.697689768977,0,0
82.58560765667,-73.6731015457,15.502120212021,3479546.1924341,-4264.8371004362,2684500.2664368,20.702120212021,0,0
82.585608062815,-73.690631136953,15.506550655066,3479546.1924341,-4264.8371004362,2684500.2664368,20.706550655066,0,0
82.585608468961,-73.708160728206,15.51098109811,3479546.1924341,-4264.8371004362,2684500.2664368,20.71098109811,0,0
82.585608875106,-73.72569031946,15.515411541154,3479546.1924341,-4264.8371004362,2684500.2664368,20.715411541154,0,0
82.585609281252,-73.743219910713,15.519841984198,3479546.1924341,-4264.8371004362,2684500.2664368,20.719841984198,0,0
82.585609687397,-73.760749501966,15.524272427243,3479546.1924341,-4264.8371004362,2684500.2664368,20.724272427243,0,0
82.585610093542,-73.778279093219,15.528702870287,3479546.1924341,-4264.8371004362,2684500.2664368,20.728702870287,0,0
82.585610499688,-73.795808684472,15.533133313331,3479546.1924341,-4264.8371004362,2684500.2664368,20.733133313331,0,0
82.585610905833,-73.813338275725,15.537563756376,3479546.1924341,-4264.8371004362,2684500.2664368,20.737563756376,0,0
82.585611311978,-73.830867866978,15.54199419942,3479546.1924341,-4264.8371004362,2684500.2664368,20.74199419942,0,0
82.585611718124,-73.848397458231,15.546424642464,3479546.1924341,-4264.8371004362,2684500.2664368,20.746424642464,0,0
82.585612124269,-73.865927049484,15.550855085509,3479546.1924341,-4264.8371004362,2684500.2664368,20.750855085509,0,0
82.585612530415,-73.883456640737,15.555285528553,3479546.1924341,-4264.8371004362,2684500.2664368,20.755285528553,0,0
82.58561293656,-73.900986231991,15.559715971597,3479546.1924341,-4264.8371004362,2684500.2664368,20.759715971597,0,0
82.585613342705,-73.918515823244,15.564146414641,3479546.1924341,-4264.8371004362,2684500.2664368,20.764146414641,0,0
82.585613748851,-73.936045414497,15.568576857686,3479546.1924341,-4264.8371004362,2684500.2664368,20.768576857686,0,0
82.585614154996,-73.95357500575,15.57300730073,3479546.1924341,-4264.8371004362,2684500.2664368,20.77300730073,0,0
82.585614561142,-73.971104597003,15.577437743774,3479546.1924341,-4264.8371004362,2684500.2664368,20.777437743774,0,0
82.585614967287,-73.988634188256,15.581868186819,3479546.1924341,-4264.8371004362,2684500.2664368,20.781868186819,0,0
82.585615373432,-74.006163779509,15.586298629863,3479546.1924341,-4264.8371004362,2684500.2664368,20.786298629863,0,0
82.585615779578,-74.023693370762,15.590729072907,3479546.1924341,-4264.8371004362,2684500.2664368,20.790729072907,0,0
82.585616185723,-74.041222962015,15.595159515952,3479546.1924341,-4264.8371004362,2684500.2664368,20.795159515952,0,0
82.585616591868,-74.058752553268,15.599589958996,3479546.1924341,-4264.8371004362,2684500.2664368,20.799589958996,0,0
82.585616998014,-74.076282144521,15.60402040204,3479546.1924341,-4264.8371004362,2684500.2664368,20.80402040204,0,0
82.585617404159,-74.093811735774,15.608450845085,3479546.1924341,-4264.8371004362,2684500.2664368,20.808450845085,0,0
82.585617810305,-74.111341327028,15.612881288129,3479546.1924341,-4264.8371004362,2684500.2664368,20.812881288129,0,0
82.58561821645,-74.128870918281,15.617311731173,3479546.1924341,-4264.8371004362,2684500.2664368,20.817311731173,0,0
82.585618622595,-74.146400509534,15.621742174217,3479546.1924341,-4264.8371004362,2684500.2664368,20.821742174217,0,0
82.585619028741,-74.163930100787,15.626172617262,3479546.1924341,-4264.8371004362,2684500.2664368,20.826172617262,0,0
82.585619434886,-74.18145969204,15.630603060306,3479546.1924341,-4264.8371004362,2684500.2664368,20.830603060306,0,0
82.585619841031,-74.198989283293,15.63503350335,3479546.1924341,-4264.8371004362,2684500.2664368,20.83503350335,0,0
82.585620247177,-74.216518874546,15.639463946395,3479546.1924341,-4264.8371004362,2684500.2664368,20.839463946395,0,0
82.585620653322,-74.234048465799,15.643894389439,3479546.1924341,-4264.8371004362,2684500.2664368,20.843894389439,0,0
82.585621059468,-74.251578057052,15.648324832483,3479546.1924341,-4264.8371004362,2684500.2664368,20.848324832483,0,0
82.585621465613,-74.269107648305,15.652755275528,3479546.1924341,-4264.8371004362,2684500.2664368,20.852755275528,0,0
82.585621871758,-74.286637239558,15.657185718572,3479546.1924341,-4264.8371004362,2684500.2664368,20.857185718572,0,0
82.585622277904,-74.304166830811,15.661616161616,3479546.1924341,-4264.8371004362,2684500.2664368,20.861616161616,0,0
82.585622684049,-74.321696422065,15.66604660466,3479546.1924341,-4264.8371004362,2684500.2664368,20.86604660466,0,0
82.585623090194,-74.339226013318,15.670477047705,3479546.1924341,-4264.8371004362,2684500.2664368,20.870477047705,0,0
82.58562349634,-74.356755604571,15.674907490749,3479546.1924341,-4264.8371004362,2684500.2664368,20.874907490749,0,0
82.585623902485,-74.374285195824,15.679337933793,3479546.1924341,-4264.8371004362,2684500.2664368,20.879337933793,0,0
82.585624308631,-74.391814787077,15.683768376838,3479546.1924341,-4264.8371004362,2684500.2664368,20.883768376838,0,0
82.585624714776,-74.40934437833,15.688198819882,3479546.1924341,-4264.8371004362,2684500.2664368,20.888198819882,0,0
82.585625120921,-74.426873969583,15.692629262926,3479546.1924341,-4264.8371004362,2684500.2664368,20.892629262926,0,0
82.585625527067,-74.444403560836,15.697059705971,3479546.1924341,-4264.8371004362,2684500.2664368,20.897059705971,0,0
82.585625933212,-74.461933152089,15.701490149015,3479546.1924341,-4264.8371004362,2684500.2664368,20.901490149015,0,0
82.585626339357,-74.479462743342,15.705920592059,3479546.1924341,-4264.8371004362,2684500.2664368,20.905920592059,0,0
82.585626745503,-74.496992334595,15.710351035104,3479546.1924341,-4264.8371004362,2684500.2664368,20.910351035104,0,0
82.585627151648,-74.514521925849,15.714781478148,3479546.1924341,-4264.8371004362,2684500.2664368,20.914781478148,0,0
82.585627557794,-74.532051517102,15.719211921192,3479546.1924341,-4264.8371004362,2684500.2664368,20.919211921192,0,0
82.585627963939,-74.549581108355,15.723642364236,3479546.1924341,-4264.8371004362,2684500.2664368,20.923642364236,0,0
82.585628370084,-74.567110699608,15.728072807281,3479546.1924341,-4264.8371004362,2684500.2664368,20.928072807281,0,0
82.58562877623,-74.584640290861,15.732503250325,3479546.1924341,-4264.8371004362,2684500.2664368,20.932503250325,0,0
82.585629182375,-74.602169882114,15.736933693369,3479546.1924341,-4264.8371004362,2684500.2664368,20.936933693369,0,0
82.585629588521,-74.619699473367,15.741364136414,3479546.1924341,-4264.8371004362,2684500.2664368,20.941364136414,0,0
82.585629994666,-74.63722906462,15.745794579458,3479546.1924341,-4264.8371004362,2684500.2664368,20.945794579458,0,0
82.585630400811,-74.654758655873,15.750225022502,3479546.1924341,-4264.8371004362,2684500.2664368,20.950225022502,0,0
82.585630806957,-74.672288247126,15.754655465547,3479546.1924341,-4264.8371004362,2684500.2664368,20.954655465547,0,0
82.585631213102,-74.689817838379,15.759085908591,3479546.1924341,-4264.8371004362,2684500.2664368,20.959085908591,0,0
82.585631619247,-74.707347429633,15.763516351635,3479546.1924341,-4264.8371004362,2684500.2664368,20.963516351635,0,0
82.585632025393,-74.724877020886,15.767946794679,3479546.1924341,-4264.8371004362,2684500.2664368,20.967946794679,0,0
82.585632431538,-74.742406612139,15.772377237724,3479546.1924341,-4264.8371004362,2684500.2664368,20.972377237724,0,0
82.585632837684,-74.759936203392,15.776807680768,3479546.1924341,-4264.8371004362,2684500.2664368,20.976807680768,0,0
82.585633243829,-74.777465794645,15.781238123812,3479546.1924341,-4264.8371004362,2684500.2664368,20.981238123812,0,0
82.585633649974,-74.794995385898,15.785668566857,3479546.1924341,-4264.8371004362,2684500.2664368,20.985668566857,0,0
82.58563405612,-74.812524977151,15.790099009901,3479546.1924341,-4264.8371004362,2684500.2664368,20.990099009901,0,0
82.585634462265,-74.830054568404,15.794529452945,3479546.1924341,-4264.8371004362,2684500.2664368,20.994529452945,0,0
82.58563486841,-74.847584159657,15.79895989599,3479546.1924341,-4264.8371004362,2684500.2664368,20.99895989599,0,0
82.585635274556,-74.86511375091,15.803390339034,3479546.1924341,-4264.8371004362,2684500.2664368,21.003390339034,0,0
82.585635680701,-74.882643342163,15.807820782078,3479546.1924341,-4264.8371004362,2684500.2664368,21.007820782078,0,0
82.585636086847,-74.900172933416,15.812251225123,3479546.1924341,-4264.8371004362,2684500.2664368,21.012251225123,0,0
82.585636492992,-74.91770252467,15.816681668167,3479546.1924341,-4264.8371004362,2684500.2664368,21.016681668167,0,0
82.585636899137,-74.935232115923,15.821112111211,3479546.1924341,-4264.8371004362,2684500.2664368,21.021112111211,0,0
82.585637305283,-74.952761707176,15.825542554255,3479546.1924341,-4264.8371004362,2684500.2664368,21.025542554255,0,0
82.585637711428,-74.970291298429,15.8299729973,3479546.1924341,-4264.8371004362,2684500.2664368,21.0299729973,0,0
82.585638117573,-74.987820889682,15.834403440344,3479546.1924341,-4264.8371004362,2684500.2664368,21.034403440344,0,0
82.585638523719,-75.005350480935,15.838833883388,3479546.1924341,-4264.8371004362,2684500.2664368,21.038833883388,0,0
82.585638929864,-75.022880072188,15.843264326433,3479546.1924341,-4264.8371004362,2684500.2664368,21.043264326433,0,0
82.58563933601,-75.040409663441,15.847694769477,3479546.1924341,-4264.8371004362,2684500.2664368,21.047694769477,0,0
82.585639742155,-75.057939254694,15.852125212521,3479546.1924341,-4264.8371004362,2684500.2664368,21.052125212521,0,0
82.5856401483,-75.075468845947,15.856555655566,3479546.1924341,-4264.8371004362,2684500.2664368,21.056555655566,0,0
82.585640554446,-75.0929984372,15.86098609861,3479546.1924341,-4264.8371004362,2684500.2664368,21.06098609861,0,0
82.585640960591,-75.110528028454,15.865416541654,3479546.1924341,-4264.8371004362,2684500.2664368,21.065416541654,0,0
82.585641366736,-75.128057619707,15.869846984698,3479546.1924341,-4264.8371004362,2684500.2664368,21.069846984698,0,0
82.585641772882,-75.14558721096,15.874277427743,3479546.1924341,-4264.8371004362,2684500.2664368,21.074277427743,0,0
82.585642179027,-75.163116802213,15.878707870787,3479546.1924341,-4264.8371004362,2684500.2664368,21.078707870787,0,0
82.585642585173,-75.180646393466,15.883138313831,3479546.1924341,-4264.8371004362,2684500.2664368,21.083138313831,0,0
82.585642991318,-75.198175984719,15.887568756876,3479546.1924341,-4264.8371004362,2684500.2664368,21.087568756876,0,0
82.585643397463,-75.215705575972,15.89199919992,3479546.1924341,-4264.8371004362,2684500.2664368,21.09199919992,0,0
82.585643803609,-75.233235167225,15.896429642964,3479546.1924341,-4264.8371004362,2684500.2664368,21.096429642964,0,0
82.585644209754,-75.250764758478,15.900860086009,3479546.1924341,-4264.8371004362,2684500.2664368,21.100860086009,0,0
82.5856446159,-75.268294349731,15.905290529053,3479546.1924341,-4264.8371004362,2684500.2664368,21.105290529053,0,0
82.585645022045,-75.285823940984,15.909720972097,3479546.1924341,-4264.8371004362,2684500.2664368,21.109720972097,0,0
82.58564542819,-75.303353532237,15.914151415142,3479546.1924341,-4264.8371004362,2684500.2664368,21.114151415142,0,0
82.585645834336,-75.320883123491,15.918581858186,3479546.1924341,-4264.8371004362,2684500.2664368,21.118581858186,0,0
82.585646240481,-75.338412714744,15.92301230123,3479546.1924341,-4264.8371004362,2684500.2664368,21.12301230123,0,0
82.585646646626,-75.355942305997,15.927442744274,3479546.1924341,-4264.8371004362,2684500.2664368,21.127442744274,0,0
82.585647052772,-75.37347189725,15.931873187319,3479546.1924341,-4264.8371004362,2684500.2664368,21.131873187319,0,0
82.585647460837,-75.391001487014,15.936303630363,3510003.4740447,-1643.0273842617,2681068.9692036,21.136303630363,0,0
82.585647869507,-75.408531076309,15.940734073407,3510003.4740447,-1643.0273842617,2681068.9692036,21.140734073407,0,0
82.585648278177,-75.426060665605,15.945164516452,3510003.4740447,-1643.0273842617,2681068.9692036,21.145164516452,0,0
82.585648686846,-75.4435902549,15.949594959496,3510003.4740447,-1643.0273842617,2681068.9692036,21.149594959496,0,0
82.585649095516,-75.461119844196,15.95402540254,3510003.4740447,-1643.0273842617,2681068.9692036,21.15402540254,0,0
82.585649504185,-75.478649433492,15.958455845585,3510003.4740447,-1643.0273842617,2681068.9692036,21.158455845585,0,0
82.585649912855,-75.496179022787,15.962886288629,3510003.4740447,-1643.0273842617,2681068.9692036,21.162886288629,0,0
82.585650321524,-75.513708612083,15.967316731673,3510003.4740447,-1643.0273842617,2681068.9692036,21.167316731673,0,0
82.585650730194,-75.531238201378,15.971747174717,3510003.4740447,-1643.0273842617,2681068.9692036,21.171747174717,0,0
82.585651138863,-75.548767790674,15.976177617762,3510003.4740447,-1643.0273842617,2681068.9692036,21.176177617762,0,0
82.585651547533,-75.566297379969,15.980608060806,3510003.4740447,-1643.0273842617,2681068.9692036,21.180608060806,0,0
82.585651956202,-75.583826969265,15.98503850385,3510003.4740447,-1643.0273842617,2681068.9692036,21.18503850385,0,0
82.585652364872,-75.60135655856,15.989468946895,3510003.4740447,-1643.0273842617,2681068.9692036,21.189468946895,0,0
82.585652773541,-75.618886147856,15.993899389939,3510003.4740447,-1643.0273842617,2681068.9692036,21.193899389939,0,0
82.585653182211,-75.636415737152,15.998329832983,3510003.4740447,-1643.0273842617,2681068.9692036,21.198329832983,0,0
82.58565359088,-75.653945326447,16.002760276028,3510003.4740447,-1643.0273842617,2681068.9692036,21.202760276028,0,0
82.58565399955,-75.671474915743,16.007190719072,3510003.4740447,-1643.0273842617,2681068.9692036,21.207190719072,0,0
82.58565440822,-75.689004505038,16.011621162116,3510003.4740447,-1643.0273842617,2681068.9692036,21.211621162116,0,0
82.585654816889,-75.706534094334,16.016051605161,3510003.4740447,-1643.0273842617,2681068.9692036,21.216051605161,0,0
82.585655225559,-75.724063683629,16.020482048205,3510003.4740447,-1643.0273842617,2681068.9692036,21.220482048205,0,0
82.585655634228,-75.741593272925,16.024912491249,3510003.4740447,-1643.0273842617,2681068.9692036,21.224912491249,0,0
82.585656042898,-75.75912286222,16.029342934293,3510003.4740447,-1643.0273842617,2681068.9692036,21.229342934293,0,0
82.585656451567,-75.776652451516,16.033773377338,3510003.4740447,-1643.0273842617,2681068.9692036,21.233773377338,0,0
82.585656860237,-75.794182040812,16.038203820382,3510003.4740447,-1643.0273842617,2681068.9692036,21.238203820382,0,0
82.585657268906,-75.811711630107,16.042634263426,3510003.4740447,-1643.0273842617,2681068.9692036,21.242634263426,0,0
82.585657677576,-75.829241219403,16.047064706471,3510003.4740447,-1643.0273842617,2681068.9692036,21.247064706471,0,0
82.585658086245,-75.846770808698,16.051495149515,3510003.4740447,-1643.0273842617,2681068.9692036,21.251495149515,0,0
82.585658494915,-75.864300397994,16.055925592559,3510003.4740447,-1643.0273842617,2681068.9692036,21.255925592559,0,0
82.585658903584,-75.881829987289,16.060356035604,3510003.4740447,-1643.0273842617,2681068.9692036,21.260356035604,0,0
82.585659312254,-75.899359576585,16.064786478648,3510003.4740447,-1643.0273842617,2681068.9692036,21.264786478648,0,0
82.585659720924,-75.91688916588,16.069216921692,3510003.4740447,-1643.0273842617,2681068.9692036,21.269216921692,0,0
82.585660129593,-75.934418755176,16.073647364736,3510003.4740447,-1643.0273842617,2681068.9692036,21.273647364736,0,0
82.585660538263,-75.951948344472,16.078077807781,3510003.4740447,-1643.0273842617,2681068.9692036,21.278077807781,0,0
82.585660946932,-75.969477933767,16.082508250825,3510003.4740447,-1643.0273842617,2681068.9692036,21.282508250825,0,0
82.585661355602,-75.987007523063,16.086938693869,3510003.4740447,-1643.0273842617,2681068.9692036,21.286938693869,0,0
82.585661764271,-76.004537112358,16.091369136914,3510003.4740447,-1643.0273842617,2681068.9692036,21.291369136914,0,0
82.585662172941,-76.022066701654,16.095799579958,3510003.4740447,-1643.0273842617,2681068.9692036,21.295799579958,0,0
82.58566258161,-76.039596290949,16.100230023002,3510003.4740447,-1643.0273842617,2681068.9692036,21.300230023002,0,0
82.58566299028,-76.057125880245,16.104660466047,3510003.4740447,-1643.0273842617,2681068.9692036,21.304660466047,0,0
82.585663398949,-76.07465546954,16.109090909091,3510003.4740447,-1643.0273842617,2681068.9692036,21.309090909091,0,0
82.585663807619,-76.092185058836,16.113521352135,3510003.4740447,-1643.0273842617,2681068.9692036,21.313521352135,0,0
82.585664216288,-76.109714648132,16.11795179518,3510003.4740447,-1643.0273842617,2681068.9692036,21.31795179518,0,0
82.585664624958,-76.127244237427,16.122382238224,3510003.4740447,-1643.0273842617,2681068.9692036,21.322382238224,0,0
82.585665033627,-76.144773826723,16.126812681268,3510003.4740447,-1643.0273842617,2681068.9692036,21.326812681268,0,0
82.585665442297,-76.162303416018,16.131243124312,3510003.4740447,-1643.0273842617,2681068.9692036,21.331243124312,0,0
82.585665850967,-76.179833005314,16.135673567357,3510003.4740447,-1643.0273842617,2681068.9692036,21.335673567357,0,0
82.585666259636,-76.197362594609,16.140104010401,3510003.4740447,-1643.0273842617,2681068.9692036,21.340104010401,0,0
82.585666668306,-76.214892183905,16.144534453445,3510003.4740447,-1643.0273842617,2681068.9692036,21.344534453445,0,0
82.585667076975,-76.2324217732,16.14896489649,3510003.4740447,-1643.0273842617,2681068.9692036,21.34896489649,0,0
82.585667485645,-76.249951362496,16.153395339534,3510003.4740447,-1643.0273842617,2681068.9692036,21.353395339534,0,0
82.585667894314,-76.267480951792,16.157825782578,3510003.4740447,-1643.0273842617,2681068.9692036,21.357825782578,0,0
82.585668302984,-76.285010541087,16.162256225623,3510003.4740447,-1643.0273842617,2681068.9692036,21.362256225623,0,0
82.585668711653,-76.302540130383,16.166686668667,3510003.4740447,-1643.0273842617,2681068.9692036,21.366686668667,0,0
82.585669120323,-76.320069719678,16.171117111711,3510003.4740447,-1643.0273842617,2681068.9692036,21.371117111711,0,0
82.585669528992,-76.337599308974,16.175547554755,3510003.4740447,-1643.0273842617,2681068.9692036,21.375547554755,0,0
82.585669937662,-76.355128898269,16.1799779978,3510003.4740447,-1643.0273842617,2681068.9692036,21.3799779978,0,0
82.585670346331,-76.372658487565,16.184408440844,3510003.4740447,-1643.0273842617,2681068.9692036,21.384408440844,0,0
82.585670755001,-76.39018807686,16.188838883888,3510003.4740447,-1643.0273842617,2681068.9692036,21.388838883888,0,0
82.585671163671,-76.407717666156,16.193269326933,3510003.4740447,-1643.0273842617,2681068.9692036,21.393269326933,0,0
82.58567157234,-76.425247255452,16.197699769977,3510003.4740447,-1643.0273842617,2681068.9692036,21.397699769977,0,0
82.58567198101,-76.442776844747,16.202130213021,3510003.4740447,-1643.0273842617,2681068.9692036,21.402130213021,0,0
82.585672389679,-76.460306434043,16.206560656066,3510003.4740447,-1643.0273842617,2681068.9692036,21.406560656066,0,0
82.585672798349,-76.477836023338,16.21099109911,3510003.4740447,-1643.0273842617,2681068.9692036,21.41099109911,0,0
82.585673207018,-76.495365612634,16.215421542154,3510003.4740447,-1643.0273842617,2681068.9692036,21.415421542154,0,0
82.585673615688,-76.512895201929,16.219851985199,3510003.4740447,-1643.0273842617,2681068.9692036,21.419851985199,0,0
82.585674024357,-76.530424791225,16.224282428243,3510003.4740447,-1643.0273842617,2681068.9692036,21.424282428243,0,0
82.585674433027,-76.547954380521,16.228712871287,3510003.4740447,-1643.0273842617,2681068.9692036,21.428712871287,0,0
82.585674841696,-76.565483969816,16.233143314331,3510003.4740447,-1643.0273842617,2681068.9692036,21.433143314331,0,0
82.585675250366,-76.583013559112,16.237573757376,3510003.4740447,-1643.0273842617,2681068.9692036,21.437573757376,0,0
82.585675659035,-76.600543148407,16.24200420042,3510003.4740447,-1643.0273842617,2681068.9692036,21.44200420042,0,0
82.585676067705,-76.618072737703,16.246434643464,3510003.4740447,-1643.0273842617,2681068.9692036,21.446434643464,0,0
82.585676476375,-76.635602326998,16.250865086509,3510003.4740447,-1643.0273842617,2681068.9692036,21.450865086509,0,0
82.585676885044,-76.653131916294,16.255295529553,3510003.4740447,-1643.0273842617,2681068.9692036,21.455295529553,0,0
82.585677293714,-76.670661505589,16.259725972597,3510003.4740447,-1643.0273842617,2681068.9692036,21.459725972597,0,0
82.585677702383,-76.688191094885,16.264156415642,3510003.4740447,-1643.0273842617,2681068.9692036,21.464156415642,0,0
82.585678111053,-76.705720684181,16.268586858686,3510003.4740447,-1643.0273842617,2681068.9692036,21.468586858686,0,0
82.585678519722,-76.723250273476,16.27301730173,3510003.4740447,-1643.0273842617,2681068.9692036,21.47301730173,0,0
82.585678928392,-76.740779862772,16.277447744774,3510003.4740447,-1643.0273842617,2681068.9692036,21.477447744774,0,0
82.585679337061,-76.758309452067,16.281878187819,3510003.4740447,-1643.0273842617,2681068.9692036,21.481878187819,0,0
82.585679745731,-76.775839041363,16.286308630863,3510003.4740447,-1643.0273842617,2681068.9692036,21.486308630863,0,0
82.5856801544,-76.793368630658,16.290739073907,3510003.4740447,-1643.0273842617,2681068.9692036,21.490739073907,0,0
82.58568056307,-76.810898219954,16.295169516952,3510003.4740447,-1643.0273842617,2681068.9692036,21.495169516952,0,0
82.585680971739,-76.828427809249,16.299599959996,3510003.4740447,-1643.0273842617,2681068.9692036,21.499599959996,0,0
82.585681380409,-76.845957398545,16.30403040304,3510003.4740447,-1643.0273842617,2681068.9692036,21.50403040304,0,0
82.585681789079,-76.863486987841,16.308460846085,3510003.4740447,-1643.0273842617,2681068.9692036,21.508460846085,0,0
82.585682197748,-76.881016577136,16.312891289129,3510003.4740447,-1643.0273842617,2681068.9692036,21.512891289129,0,0
82.585682606418,-76.898546166432,16.317321732173,3510003.4740447,-1643.0273842617,2681068.9692036,21.517321732173,0,0
82.585683015087,-76.916075755727,16.321752175218,3510003.4740447,-1643.0273842617,2681068.9692036,21.521752175218,0,0
82.585683423757,-76.933605345023,16.326182618262,3510003.4740447,-1643.0273842617,2681068.9692036,21.526182618262,0,0
82.585683832426,-76.951134934318,16.330613061306,3510003.4740447,-1643.0273842617,2681068.9692036,21.530613061306,0,0
82.585684241096,-76.968664523614,16.33504350435,3510003.4740447,-1643.0273842617,2681068.9692036,21.53504350435,0,0
82.585684649765,-76.986194112909,16.339473947395,3510003.4740447,-1643.0273842617,2681068.9692036,21.539473947395,0,0
82.585685058435,-77.003723702205,16.343904390439,3510003.4740447,-1643.0273842617,2681068.9692036,21.543904390439,0,0
82.585685467104,-77.021253291501,16.348334833483,3510003.4740447,-1643.0273842617,2681068.9692036,21.548334833483,0,0
82.585685875774,-77.038782880796,16.352765276528,3510003.4740447,-1643.0273842617,2681068.9692036,21.552765276528,0,0
82.585686284443,-77.056312470092,16.357195719572,3510003.4740447,-1643.0273842617,2681068.9692036,21.557195719572,0,0
82.585686693113,-77.073842059387,16.361626162616,3510003.4740447,-1643.0273842617,2681068.9692036,21.561626162616,0,0
82.585687101782,-77.091371648683,16.366056605661,3510003.4740447,-1643.0273842617,2681068.9692036,21.566056605661,0,0
82.585687510452,-77.108901237978,16.370487048705,3510003.4740447,-1643.0273842617,2681068.9692036,21.570487048705,0,0
82.585687919122,-77.126430827274,16.374917491749,3510003.4740447,-1643.0273842617,2681068.9692036,21.574917491749,0,0
82.585688327791,-77.14396041657,16.379347934793,3510003.4740447,-1643.0273842617,2681068.9692036,21.579347934793,0,0
82.585688736461,-77.161490005865,16.383778377838,3510003.4740447,-1643.0273842617,2681068.9692036,21.583778377838,0,0
82.58568914513,-77.179019595161,16.388208820882,3510003.4740447,-1643.0273842617,2681068.9692036,21.588208820882,0,0
82.5856895538,-77.196549184456,16.392639263926,3510003.4740447,-1643.0273842617,2681068.9692036,21.592639263926,0,0
82.585689962469,-77.214078773752,16.397069706971,3510003.4740447,-1643.0273842617,2681068.9692036,21.597069706971,0,0
82.585690371139,-77.231608363047,16.401500150015,3510003.4740447,-1643.0273842617,2681068.9692036,21.601500150015,0,0
82.585690779808,-77.249137952343,16.405930593059,3510003.4740447,-1643.0273842617,2681068.9692036,21.605930593059,0,0
82.585691188478,-77.266667541638,16.410361036104,3510003.4740447,-1643.0273842617,2681068.9692036,21.610361036104,0,0
82.585691597147,-77.284197130934,16.414791479148,3510003.4740447,-1643.0273842617,2681068.9692036,21.614791479148,0,0
82.585692005817,-77.30172672023,16.419221922192,3510003.4740447,-1643.0273842617,2681068.9692036,21.619221922192,0,0
82.585692414486,-77.319256309525,16.423652365237,3510003.4740447,-1643.0273842617,2681068.9692036,21.623652365237,0,0
82.585692823156,-77.336785898821,16.428082808281,3510003.4740447,-1643.0273842617,2681068.9692036,21.628082808281,0,0
82.585693231826,-77.354315488116,16.432513251325,3510003.4740447,-1643.0273842617,2681068.9692036,21.632513251325,0,0
82.585693640495,-77.371845077412,16.436943694369,3510003.4740447,-1643.0273842617,2681068.9692036,21.636943694369,0,0
82.585694049165,-77.389374666707,16.441374137414,3510003.4740447,-1643.0273842617,2681068.9692036,21.641374137414,0,0
82.585694457834,-77.406904256003,16.445804580458,3510003.4740447,-1643.0273842617,2681068.9692036,21.645804580458,0,0
82.585694866504,-77.424433845298,16.450235023502,3510003.4740447,-1643.0273842617,2681068.9692036,21.650235023502,0,0
82.585695275173,-77.441963434594,16.454665466547,3510003.4740447,-1643.0273842617,2681068.9692036,21.654665466547,0,0
82.585695683843,-77.45949302389,16.459095909591,3510003.4740447,-1643.0273842617,2681068.9692036,21.659095909591,0,0
82.585696092512,-77.477022613185,16.463526352635,3510003.4740447,-1643.0273842617,2681068.9692036,21.663526352635,0,0
82.585696501182,-77.494552202481,16.46795679568,3510003.4740447,-1643.0273842617,2681068.9692036,21.66795679568,0,0
82.585696909851,-77.512081791776,16.472387238724,3510003.4740447,-1643.0273842617,2681068.9692036,21.672387238724,0,0
82.585697318521,-77.529611381072,16.476817681768,3510003.4740447,-1643.0273842617,2681068.9692036,21.676817681768,0,0
82.58569772719,-77.547140970367,16.481248124812,3510003.4740447,-1643.0273842617,2681068.9692036,21.681248124812,0,0
82.58569813586,-77.564670559663,16.485678567857,3510003.4740447,-1643.0273842617,2681068.9692036,21.685678567857,0,0
82.58569854453,-77.582200148958,16.490109010901,3510003.4740447,-1643.0273842617,2681068.9692036,21.690109010901,0,0
82.585698953199,-77.599729738254,16.494539453945,3510003.4740447,-1643.0273842617,2681068.9692036,21.694539453945,0,0
82.585699361869,-77.61725932755,16.49896989699,3510003.4740447,-1643.0273842617,2681068.9692036,21.69896989699,0,0
82.585699770538,-77.634788916845,16.503400340034,3510003.4740447,-1643.0273842617,2681068.9692036,21.703400340034,0,0
82.585700179208,-77.652318506141,16.507830783078,3510003.4740447,-1643.0273842617,2681068.9692036,21.707830783078,0,0
82.585700587877,-77.669848095436,16.512261226123,3510003.4740447,-1643.0273842617,2681068.9692036,21.712261226123,0,0
82.585700996547,-77.687377684732,16.516691669167,3510003.4740447,-1643.0273842617,2681068.9692036,21.716691669167,0,0
82.585701405216,-77.704907274027,16.521122112211,3510003.4740447,-1643.0273842617,2681068.9692036,21.721122112211,0,0
82.585701813886,-77.722436863323,16.525552555256,3510003.4740447,-1643.0273842617,2681068.9692036,21.725552555256,0,0
82.585702222555,-77.739966452618,16.5299829983,3510003.4740447,-1643.0273842617,2681068.9692036,21.7299829983,0,0
82.585702631225,-77.757496041914,16.534413441344,3510003.4740447,-1643.0273842617,2681068.9692036,21.734413441344,0,0
82.585703039894,-77.77502563121,16.538843884388,3510003.4740447,-1643.0273842617,2681068.9692036,21.738843884388,0,0
82.585703448564,-77.792555220505,16.543274327433,3510003.4740447,-1643.0273842617,2681068.9692036,21.743274327433,0,0
82.585703857233,-77.810084809801,16.547704770477,3510003.4740447,-1643.0273842617,2681068.9692036,21.747704770477,0,0
82.585704265903,-77.827614399096,16.552135213521,3510003.4740447,-1643.0273842617,2681068.9692036,21.752135213521,0,0
82.585704674573,-77.845143988392,16.556565656566,3510003.4740447,-1643.0273842617,2681068.9692036,21.756565656566,0,0
82.585705083242,-77.862673577687,16.56099609961,3510003.4740447,-1643.0273842617,2681068.9692036,21.76099609961,0,0
82.585705491912,-77.880203166983,16.565426542654,3510003.4740447,-1643.0273842617,2681068.9692036,21.765426542654,0,0
82.585705900581,-77.897732756278,16.569856985699,3510003.4740447,-1643.0273842617,2681068.9692036,21.769856985699,0,0
82.585706309251,-77.915262345574,16.574287428743,3510003.4740447,-1643.0273842617,2681068.9692036,21.774287428743,0,0
82.58570671792,-77.93279193487,16.578717871787,3510003.4740447,-1643.0273842617,2681068.9692036,21.778717871787,0,0
82.58570712659,-77.950321524165,16.583148314831,3510003.4740447,-1643.0273842617,2681068.9692036,21.783148314831,0,0
82.585707535259,-77.967851113461,16.587578757876,3510003.4740447,-1643.0273842617,2681068.9692036,21.787578757876,0,0
82.585707943929,-77.985380702756,16.59200920092,3510003.4740447,-1643.0273842617,2681068.9692036,21.79200920092,0,0
82.585708352598,-78.002910292052,16.596439643964,3510003.4740447,-1643.0273842617,2681068.9692036,21.796439643964,0,0
82.585708761268,-78.020439881347,16.600870087009,3510003.4740447,-1643.0273842617,2681068.9692036,21.800870087009,0,0
82.585709169937,-78.037969470643,16.605300530053,3510003.4740447,-1643.0273842617,2681068.9692036,21.805300530053,0,0
82.585709578607,-78.055499059938,16.609730973097,3510003.4740447,-1643.0273842617,2681068.9692036,21.809730973097,0,0
82.585709987277,-78.073028649234,16.614161416142,3510003.4740447,-1643.0273842617,2681068.9692036,21.814161416142,0,0
82.585710395946,-78.09055823853,16.618591859186,3510003.4740447,-1643.0273842617,2681068.9692036,21.818591859186,0,0
82.585710804616,-78.108087827825,16.62302230223,3510003.4740447,-1643.0273842617,2681068.9692036,21.82302230223,0,0
82.585711213285,-78.125617417121,16.627452745275,3510003.4740447,-1643.0273842617,2681068.9692036,21.827452745275,0,0
82.585711621955,-78.143147006416,16.631883188319,3510003.4740447,-1643.0273842617,2681068.9692036,21.831883188319,0,0
82.585712030624,-78.160676595712,16.636313631363,3510003.4740447,-1643.0273842617,2681068.9692036,21.836313631363,0,0
82.585712439294,-78.178206185007,16.640744074407,3510003.4740447,-1643.0273842617,2681068.9692036,21.840744074407,0,0
82.585712847963,-78.195735774303,16.645174517452,3510003.4740447,-1643.0273842617,2681068.9692036,21.845174517452,0,0
82.585713256633,-78.213265363599,16.649604960496,3510003.4740447,-1643.0273842617,2681068.9692036,21.849604960496,0,0
82.585713665302,-78.230794952894,16.65403540354,3510003.4740447,-1643.0273842617,2681068.9692036,21.85403540354,0,0
82.585714073972,-78.24832454219,16.658465846585,3510003.4740447,-1643.0273842617,2681068.9692036,21.858465846585,0,0
82.585714482641,-78.265854131485,16.662896289629,3510003.4740447,-1643.0273842617,2681068.9692036,21.862896289629,0,0
82.585714891311,-78.283383720781,16.667326732673,3510003.4740447,-1643.0273842617,2681068.9692036,21.867326732673,0,0
82.585715299981,-78.300913310076,16.671757175718,3510003.4740447,-1643.0273842617,2681068.9692036,21.871757175718,0,0
82.58571570865,-78.318442899372,16.676187618762,3510003.4740447,-1643.0273842617,2681068.9692036,21.876187618762,0,0
82.58571611732,-78.335972488667,16.680618061806,3510003.4740447,-1643.0273842617,2681068.9692036,21.880618061806,0,0
82.585716525989,-78.353502077963,16.68504850485,3510003.4740447,-1643.0273842617,2681068.9692036,21.88504850485,0,0
82.585716934659,-78.371031667259,16.689478947895,3510003.4740447,-1643.0273842617,2681068.9692036,21.889478947895,0,0
82.585717343328,-78.388561256554,16.693909390939,3510003.4740447,-1643.0273842617,2681068.9692036,21.893909390939,0,0
82.585717751998,-78.40609084585,16.698339833983,3510003.4740447,-1643.0273842617,2681068.9692036,21.898339833983,0,0
82.585718160667,-78.423620435145,16.702770277028,3510003.4740447,-1643.0273842617,2681068.9692036,21.902770277028,0,0
82.585718569337,-78.441150024441,16.707200720072,3510003.4740447,-1643.0273842617,2681068.9692036,21.907200720072,0,0
82.585718978006,-78.458679613736,16.711631163116,3510003.4740447,-1643.0273842617,2681068.9692036,21.911631163116,0,0
82.585719386676,-78.476209203032,16.716061606161,3510003.4740447,-1643.0273842617,2681068.9692036,21.916061606161,0,0
82.585719795345,-78.493738792327,16.720492049205,3510003.4740447,-1643.0273842617,2681068.9692036,21.920492049205,0,0
82.585720204015,-78.511268381623,16.724922492249,3510003.4740447,-1643.0273842617,2681068.9692036,21.924922492249,0,0
82.585720612684,-78.528797970919,16.729352935294,3510003.4740447,-1643.0273842617,2681068.9692036,21.929352935294,0,0
82.585721021354,-78.546327560214,16.733783378338,3510003.4740447,-1643.0273842617,2681068.9692036,21.933783378338,0,0
82.585721430024,-78.56385714951,16.738213821382,3510003.4740447,-1643.0273842617,2681068.9692036,21.938213821382,0,0
82.585721838693,-78.581386738805,16.742644264426,3510003.4740447,-1643.0273842617,2681068.9692036,21.942644264426,0,0
82.585722247363,-78.598916328101,16.747074707471,3510003.4740447,-1643.0273842617,2681068.9692036,21.947074707471,0,0
82.585722656032,-78.616445917396,16.751505150515,3510003.4740447,-1643.0273842617,2681068.9692036,21.951505150515,0,0
82.585723064702,-78.633975506692,16.755935593559,3510003.4740447,-1643.0273842617,2681068.9692036,21.955935593559,0,0
82.585723473371,-78.651505095987,16.760366036604,3510003.4740447,-1643.0273842617,2681068.9692036,21.960366036604,0,0
82.585723882041,-78.669034685283,16.764796479648,3510003.4740447,-1643.0273842617,2681068.9692036,21.964796479648,0,0
82.58572429071,-78.686564274579,16.769226922692,3510003.4740447,-1643.0273842617,2681068.9692036,21.969226922692,0,0
82.58572469938,-78.704093863874,16.773657365737,3510003.4740447,-1643.0273842617,2681068.9692036,21.973657365737,0,0
82.585725108049,-78.72162345317,16.778087808781,3510003.4740447,-1643.0273842617,2681068.9692036,21.978087808781,0,0
82.585725516719,-78.739153042465,16.782518251825,3510003.4740447,-1643.0273842617,2681068.9692036,21.982518251825,0,0
82.585725925801,-78.756682632471,16.786948694869,3517518.9373172,-5912.3063078915,2666400.0247615,21.986948694869,0,0
82.585726335461,-78.774212223473,16.791379137914,3517518.9373172,-5912.3063078915,2666400.0247615,21.991379137914,0,0
82.585726745122,-78.791741814474,16.795809580958,3517518.9373172,-5912.3063078915,2666400.0247615,21.995809580958,0,0
82.585727154782,-78.809271405476,16.800240024002,3517518.9373172,-5912.3063078915,2666400.0247615,22.000240024002,0,0
82.585727564443,-78.826800996478,16.804670467047,3517518.9373172,-5912.3063078915,2666400.0247615,22.004670467047,0,0
82.585727974103,-78.844330587479,16.809100910091,3517518.9373172,-5912.3063078915,2666400.0247615,22.009100910091,0,0
82.585728383763,-78.861860178481,16.813531353135,3517518.9373172,-5912.3063078915,2666400.0247615,22.013531353135,0,0
82.585728793424,-78.879389769483,16.81796179618,3517518.9373172,-5912.3063078915,2666400.0247615,22.01796179618,0,0
82.585729203084,-78.896919360484,16.822392239224,3517518.9373172,-5912.3063078915,2666400.0247615,22.022392239224,0,0
82.585729612745,-78.914448951486,16.826822682268,3517518.9373172,-5912.3063078915,2666400.0247615,22.026822682268,0,0
82.585730022405,-78.931978542487,16.831253125313,3517518.9373172,-5912.3063078915,2666400.0247615,22.031253125313,0,0
82.585730432065,-78.949508133489,16.835683568357,3517518.9373172,-5912.3063078915,2666400.0247615,22.035683568357,0,0
82.585730841726,-78.967037724491,16.840114011401,3517518.9373172,-5912.3063078915,2666400.0247615,22.040114011401,0,0
82.585731251386,-78.984567315492,16.844544454445,3517518.9373172,-5912.3063078915,2666400.0247615,22.044544454445,0,0
82.585731661047,-79.002096906494,16.84897489749,3517518.9373172,-5912.3063078915,2666400.0247615,22.04897489749,0,0
82.585732070707,-79.019626497496,16.853405340534,3517518.9373172,-5912.3063078915,2666400.0247615,22.053405340534,0,0
82.585732480367,-79.037156088497,16.857835783578,3517518.9373172,-5912.3063078915,2666400.0247615,22.057835783578,0,0
82.585732890028,-79.054685679499,16.862266226623,3517518.9373172,-5912.3063078915,2666400.0247615,22.062266226623,0,0
82.585733299688,-79.072215270501,16.866696669667,3517518.9373172,-5912.3063078915,2666400.0247615,22.066696669667,0,0
82.585733709349,-79.089744861502,16.871127112711,3517518.9373172,-5912.3063078915,2666400.0247615,22.071127112711,0,0
82.585734119009,-79.107274452504,16.875557555756,3517518.9373172,-5912.3063078915,2666400.0247615,22.075557555756,0,0
82.585734528669,-79.124804043505,16.8799879988,3517518.9373172,-5912.3063078915,2666400.0247615,22.0799879988,0,0
82.58573493833,-79.142333634507,16.884418441844,3517518.9373172,-5912.3063078915,2666400.0247615,22.084418441844,0,0
82.58573534799,-79.159863225509,16.888848884888,3517518.9373172,-5912.3063078915,2666400.0247615,22.088848884888,0,0
82.585735757651,-79.17739281651,16.893279327933,3517518.9373172,-5912.3063078915,2666400.0247615,22.093279327933,0,0
82.585736167311,-79.194922407512,16.897709770977,3517518.9373172,-5912.3063078915,2666400.0247615,22.097709770977,0,0
82.585736576971,-79.212451998514,16.902140214021,3517518.9373172,-5912.3063078915,2666400.0247615,22.102140214021,0,0
82.585736986632,-79.229981589515,16.906570657066,3517518.9373172,-5912.3063078915,2666400.0247615,22.106570657066,0,0
82.585737396292,-79.247511180517,16.91100110011,3517518.9373172,-5912.3063078915,2666400.0247615,22.11100110011,0,0
82.585737805953,-79.265040771519,16.915431543154,3517518.9373172,-5912.3063078915,2666400.0247615,22.115431543154,0,0
82.585738215613,-79.28257036252,16.919861986199,3517518.9373172,-5912.3063078915,2666400.0247615,22.119861986199,0,0
82.585738625273,-79.300099953522,16.924292429243,3517518.9373172,-5912.3063078915,2666400.0247615,22.124292429243,0,0
82.585739034934,-79.317629544524,16.928722872287,3517518.9373172,-5912.3063078915,2666400.0247615,22.128722872287,0,0
82.585739444594,-79.335159135525,16.933153315332,3517518.9373172,-5912.3063078915,2666400.0247615,22.133153315332,0,0
82.585739854255,-79.352688726527,16.937583758376,3517518.9373172,-5912.3063078915,2666400.0247615,22.137583758376,0,0
82.585740263915,-79.370218317528,16.94201420142,3517518.9373172,-5912.3063078915,2666400.0247615,22.14201420142,0,0
82.585740673576,-79.38774790853,16.946444644464,3517518.9373172,-5912.3063078915,2666400.0247615,22.146444644464,0,0
82.585741083236,-79.405277499532,16.950875087509,3517518.9373172,-5912.3063078915,2666400.0247615,22.150875087509,0,0
82.585741492896,-79.422807090533,16.955305530553,3517518.9373172,-5912.3063078915,2666400.0247615,22.155305530553,0,0
82.585741902557,-79.440336681535,16.959735973597,3517518.9373172,-5912.3063078915,2666400.0247615,22.159735973597,0,0
82.585742312217,-79.457866272537,16.964166416642,3517518.9373172,-5912.3063078915,2666400.0247615,22.164166416642,0,0
82.585742721878,-79.475395863538,16.968596859686,3517518.9373172,-5912.3063078915,2666400.0247615,22.168596859686,0,0
82.585743131538,-79.49292545454,16.97302730273,3517518.9373172,-5912.3063078915,2666400.0247615,22.17302730273,0,0
82.585743541198,-79.510455045542,16.977457745775,3517518.9373172,-5912.3063078915,2666400.0247615,22.177457745775,0,0
82.585743950859,-79.527984636543,16.981888188819,3517518.9373172,-5912.3063078915,2666400.0247615,22.181888188819,0,0
82.585744360519,-79.545514227545,16.986318631863,3517518.9373172,-5912.3063078915,2666400.0247615,22.186318631863,0,0
82.58574477018,-79.563043818546,16.990749074907,3517518.9373172,-5912.3063078915,2666400.0247615,22.190749074907,0,0
82.58574517984,-79.580573409548,16.995179517952,3517518.9373172,-5912.3063078915,2666400.0247615,22.195179517952,0,0
82.5857455895,-79.59810300055,16.999609960996,3517518.9373172,-5912.3063078915,2666400.0247615,22.199609960996,0,0
82.585745999161,-79.615632591551,17.00404040404,3517518.9373172,-5912.3063078915,2666400.0247615,22.20404040404,0,0
82.585746408821,-79.633162182553,17.008470847085,3517518.9373172,-5912.3063078915,2666400.0247615,22.208470847085,0,0
82.585746818482,-79.650691773555,17.012901290129,3517518.9373172,-5912.3063078915,2666400.0247615,22.212901290129,0,0
82.585747228142,-79.668221364556,17.017331733173,3517518.9373172,-5912.3063078915,2666400.0247615,22.217331733173,0,0
82.585747637802,-79.685750955558,17.021762176218,3517518.9373172,-5912.3063078915,2666400.0247615,22.221762176218,0,0
82.585748047463,-79.70328054656,17.026192619262,3517518.9373172,-5912.3063078915,2666400.0247615,22.226192619262,0,0
82.585748457123,-79.720810137561,17.030623062306,3517518.9373172,-5912.3063078915,2666400.0247615,22.230623062306,0,0
82.585748866784,-79.738339728563,17.035053505351,3517518.9373172,-5912.3063078915,2666400.0247615,22.235053505351,0,0
82.585749276444,-79.755869319565,17.039483948395,3517518.9373172,-5912.3063078915,2666400.0247615,22.239483948395,0,0
82.585749686104,-79.773398910566,17.043914391439,3517518.9373172,-5912.3063078915,2666400.0247615,22.243914391439,0,0
82.585750095765,-79.790928501568,17.048344834483,3517518.9373172,-5912.3063078915,2666400.0247615,22.248344834483,0,0
82.585750505425,-79.808458092569,17.052775277528,3517518.9373172,-5912.3063078915,2666400.0247615,22.252775277528,0,0
82.585750915086,-79.825987683571,17.057205720572,3517518.9373172,-5912.3063078915,2666400.0247615,22.257205720572,0,0
82.585751324746,-79.843517274573,17.061636163616,3517518.9373172,-5912.3063078915,2666400.0247615,22.261636163616,0,0
82.585751734406,-79.861046865574,17.066066606661,3517518.9373172,-5912.3063078915,2666400.0247615,22.266066606661,0,0
82.585752144067,-79.878576456576,17.070497049705,3517518.9373172,-5912.3063078915,2666400.0247615,22.270497049705,0,0
82.585752553727,-79.896106047578,17.074927492749,3517518.9373172,-5912.3063078915,2666400.0247615,22.274927492749,0,0
82.585752963388,-79.913635638579,17.079357935794,3517518.9373172,-5912.3063078915,2666400.0247615,22.279357935794,0,0
82.585753373048,-79.931165229581,17.083788378838,3517518.9373172,-5912.3063078915,2666400.0247615,22.283788378838,0,0
82.585753782708,-79.948694820583,17.088218821882,3517518.9373172,-5912.3063078915,2666400.0247615,22.288218821882,0,0
82.585754192369,-79.966224411584,17.092649264926,3517518.9373172,-5912.3063078915,2666400.0247615,22.292649264926,0,0
82.585754602029,-79.983754002586,17.097079707971,3517518.9373172,-5912.3063078915,2666400.0247615,22.297079707971,0,0
82.58575501169,-80.001283593588,17.101510151015,3517518.9373172,-5912.3063078915,2666400.0247615,22.301510151015,0,0
82.58575542135,-80.018813184589,17.105940594059,3517518.9373172,-5912.3063078915,2666400.0247615,22.305940594059,0,0
82.58575583101,-80.036342775591,17.110371037104,3517518.9373172,-5912.3063078915,2666400.0247615,22.310371037104,0,0
82.585756240671,-80.053872366592,17.114801480148,3517518.9373172,-5912.3063078915,2666400.0247615,22.314801480148,0,0
82.585756650331,-80.071401957594,17.119231923192,3517518.9373172,-5912.3063078915,2666400.0247615,22.319231923192,0,0
82.585757059992,-80.088931548596,17.123662366237,3517518.9373172,-5912.3063078915,2666400.0247615,22.323662366237,0,0
82.585757469652,-80.106461139597,17.128092809281,3517518.9373172,-5912.3063078915,2666400.0247615,22.328092809281,0,0
82.585757879312,-80.123990730599,17.132523252325,3517518.9373172,-5912.3063078915,2666400.0247615,22.332523252325,0,0
82.585758288973,-80.141520321601,17.13695369537,3517518.9373172,-5912.3063078915,2666400.0247615,22.33695369537,0,0
82.585758698633,-80.159049912602,17.141384138414,3517518.9373172,-5912.3063078915,2666400.0247615,22.341384138414,0,0
82.585759108294,-80.176579503604,17.145814581458,3517518.9373172,-5912.3063078915,2666400.0247615,22.345814581458,0,0
82.585759517954,-80.194109094606,17.150245024502,3517518.9373172,-5912.3063078915,2666400.0247615,22.350245024502,0,0
82.585759927615,-80.211638685607,17.154675467547,3517518.9373172,-5912.3063078915,2666400.0247615,22.354675467547,0,0
82.585760337275,-80.229168276609,17.159105910591,3517518.9373172,-5912.3063078915,2666400.0247615,22.359105910591,0,0
82.585760746935,-80.24669786761,17.163536353635,3517518.9373172,-5912.3063078915,2666400.0247615,22.363536353635,0,0
82.585761156596,-80.264227458612,17.16796679668,3517518.9373172,-5912.3063078915,2666400.0247615,22.36796679668,0,0
82.585761566256,-80.281757049614,17.172397239724,3517518.9373172,-5912.3063078915,2666400.0247615,22.372397239724,0,0
82.585761975917,-80.299286640615,17.176827682768,3517518.9373172,-5912.3063078915,2666400.0247615,22.376827682768,0,0
82.585762385577,-80.316816231617,17.181258125813,3517518.9373172,-5912.3063078915,2666400.0247615,22.381258125813,0,0
82.585762795237,-80.334345822619,17.185688568857,3517518.9373172,-5912.3063078915,2666400.0247615,22.385688568857,0,0
82.585763206952,-80.351875412563,17.190119011901,3546916.7642725,-6909.6429098182,2667102.3824599,22.390119011901,0,0
82.585763618942,-80.369405002365,17.194549454945,3546916.7642725,-6909.6429098182,2667102.3824599,22.394549454945,0,0
82.585764030932,-80.386934592168,17.19897989799,3546916.7642725,-6909.6429098182,2667102.3824599,22.39897989799,0,0
82.585764442922,-80.40446418197,17.203410341034,3546916.7642725,-6909.6429098182,2667102.3824599,22.403410341034,0,0
82.585764854912,-80.421993771773,17.207840784078,3546916.7642725,-6909.6429098182,2667102.3824599,22.407840784078,0,0
82.585765266902,-80.439523361575,17.212271227123,3546916.7642725,-6909.6429098182,2667102.3824599,22.412271227123,0,0
82.585765678892,-80.457052951378,17.216701670167,3546916.7642725,-6909.6429098182,2667102.3824599,22.416701670167,0,0
82.585766090881,-80.47458254118,17.221132113211,3546916.7642725,-6909.6429098182,2667102.3824599,22.421132113211,0,0
82.585766502871,-80.492112130983,17.225562556256,3546916.7642725,-6909.6429098182,2667102.3824599,22.425562556256,0,0
82.585766914861,-80.509641720785,17.2299929993,3546916.7642725,-6909.6429098182,2667102.3824599,22.4299929993,0,0
82.585767326851,-80.527171310588,17.234423442344,3546916.7642725,-6909.6429098182,2667102.3824599,22.434423442344,0,0
82.585767738841,-80.54470090039,17.238853885389,3546916.7642725,-6909.6429098182,2667102.3824599,22.438853885389,0,0
82.585768150831,-80.562230490193,17.243284328433,3546916.7642725,-6909.6429098182,2667102.3824599,22.443284328433,0,0
82.585768562821,-80.579760079995,17.247714771477,3546916.7642725,-6909.6429098182,2667102.3824599,22.447714771477,0,0
82.585768974811,-80.597289669798,17.252145214521,3546916.7642725,-6909.6429098182,2667102.3824599,22.452145214521,0,0
82.5857693868,-80.6148192596,17.256575657566,3546916.7642725,-6909.6429098182,2667102.3824599,22.456575657566,0,0
82.58576979879,-80.632348849403,17.26100610061,3546916.7642725,-6909.6429098182,2667102.3824599,22.46100610061,0,0
82.58577021078,-80.649878439205,17.265436543654,3546916.7642725,-6909.6429098182,2667102.3824599,22.465436543654,0,0
82.58577062277,-80.667408029008,17.269866986699,3546916.7642725,-6909.6429098182,2667102.3824599,22.469866986699,0,0
82.58577103476,-80.68493761881,17.274297429743,3546916.7642725,-6909.6429098182,2667102.3824599,22.474297429743,0,0
82.58577144675,-80.702467208613,17.278727872787,3546916.7642725,-6909.6429098182,2667102.3824599,22.478727872787,0,0
82.58577185874,-80.719996798415,17.283158315832,3546916.7642725,-6909.6429098182,2667102.3824599,22.483158315832,0,0
82.58577227073,-80.737526388218,17.287588758876,3546916.7642725,-6909.6429098182,2667102.3824599,22.487588758876,0,0
82.58577268272,-80.75505597802,17.29201920192,3546916.7642725,-6909.6429098182,2667102.3824599,22.49201920192,0,0
82.585773094709,-80.772585567823,17.296449644964,3546916.7642725,-6909.6429098182,2667102.3824599,22.496449644964,0,0
82.585773506699,-80.790115157625,17.300880088009,3546916.7642725,-6909.6429098182,2667102.3824599,22.500880088009,0,0
82.585773918689,-80.807644747428,17.305310531053,3546916.7642725,-6909.6429098182,2667102.3824599,22.505310531053,0,0
82.585774330679,-80.825174337231,17.309740974097,3546916.7642725,-6909.6429098182,2667102.3824599,22.509740974097,0,0
82.585774742669,-80.842703927033,17.314171417142,3546916.7642725,-6909.6429098182,2667102.3824599,22.514171417142,0,0
82.585775154659,-80.860233516836,17.318601860186,3546916.7642725,-6909.6429098182,2667102.3824599,22.518601860186,0,0
82.585775566649,-80.877763106638,17.32303230323,3546916.7642725,-6909.6429098182,2667102.3824599,22.52303230323,0,0
82.585775978639,-80.895292696441,17.327462746275,3546916.7642725,-6909.6429098182,2667102.3824599,22.527462746275,0,0
82.585776390628,-80.912822286243,17.331893189319,3546916.7642725,-6909.6429098182,2667102.3824599,22.531893189319,0,0
82.585776802618,-80.930351876046,17.336323632363,3546916.7642725,-6909.6429098182,2667102.3824599,22.536323632363,0,0
82.585777214608,-80.947881465848,17.340754075408,3546916.7642725,-6909.6429098182,2667102.3824599,22.540754075408,0,0
82.585777626598,-80.965411055651,17.345184518452,3546916.7642725,-6909.6429098182,2667102.3824599,22.545184518452,0,0
82.585778038588,-80.982940645453,17.349614961496,3546916.7642725,-6909.6429098182,2667102.3824599,22.549614961496,0,0
82.585778450578,-81.000470235256,17.35404540454,3546916.7642725,-6909.6429098182,2667102.3824599,22.55404540454,0,0
82.585778862568,-81.017999825058,17.358475847585,3546916.7642725,-6909.6429098182,2667102.3824599,22.558475847585,0,0
82.585779274558,-81.035529414861,17.362906290629,3546916.7642725,-6909.6429098182,2667102.3824599,22.562906290629,0,0
82.585779686547,-81.053059004663,17.367336733673,3546916.7642725,-6909.6429098182,2667102.3824599,22.567336733673,0,0
82.585780098537,-81.070588594466,17.371767176718,3546916.7642725,-6909.6429098182,2667102.3824599,22.571767176718,0,0
82.585780510527,-81.088118184268,17.376197619762,3546916.7642725,-6909.6429098182,2667102.3824599,22.576197619762,0,0
82.585780922517,-81.105647774071,17.380628062806,3546916.7642725,-6909.6429098182,2667102.3824599,22.580628062806,0,0
82.585781334507,-81.123177363873,17.385058505851,3546916.7642725,-6909.6429098182,2667102.3824599,22.585058505851,0,0
82.585781746497,-81.140706953676,17.389488948895,3546916.7642725,-6909.6429098182,2667102.3824599,22.589488948895,0,0
82.585782158487,-81.158236543478,17.393919391939,3546916.7642725,-6909.6429098182,2667102.3824599,22.593919391939,0,0
82.585782570477,-81.175766133281,17.398349834983,3546916.7642725,-6909.6429098182,2667102.3824599,22.598349834983,0,0
82.585782982466,-81.193295723083,17.402780278028,3546916.7642725,-6909.6429098182,2667102.3824599,22.602780278028,0,0
82.585783394456,-81.210825312886,17.407210721072,3546916.7642725,-6909.6429098182,2667102.3824599,22.607210721072,0,0
82.585783806446,-81.228354902688,17.411641164116,3546916.7642725,-6909.6429098182,2667102.3824599,22.611641164116,0,0
82.585784218436,-81.245884492491,17.416071607161,3546916.7642725,-6909.6429098182,2667102.3824599,22.616071607161,0,0
82.585784630426,-81.263414082293,17.420502050205,3546916.7642725,-6909.6429098182,2667102.3824599,22.620502050205,0,0
82.585785042416,-81.280943672096,17.424932493249,3546916.7642725,-6909.6429098182,2667102.3824599,22.624932493249,0,0
82.585785454406,-81.298473261898,17.429362936294,3546916.7642725,-6909.6429098182,2667102.3824599,22.629362936294,0,0
82.585785866396,-81.316002851701,17.433793379338,3546916.7642725,-6909.6429098182,2667102.3824599,22.633793379338,0,0
82.585786278385,-81.333532441503,17.438223822382,3546916.7642725,-6909.6429098182,2667102.3824599,22.638223822382,0,0
82.585786690375,-81.351062031306,17.442654265427,3546916.7642725,-6909.6429098182,2667102.3824599,22.642654265427,0,0
82.585787102365,-81.368591621108,17.447084708471,3546916.7642725,-6909.6429098182,2667102.3824599,22.647084708471,0,0
82.585787514355,-81.386121210911,17.451515151515,3546916.7642725,-6909.6429098182,2667102.3824599,22.651515151515,0,0
82.585787926345,-81.403650800713,17.455945594559,3546916.7642725,-6909.6429098182,2667102.3824599,22.655945594559,0,0
82.585788338335,-81.421180390516,17.460376037604,3546916.7642725,-6909.6429098182,2667102.3824599,22.660376037604,0,0
82.585788750325,-81.438709980318,17.464806480648,3546916.7642725,-6909.6429098182,2667102.3824599,22.664806480648,0,0
82.585789162315,-81.456239570121,17.469236923692,3546916.7642725,-6909.6429098182,2667102.3824599,22.669236923692,0,0
82.585789574305,-81.473769159923,17.473667366737,3546916.7642725,-6909.6429098182,2667102.3824599,22.673667366737,0,0
82.585789986294,-81.491298749726,17.478097809781,3546916.7642725,-6909.6429098182,2667102.3824599,22.678097809781,0,0
82.585790398284,-81.508828339528,17.482528252825,3546916.7642725,-6909.6429098182,2667102.3824599,22.682528252825,0,0
82.585790810274,-81.526357929331,17.48695869587,3546916.7642725,-6909.6429098182,2667102.3824599,22.68695869587,0,0
82.585791222264,-81.543887519133,17.491389138914,3546916.7642725,-6909.6429098182,2667102.3824599,22.691389138914,0,0
82.585791634254,-81.561417108936,17.495819581958,3546916.7642725,-6909.6429098182,2667102.3824599,22.695819581958,0,0
82.585792046244,-81.578946698738,17.500250025002,3546916.7642725,-6909.6429098182,2667102.3824599,22.700250025002,0,0
82.585792458234,-81.596476288541,17.504680468047,3546916.7642725,-6909.6429098182,2667102.3824599,22.704680468047,0,0
82.585792870224,-81.614005878343,17.509110911091,3546916.7642725,-6909.6429098182,2667102.3824599,22.709110911091,0,0
82.585793282213,-81.631535468146,17.513541354135,3546916.7642725,-6909.6429098182,2667102.3824599,22.713541354135,0,0
82.585793694203,-81.649065057949,17.51797179718,3546916.7642725,-6909.6429098182,2667102.3824599,22.71797179718,0,0
82.585794106193,-81.666594647751,17.522402240224,3546916.7642725,-6909.6429098182,2667102.3824599,22.722402240224,0,0
82.585794518183,-81.684124237554,17.526832683268,3546916.7642725,-6909.6429098182,2667102.3824599,22.726832683268,0,0
82.585794930173,-81.701653827356,17.531263126313,3546916.7642725,-6909.6429098182,2667102.3824599,22.731263126313,0,0
82.585795342163,-81.719183417159,17.535693569357,3546916.7642725,-6909.6429098182,2667102.3824599,22.735693569357,0,0
82.585795754153,-81.736713006961,17.540124012401,3546916.7642725,-6909.6429098182,2667102.3824599,22.740124012401,0,0
82.585796166143,-81.754242596764,17.544554455446,3546916.7642725,-6909.6429098182,2667102.3824599,22.744554455446,0,0
82.585796578132,-81.771772186566,17.54898489849,3546916.7642725,-6909.6429098182,2667102.3824599,22.74898489849,0,0
82.585796990122,-81.789301776369,17.553415341534,3546916.7642725,-6909.6429098182,2667102.3824599,22.753415341534,0,0
82.585797402112,-81.806831366171,17.557845784578,3546916.7642725,-6909.6429098182,2667102.3824599,22.757845784578,0,0
82.585797814102,-81.824360955974,17.562276227623,3546916.7642725,-6909.6429098182,2667102.3824599,22.762276227623,0,0
82.585798226092,-81.841890545776,17.566706670667,3546916.7642725,-6909.6429098182,2667102.3824599,22.766706670667,0,0
82.585798638082,-81.859420135579,17.571137113711,3546916.7642725,-6909.6429098182,2667102.3824599,22.771137113711,0,0
82.585799050072,-81.876949725381,17.575567556756,3546916.7642725,-6909.6429098182,2667102.3824599,22.775567556756,0,0
82.585799462062,-81.894479315184,17.5799979998,3546916.7642725,-6909.6429098182,2667102.3824599,22.7799979998,0,0
82.585799874052,-81.912008904986,17.584428442844,3546916.7642725,-6909.6429098182,2667102.3824599,22.784428442844,0,0
82.585800286041,-81.929538494789,17.588858885889,3546916.7642725,-6909.6429098182,2667102.3824599,22.788858885889,0,0
82.585800698031,-81.947068084591,17.593289328933,3546916.7642725,-6909.6429098182,2667102.3824599,22.793289328933,0,0
82.585801110021,-81.964597674394,17.597719771977,3546916.7642725,-6909.6429098182,2667102.3824599,22.797719771977,0,0
82.585801522011,-81.982127264196,17.602150215021,3546916.7642725,-6909.6429098182,2667102.3824599,22.802150215021,0,0
82.585801934001,-81.999656853999,17.606580658066,3546916.7642725,-6909.6429098182,2667102.3824599,22.806580658066,0,0
82.585802345991,-82.017186443801,17.61101110111,3546916.7642725,-6909.6429098182,2667102.3824599,22.81101110111,0,0
82.585802757981,-82.034716033604,17.615441544154,3546916.7642725,-6909.6429098182,2667102.3824599,22.815441544154,0,0
82.585803169971,-82.052245623406,17.619871987199,3546916.7642725,-6909.6429098182,2667102.3824599,22.819871987199,0,0
82.58580358196,-82.069775213209,17.624302430243,3546916.7642725,-6909.6429098182,2667102.3824599,22.824302430243,0,0
82.58580399395,-82.087304803011,17.628732873287,3546916.7642725,-6909.6429098182,2667102.3824599,22.828732873287,0,0
82.58580440594,-82.104834392814,17.633163316332,3546916.7642725,-6909.6429098182,2667102.3824599,22.833163316332,0,0
82.58580481793,-82.122363982616,17.637593759376,3546916.7642725,-6909.6429098182,2667102.3824599,22.837593759376,0,0
82.58580522992,-82.139893572419,17.64202420242,3546916.7642725,-6909.6429098182,2667102.3824599,22.84202420242,0,0
82.58580564191,-82.157423162221,17.646454645465,3546916.7642725,-6909.6429098182,2667102.3824599,22.846454645465,0,0
82.5858060539,-82.174952752024,17.650885088509,3546916.7642725,-6909.6429098182,2667102.3824599,22.850885088509,0,0
82.58580646589,-82.192482341826,17.655315531553,3546916.7642725,-6909.6429098182,2667102.3824599,22.855315531553,0,0
82.585806877879,-82.210011931629,17.659745974597,3546916.7642725,-6909.6429098182,2667102.3824599,22.859745974597,0,0
82.585807289869,-82.227541521431,17.664176417642,3546916.7642725,-6909.6429098182,2667102.3824599,22.864176417642,0,0
82.585807701859,-82.245071111234,17.668606860686,3546916.7642725,-6909.6429098182,2667102.3824599,22.868606860686,0,0
82.585808113849,-82.262600701036,17.67303730373,3546916.7642725,-6909.6429098182,2667102.3824599,22.87303730373,0,0
82.585808525839,-82.280130290839,17.677467746775,3546916.7642725,-6909.6429098182,2667102.3824599,22.877467746775,0,0
82.585808937829,-82.297659880641,17.681898189819,3546916.7642725,-6909.6429098182,2667102.3824599,22.881898189819,0,0
82.585809349819,-82.315189470444,17.686328632863,3546916.7642725,-6909.6429098182,2667102.3824599,22.886328632863,0,0
82.585809761809,-82.332719060246,17.690759075908,3546916.7642725,-6909.6429098182,2667102.3824599,22.890759075908,0,0
82.585810173798,-82.350248650049,17.695189518952,3546916.7642725,-6909.6429098182,2667102.3824599,22.895189518952,0,0
82.585810585788,-82.367778239851,17.699619961996,3546916.7642725,-6909.6429098182,2667102.3824599,22.899619961996,0,0
82.585810997778,-82.385307829654,17.704050405041,3546916.7642725,-6909.6429098182,2667102.3824599,22.904050405041,0,0
82.585811409768,-82.402837419456,17.708480848085,3546916.7642725,-6909.6429098182,2667102.3824599,22.908480848085,0,0
82.585811821758,-82.420367009259,17.712911291129,3546916.7642725,-6909.6429098182,2667102.3824599,22.912911291129,0,0
82.585812233748,-82.437896599062,17.717341734173,3546916.7642725,-6909.6429098182,2667102.3824599,22.917341734173,0,0
82.585812645738,-82.455426188864,17.721772177218,3546916.7642725,-6909.6429098182,2667102.3824599,22.921772177218,0,0
82.585813057728,-82.472955778667,17.726202620262,3546916.7642725,-6909.6429098182,2667102.3824599,22.926202620262,0,0
82.585813469717,-82.490485368469,17.730633063306,3546916.7642725,-6909.6429098182,2667102.3824599,22.930633063306,0,0
82.585813881707,-82.508014958272,17.735063506351,3546916.7642725,-6909.6429098182,2667102.3824599,22.935063506351,0,0
82.585814293697,-82.525544548074,17.739493949395,3546916.7642725,-6909.6429098182,2667102.3824599,22.939493949395,0,0
82.585814705687,-82.543074137877,17.743924392439,3546916.7642725,-6909.6429098182,2667102.3824599,22.943924392439,0,0
82.585815117677,-82.560603727679,17.748354835484,3546916.7642725,-6909.6429098182,2667102.3824599,22.948354835484,0,0
82.585815529667,-82.578133317482,17.752785278528,3546916.7642725,-6909.6429098182,2667102.3824599,22.952785278528,0,0
82.585815941657,-82.595662907284,17.757215721572,3546916.7642725,-6909.6429098182,2667102.3824599,22.957215721572,0,0
82.585816353647,-82.613192497087,17.761646164616,3546916.7642725,-6909.6429098182,2667102.3824599,22.961646164616,0,0
82.585816765637,-82.630722086889,17.766076607661,3546916.7642725,-6909.6429098182,2667102.3824599,22.966076607661,0,0
82.585817177626,-82.648251676692,17.770507050705,3546916.7642725,-6909.6429098182,2667102.3824599,22.970507050705,0,0
82.585817589616,-82.665781266494,17.774937493749,3546916.7642725,-6909.6429098182,2667102.3824599,22.974937493749,0,0
82.585818001606,-82.683310856297,17.779367936794,3546916.7642725,-6909.6429098182,2667102.3824599,22.979367936794,0,0
82.585818413596,-82.700840446099,17.783798379838,3546916.7642725,-6909.6429098182,2667102.3824599,22.983798379838,0,0
82.585818825586,-82.718370035902,17.788228822882,3546916.7642725,-6909.6429098182,2667102.3824599,22.988228822882,0,0
82.585819237576,-82.735899625704,17.792659265927,3546916.7642725,-6909.6429098182,2667102.3824599,22.992659265927,0,0
82.585819649566,-82.753429215507,17.797089708971,3546916.7642725,-6909.6429098182,2667102.3824599,22.997089708971,0,0
82.585820061556,-82.770958805309,17.801520152015,3546916.7642725,-6909.6429098182,2667102.3824599,23.001520152015,0,0
82.585820473545,-82.788488395112,17.80595059506,3546916.7642725,-6909.6429098182,2667102.3824599,23.00595059506,0,0
82.585820885535,-82.806017984914,17.810381038104,3546916.7642725,-6909.6429098182,2667102.3824599,23.010381038104,0,0
82.585821297525,-82.823547574717,17.814811481148,3546916.7642725,-6909.6429098182,2667102.3824599,23.014811481148,0,0
82.585821709515,-82.841077164519,17.819241924192,3546916.7642725,-6909.6429098182,2667102.3824599,23.019241924192,0,0
82.585822121505,-82.858606754322,17.823672367237,3546916.7642725,-6909.6429098182,2667102.3824599,23.023672367237,0,0
82.585822533495,-82.876136344124,17.828102810281,3546916.7642725,-6909.6429098182,2667102.3824599,23.028102810281,0,0
82.585822945485,-82.893665933927,17.832533253325,3546916.7642725,-6909.6429098182,2667102.3824599,23.032533253325,0,0
82.585823357475,-82.911195523729,17.83696369637,3546916.7642725,-6909.6429098182,2667102.3824599,23.03696369637,0,0
82.585823769464,-82.928725113532,17.841394139414,3546916.7642725,-6909.6429098182,2667102.3824599,23.041394139414,0,0
82.585824181454,-82.946254703334,17.845824582458,3546916.7642725,-6909.6429098182,2667102.3824599,23.045824582458,0,0
82.585824593444,-82.963784293137,17.850255025503,3546916.7642725,-6909.6429098182,2667102.3824599,23.050255025503,0,0
82.585825005434,-82.981313882939,17.854685468547,3546916.7642725,-6909.6429098182,2667102.3824599,23.054685468547,0,0
82.585825417424,-82.998843472742,17.859115911591,3546916.7642725,-6909.6429098182,2667102.3824599,23.059115911591,0,0
82.585825829414,-83.016373062544,17.863546354635,3546916.7642725,-6909.6429098182,2667102.3824599,23.063546354635,0,0
82.585826241404,-83.033902652347,17.86797679768,3546916.7642725,-6909.6429098182,2667102.3824599,23.06797679768,0,0
82.585826653394,-83.051432242149,17.872407240724,3546916.7642725,-6909.6429098182,2667102.3824599,23.072407240724,0,0
82.585827065383,-83.068961831952,17.876837683768,3546916.7642725,-6909.6429098182,2667102.3824599,23.076837683768,0,0
82.585827477373,-83.086491421754,17.881268126813,3546916.7642725,-6909.6429098182,2667102.3824599,23.081268126813,0,0
82.585827889363,-83.104021011557,17.885698569857,3546916.7642725,-6909.6429098182,2667102.3824599,23.085698569857,0,0
82.585828301353,-83.121550601359,17.890129012901,3546916.7642725,-6909.6429098182,2667102.3824599,23.090129012901,0,0
82.585828713343,-83.139080191162,17.894559455946,3546916.7642725,-6909.6429098182,2667102.3824599,23.094559455946,0,0
82.585829125333,-83.156609780964,17.89898989899,3546916.7642725,-6909.6429098182,2667102.3824599,23.09898989899,0,0
82.585829537323,-83.174139370767,17.903420342034,3546916.7642725,-6909.6429098182,2667102.3824599,23.103420342034,0,0
82.585829949313,-83.191668960569,17.907850785079,3546916.7642725,-6909.6429098182,2667102.3824599,23.107850785079,0,0
82.585830361302,-83.209198550372,17.912281228123,3546916.7642725,-6909.6429098182,2667102.3824599,23.112281228123,0,0
82.585830773292,-83.226728140174,17.916711671167,3546916.7642725,-6909.6429098182,2667102.3824599,23.116711671167,0,0
82.585831185282,-83.244257729977,17.921142114211,3546916.7642725,-6909.6429098182,2667102.3824599,23.121142114211,0,0
82.585831597272,-83.26178731978,17.925572557256,3546916.7642725,-6909.6429098182,2667102.3824599,23.125572557256,0,0
82.585832009262,-83.279316909582,17.9300030003,3546916.7642725,-6909.6429098182,2667102.3824599,23.1300030003,0,0
82.585832421252,-83.296846499385,17.934433443344,3546916.7642725,-6909.6429098182,2667102.3824599,23.134433443344,0,0
82.585832833242,-83.314376089187,17.938863886389,3546916.7642725,-6909.6429098182,2667102.3824599,23.138863886389,0,0
82.585833245232,-83.33190567899,17.943294329433,3546916.7642725,-6909.6429098182,2667102.3824599,23.143294329433,0,0
82.585833657222,-83.349435268792,17.947724772477,3546916.7642725,-6909.6429098182,2667102.3824599,23.147724772477,0,0
82.585834069211,-83.366964858595,17.952155215522,3546916.7642725,-6909.6429098182,2667102.3824599,23.152155215522,0,0
82.585834481201,-83.384494448397,17.956585658566,3546916.7642725,-6909.6429098182,2667102.3824599,23.156585658566,0,0
82.585834893191,-83.4020240382,17.96101610161,3546916.7642725,-6909.6429098182,2667102.3824599,23.16101610161,0,0
82.585835305181,-83.419553628002,17.965446544654,3546916.7642725,-6909.6429098182,2667102.3824599,23.165446544654,0,0
82.585835717171,-83.437083217805,17.969876987699,3546916.7642725,-6909.6429098182,2667102.3824599,23.169876987699,0,0
82.585836129161,-83.454612807607,17.974307430743,3546916.7642725,-6909.6429098182,2667102.3824599,23.174307430743,0,0
82.585836541151,-83.47214239741,17.978737873787,3546916.7642725,-6909.6429098182,2667102.3824599,23.178737873787,0,0
82.585836953141,-83.489671987212,17.983168316832,3546916.7642725,-6909.6429098182,2667102.3824599,23.183168316832,0,0
82.58583736513,-83.507201577015,17.987598759876,3546916.7642725,-6909.6429098182,2667102.3824599,23.187598759876,0,0
82.58583777712,-83.524731166817,17.99202920292,3546916.7642725,-6909.6429098182,2667102.3824599,23.19202920292,0,0
82.58583818911,-83.54226075662,17.996459645965,3546916.7642725,-6909.6429098182,2667102.3824599,23.196459645965,0,0
82.5858386011,-83.559790346422,18.000890089009,3546916.7642725,-6909.6429098182,2667102.3824599,23.200890089009,0,0
82.58583901309,-83.577319936225,18.005320532053,3546916.7642725,-6909.6429098182,2667102.3824599,23.205320532053,0,0
82.58583942508,-83.594849526027,18.009750975098,3546916.7642725,-6909.6429098182,2667102.3824599,23.209750975098,0,0
82.58583983707,-83.61237911583,18.014181418142,3546916.7642725,-6909.6429098182,2667102.3824599,23.214181418142,0,0
82.58584024906,-83.629908705632,18.018611861186,3546916.7642725,-6909.6429098182,2667102.3824599,23.218611861186,0,0
82.585840661049,-83.647438295435,18.02304230423,3546916.7642725,-6909.6429098182,2667102.3824599,23.22304230423,0,0
82.585841073039,-83.664967885237,18.027472747275,3546916.7642725,-6909.6429098182,2667102.3824599,23.227472747275,0,0
82.585841485029,-83.68249747504,18.031903190319,3546916.7642725,-6909.6429098182,2667102.3824599,23.231903190319,0,0
82.585841897019,-83.700027064842,18.036333633363,3546916.7642725,-6909.6429098182,2667102.3824599,23.236333633363,0,0
82.585842309009,-83.717556654645,18.040764076408,3546916.7642725,-6909.6429098182,2667102.3824599,23.240764076408,0,0
82.585842720999,-83.735086244447,18.045194519452,3546916.7642725,-6909.6429098182,2667102.3824599,23.245194519452,0,0
82.585843132989,-83.75261583425,18.049624962496,3546916.7642725,-6909.6429098182,2667102.3824599,23.249624962496,0,0
82.585843544979,-83.770145424052,18.054055405541,3546916.7642725,-6909.6429098182,2667102.3824599,23.254055405541,0,0
82.585843956968,-83.787675013855,18.058485848585,3546916.7642725,-6909.6429098182,2667102.3824599,23.258485848585,0,0
82.585844368958,-83.805204603657,18.062916291629,3546916.7642725,-6909.6429098182,2667102.3824599,23.262916291629,0,0
82.585844780948,-83.82273419346,18.067346734673,3546916.7642725,-6909.6429098182,2667102.3824599,23.267346734673,0,0
82.585845192938,-83.840263783262,18.071777177718,3546916.7642725,-6909.6429098182,2667102.3824599,23.271777177718,0,0
82.585845604928,-83.857793373065,18.076207620762,3546916.7642725,-6909.6429098182,2667102.3824599,23.276207620762,0,0
82.585846016918,-83.875322962867,18.080638063806,3546916.7642725,-6909.6429098182,2667102.3824599,23.280638063806,0,0
82.585846428908,-83.89285255267,18.085068506851,3546916.7642725,-6909.6429098182,2667102.3824599,23.285068506851,0,0
82.585846840898,-83.910382142472,18.089498949895,3546916.7642725,-6909.6429098182,2667102.3824599,23.289498949895,0,0
82.585847252888,-83.927911732275,18.093929392939,3546916.7642725,-6909.6429098182,2667102.3824599,23.293929392939,0,0
82.585847664877,-83.945441322077,18.098359835984,3546916.7642725,-6909.6429098182,2667102.3824599,23.298359835984,0,0
82.585848076867,-83.96297091188,18.102790279028,3546916.7642725,-6909.6429098182,2667102.3824599,23.302790279028,0,0
82.585848488857,-83.980500501682,18.107220722072,3546916.7642725,-6909.6429098182,2667102.3824599,23.307220722072,0,0
82.585848900847,-83.998030091485,18.111651165117,3546916.7642725,-6909.6429098182,2667102.3824599,23.311651165117,0,0
82.585849312837,-84.015559681287,18.116081608161,3546916.7642725,-6909.6429098182,2667102.3824599,23.316081608161,0,0
82.585849724827,-84.03308927109,18.120512051205,3546916.7642725,-6909.6429098182,2667102.3824599,23.320512051205,0,0
82.585850136817,-84.050618860892,18.124942494249,3546916.7642725,-6909.6429098182,2667102.3824599,23.324942494249,0,0
82.585850548807,-84.068148450695,18.129372937294,3546916.7642725,-6909.6429098182,2667102.3824599,23.329372937294,0,0
82.585850960796,-84.085678040498,18.133803380338,3546916.7642725,-6909.6429098182,2667102.3824599,23.333803380338,0,0
82.585851372786,-84.1032076303,18.138233823382,3546916.7642725,-6909.6429098182,2667102.3824599,23.338233823382,0,0
82.585851784776,-84.120737220103,18.142664266427,3546916.7642725,-6909.6429098182,2667102.3824599,23.342664266427,0,0
82.585852196766,-84.138266809905,18.147094709471,3546916.7642725,-6909.6429098182,2667102.3824599,23.347094709471,0,0
82.585852608756,-84.155796399708,18.151525152515,3546916.7642725,-6909.6429098182,2667102.3824599,23.351525152515,0,0
82.585853020746,-84.17332598951,18.15595559556,3546916.7642725,-6909.6429098182,2667102.3824599,23.35595559556,0,0
82.585853432736,-84.190855579313,18.160386038604,3546916.7642725,-6909.6429098182,2667102.3824599,23.360386038604,0,0
82.585853844726,-84.208385169115,18.164816481648,3546916.7642725,-6909.6429098182,2667102.3824599,23.364816481648,0,0
82.585854256715,-84.225914758918,18.169246924692,3546916.7642725,-6909.6429098182,2667102.3824599,23.369246924692,0,0
82.585854668705,-84.24344434872,18.173677367737,3546916.7642725,-6909.6429098182,2667102.3824599,23.373677367737,0,0
82.585855080695,-84.260973938523,18.178107810781,3546916.7642725,-6909.6429098182,2667102.3824599,23.378107810781,0,0
82.585855492685,-84.278503528325,18.182538253825,3546916.7642725,-6909.6429098182,2667102.3824599,23.382538253825,0,0
82.585855904675,-84.296033118128,18.18696869687,3546916.7642725,-6909.6429098182,2667102.3824599,23.38696869687,0,0
82.585856316665,-84.31356270793,18.191399139914,3546916.7642725,-6909.6429098182,2667102.3824599,23.391399139914,0,0
82.585856728655,-84.331092297733,18.195829582958,3546916.7642725,-6909.6429098182,2667102.3824599,23.395829582958,0,0
82.585857140645,-84.348621887535,18.200260026003,3546916.7642725,-6909.6429098182,2667102.3824599,23.400260026003,0,0
82.585857552634,-84.366151477338,18.204690469047,3546916.7642725,-6909.6429098182,2667102.3824599,23.404690469047,0,0
82.585857964624,-84.38368106714,18.209120912091,3546916.7642725,-6909.6429098182,2667102.3824599,23.409120912091,0,0
82.585858376614,-84.401210656943,18.213551355136,3546916.7642725,-6909.6429098182,2667102.3824599,23.413551355136,0,0
82.585858788604,-84.418740246745,18.21798179818,3546916.7642725,-6909.6429098182,2667102.3824599,23.41798179818,0,0
82.585859200594,-84.436269836548,18.222412241224,3546916.7642725,-6909.6429098182,2667102.3824599,23.422412241224,0,0
82.585859612584,-84.45379942635,18.226842684268,3546916.7642725,-6909.6429098182,2667102.3824599,23.426842684268,0,0
82.585860024574,-84.471329016153,18.231273127313,3546916.7642725,-6909.6429098182,2667102.3824599,23.431273127313,0,0
82.585860436564,-84.488858605955,18.235703570357,3546916.7642725,-6909.6429098182,2667102.3824599,23.435703570357,0,0
82.585860848553,-84.506388195758,18.240134013401,3546916.7642725,-6909.6429098182,2667102.3824599,23.440134013401,0,0
82.585861260543,-84.52391778556,18.244564456446,3546916.7642725,-6909.6429098182,2667102.3824599,23.444564456446,0,0
82.585861672533,-84.541447375363,18.24899489949,3546916.7642725,-6909.6429098182,2667102.3824599,23.44899489949,0,0
82.585862084523,-84.558976965165,18.253425342534,3546916.7642725,-6909.6429098182,2667102.3824599,23.453425342534,0,0
82.585862496513,-84.576506554968,18.257855785579,3546916.7642725,-6909.6429098182,2667102.3824599,23.457855785579,0,0
82.585862908503,-84.59403614477,18.262286228623,3546916.7642725,-6909.6429098182,2667102.3824599,23.462286228623,0,0
82.585863320493,-84.611565734573,18.266716671667,3546916.7642725,-6909.6429098182,2667102.3824599,23.466716671667,0,0
82.585863732483,-84.629095324375,18.271147114711,3546916.7642725,-6909.6429098182,2667102.3824599,23.471147114711,0,0
82.585864144473,-84.646624914178,18.275577557756,3546916.7642725,-6909.6429098182,2667102.3824599,23.475577557756,0,0
82.585864556462,-84.66415450398,18.2800080008,3546916.7642725,-6909.6429098182,2667102.3824599,23.4800080008,0,0
82.585864968452,-84.681684093783,18.284438443844,3546916.7642725,-6909.6429098182,2667102.3824599,23.484438443844,0,0
82.585865380442,-84.699213683585,18.288868886889,3546916.7642725,-6909.6429098182,2667102.3824599,23.488868886889,0,0
82.585865792432,-84.716743273388,18.293299329933,3546916.7642725,-6909.6429098182,2667102.3824599,23.493299329933,0,0
82.585866204422,-84.73427286319,18.297729772977,3546916.7642725,-6909.6429098182,2667102.3824599,23.497729772977,0,0
82.585866616412,-84.751802452993,18.302160216022,3546916.7642725,-6909.6429098182,2667102.3824599,23.502160216022,0,0
82.585867028402,-84.769332042795,18.306590659066,3546916.7642725,-6909.6429098182,2667102.3824599,23.506590659066,0,0
82.585867440392,-84.786861632598,18.31102110211,3546916.7642725,-6909.6429098182,2667102.3824599,23.51102110211,0,0
82.585867852381,-84.8043912224,18.315451545155,3546916.7642725,-6909.6429098182,2667102.3824599,23.515451545155,0,0
82.585868264371,-84.821920812203,18.319881988199,3546916.7642725,-6909.6429098182,2667102.3824599,23.519881988199,0,0
82.585868676361,-84.839450402005,18.324312431243,3546916.7642725,-6909.6429098182,2667102.3824599,23.524312431243,0,0
82.58586908829,-84.85697999221,18.328742874287,3536138.3043971,-15074.813088916,2643234.0663143,23.528742874287,0,0
82.585869500055,-84.874509583508,18.333173317332,3536138.3043971,-15074.813088916,2643234.0663143,23.533173317332,0,0
82.585869911819,-84.892039174805,18.337603760376,3536138.3043971,-15074.813088916,2643234.0663143,23.537603760376,0,0
82.585870323584,-84.909568766103,18.34203420342,3536138.3043971,-15074.813088916,2643234.0663143,23.54203420342,0,0
82.585870735348,-84.9270983574,18.346464646465,3536138.3043971,-15074.813088916,2643234.0663143,23.546464646465,0,0
82.585871147113,-84.944627948698,18.350895089509,3536138.3043971,-15074.813088916,2643234.0663143,23.550895089509,0,0
82.585871558877,-84.962157539995,18.355325532553,3536138.3043971,-15074.813088916,2643234.0663143,23.555325532553,0,0
82.585871970641,-84.979687131293,18.359755975598,3536138.3043971,-15074.813088916,2643234.0663143,23.559755975598,0,0
82.585872382406,-84.99721672259,18.364186418642,3536138.3043971,-15074.813088916,2643234.0663143,23.564186418642,0,0
82.58587279417,-85.014746313888,18.368616861686,3536138.3043971,-15074.813088916,2643234.0663143,23.568616861686,0,0
82.585873205935,-85.032275905185,18.37304730473,3536138.3043971,-15074.813088916,2643234.0663143,23.57304730473,0,0
82.585873617699,-85.049805496483,18.377477747775,3536138.3043971,-15074.813088916,2643234.0663143,23.577477747775,0,0
82.585874029464,-85.06733508778,18.381908190819,3536138.3043971,-15074.813088916,2643234.0663143,23.581908190819,0,0
82.585874441228,-85.084864679078,18.386338633863,3536138.3043971,-15074.813088916,2643234.0663143,23.586338633863,0,0
82.585874852993,-85.102394270375,18.390769076908,3536138.3043971,-15074.813088916,2643234.0663143,23.590769076908,0,0
82.585875264757,-85.119923861673,18.395199519952,3536138.3043971,-15074.813088916,2643234.0663143,23.595199519952,0,0
82.585875676521,-85.13745345297,18.399629962996,3536138.3043971,-15074.813088916,2643234.0663143,23.599629962996,0,0
82.585876088286,-85.154983044268,18.404060406041,3536138.3043971,-15074.813088916,2643234.0663143,23.604060406041,0,0
82.58587650005,-85.172512635565,18.408490849085,3536138.3043971,-15074.813088916,2643234.0663143,23.608490849085,0,0
82.585876911815,-85.190042226863,18.412921292129,3536138.3043971,-15074.813088916,2643234.0663143,23.612921292129,0,0
82.585877323579,-85.20757181816,18.417351735174,3536138.3043971,-15074.813088916,2643234.0663143,23.617351735174,0,0
82.585877735344,-85.225101409458,18.421782178218,3536138.3043971,-15074.813088916,2643234.0663143,23.621782178218,0,0
82.585878147108,-85.242631000755,18.426212621262,3536138.3043971,-15074.813088916,2643234.0663143,23.626212621262,0,0
82.585878558873,-85.260160592053,18.430643064306,3536138.3043971,-15074.813088916,2643234.0663143,23.630643064306,0,0
82.585878970637,-85.27769018335,18.435073507351,3536138.3043971,-15074.813088916,2643234.0663143,23.635073507351,0,0
82.585879382401,-85.295219774648,18.439503950395,3536138.3043971,-15074.813088916,2643234.0663143,23.639503950395,0,0
82.585879794166,-85.312749365945,18.443934393439,3536138.3043971,-15074.813088916,2643234.0663143,23.643934393439,0,0
82.585880208755,-85.330278956461,18.448364836484,3576809.586506,-12120.717960045,2656187.3141256,23.648364836484,0,0
82.585880623423,-85.347808546955,18.452795279528,3576809.586506,-12120.717960045,2656187.3141256,23.652795279528,0,0
82.585881038092,-85.365338137449,18.457225722572,3576809.586506,-12120.717960045,2656187.3141256,23.657225722572,0,0
82.58588145276,-85.382867727943,18.461656165617,3576809.586506,-12120.717960045,2656187.3141256,23.661656165617,0,0
82.585881867428,-85.400397318437,18.466086608661,3576809.586506,-12120.717960045,2656187.3141256,23.666086608661,0,0
82.585882282096,-85.417926908931,18.470517051705,3576809.586506,-12120.717960045,2656187.3141256,23.670517051705,0,0
82.585882696764,-85.435456499425,18.474947494749,3576809.586506,-12120.717960045,2656187.3141256,23.674947494749,0,0
82.585883111433,-85.452986089919,18.479377937794,3576809.586506,-12120.717960045,2656187.3141256,23.679377937794,0,0
82.585883526101,-85.470515680413,18.483808380838,3576809.586506,-12120.717960045,2656187.3141256,23.683808380838,0,0
82.585883940769,-85.488045270907,18.488238823882,3576809.586506,-12120.717960045,2656187.3141256,23.688238823882,0,0
82.585884355437,-85.505574861401,18.492669266927,3576809.586506,-12120.717960045,2656187.3141256,23.692669266927,0,0
82.585884770105,-85.523104451894,18.497099709971,3576809.586506,-12120.717960045,2656187.3141256,23.697099709971,0,0
82.585885184774,-85.540634042388,18.501530153015,3576809.586506,-12120.717960045,2656187.3141256,23.701530153015,0,0
82.585885599442,-85.558163632882,18.50596059606,3576809.586506,-12120.717960045,2656187.3141256,23.70596059606,0,0
82.58588601411,-85.575693223376,18.510391039104,3576809.586506,-12120.717960045,2656187.3141256,23.710391039104,0,0
82.585886428778,-85.59322281387,18.514821482148,3576809.586506,-12120.717960045,2656187.3141256,23.714821482148,0,0
82.585886843446,-85.610752404364,18.519251925193,3576809.586506,-12120.717960045,2656187.3141256,23.719251925193,0,0
82.585887258115,-85.628281994858,18.523682368237,3576809.586506,-12120.717960045,2656187.3141256,23.723682368237,0,0
82.585887672783,-85.645811585352,18.528112811281,3576809.586506,-12120.717960045,2656187.3141256,23.728112811281,0,0
82.585888087451,-85.663341175846,18.532543254325,3576809.586506,-12120.717960045,2656187.3141256,23.732543254325,0,0
82.585888502119,-85.68087076634,18.53697369737,3576809.586506,-12120.717960045,2656187.3141256,23.73697369737,0,0
82.585888916788,-85.698400356834,18.541404140414,3576809.586506,-12120.717960045,2656187.3141256,23.741404140414,0,0
82.585889331456,-85.715929947328,18.545834583458,3576809.586506,-12120.717960045,2656187.3141256,23.745834583458,0,0
82.585889746124,-85.733459537822,18.550265026503,3576809.586506,-12120.717960045,2656187.3141256,23.750265026503,0,0
82.585890160792,-85.750989128316,18.554695469547,3576809.586506,-12120.717960045,2656187.3141256,23.754695469547,0,0
82.58589057546,-85.76851871881,18.559125912591,3576809.586506,-12120.717960045,2656187.3141256,23.759125912591,0,0
82.585890990129,-85.786048309304,18.563556355636,3576809.586506,-12120.717960045,2656187.3141256,23.763556355636,0,0
82.585891404797,-85.803577899798,18.56798679868,3576809.586506,-12120.717960045,2656187.3141256,23.76798679868,0,0
82.585891819465,-85.821107490292,18.572417241724,3576809.586506,-12120.717960045,2656187.3141256,23.772417241724,0,0
82.585892234133,-85.838637080786,18.576847684768,3576809.586506,-12120.717960045,2656187.3141256,23.776847684768,0,0
82.585892648801,-85.85616667128,18.581278127813,3576809.586506,-12120.717960045,2656187.3141256,23.781278127813,0,0
82.58589306347,-85.873696261774,18.585708570857,3576809.586506,-12120.717960045,2656187.3141256,23.785708570857,0,0
82.585893478138,-85.891225852268,18.590139013901,3576809.586506,-12120.717960045,2656187.3141256,23.790139013901,0,0
82.585893892806,-85.908755442762,18.594569456946,3576809.586506,-12120.717960045,2656187.3141256,23.794569456946,0,0
82.585894307474,-85.926285033256,18.59899989999,3576809.586506,-12120.717960045,2656187.3141256,23.79899989999,0,0
82.585894722142,-85.94381462375,18.603430343034,3576809.586506,-12120.717960045,2656187.3141256,23.803430343034,0,0
82.585895136811,-85.961344214244,18.607860786079,3576809.586506,-12120.717960045,2656187.3141256,23.807860786079,0,0
82.585895551479,-85.978873804737,18.612291229123,3576809.586506,-12120.717960045,2656187.3141256,23.812291229123,0,0
82.585895966147,-85.996403395231,18.616721672167,3576809.586506,-12120.717960045,2656187.3141256,23.816721672167,0,0
82.585896380815,-86.013932985725,18.621152115212,3576809.586506,-12120.717960045,2656187.3141256,23.821152115212,0,0
82.585896795483,-86.031462576219,18.625582558256,3576809.586506,-12120.717960045,2656187.3141256,23.825582558256,0,0
82.585897210152,-86.048992166713,18.6300130013,3576809.586506,-12120.717960045,2656187.3141256,23.8300130013,0,0
82.58589762482,-86.066521757207,18.634443444344,3576809.586506,-12120.717960045,2656187.3141256,23.834443444344,0,0
82.585898039488,-86.084051347701,18.638873887389,3576809.586506,-12120.717960045,2656187.3141256,23.838873887389,0,0
82.585898454156,-86.101580938195,18.643304330433,3576809.586506,-12120.717960045,2656187.3141256,23.843304330433,0,0
82.585898868824,-86.119110528689,18.647734773477,3576809.586506,-12120.717960045,2656187.3141256,23.847734773477,0,0
82.585899283493,-86.136640119183,18.652165216522,3576809.586506,-12120.717960045,2656187.3141256,23.852165216522,0,0
82.585899698161,-86.154169709677,18.656595659566,3576809.586506,-12120.717960045,2656187.3141256,23.856595659566,0,0
82.585900112829,-86.171699300171,18.66102610261,3576809.586506,-12120.717960045,2656187.3141256,23.86102610261,0,0
82.585900527497,-86.189228890665,18.665456545655,3576809.586506,-12120.717960045,2656187.3141256,23.865456545655,0,0
82.585900942166,-86.206758481159,18.669886988699,3576809.586506,-12120.717960045,2656187.3141256,23.869886988699,0,0
82.585901356834,-86.224288071653,18.674317431743,3576809.586506,-12120.717960045,2656187.3141256,23.874317431743,0,0
82.585901771502,-86.241817662147,18.678747874787,3576809.586506,-12120.717960045,2656187.3141256,23.878747874787,0,0
82.58590218617,-86.259347252641,18.683178317832,3576809.586506,-12120.717960045,2656187.3141256,23.883178317832,0,0
82.585902600838,-86.276876843135,18.687608760876,3576809.586506,-12120.717960045,2656187.3141256,23.887608760876,0,0
82.585903015507,-86.294406433629,18.69203920392,3576809.586506,-12120.717960045,2656187.3141256,23.89203920392,0,0
82.585903430175,-86.311936024123,18.696469646965,3576809.586506,-12120.717960045,2656187.3141256,23.896469646965,0,0
82.585903844843,-86.329465614617,18.700900090009,3576809.586506,-12120.717960045,2656187.3141256,23.900900090009,0,0
82.585904259511,-86.346995205111,18.705330533053,3576809.586506,-12120.717960045,2656187.3141256,23.905330533053,0,0
82.585904674179,-86.364524795605,18.709760976098,3576809.586506,-12120.717960045,2656187.3141256,23.909760976098,0,0
82.585905088848,-86.382054386099,18.714191419142,3576809.586506,-12120.717960045,2656187.3141256,23.914191419142,0,0
82.585905503516,-86.399583976593,18.718621862186,3576809.586506,-12120.717960045,2656187.3141256,23.918621862186,0,0
82.585905918184,-86.417113567087,18.723052305231,3576809.586506,-12120.717960045,2656187.3141256,23.923052305231,0,0
82.585906332852,-86.43464315758,18.727482748275,3576809.586506,-12120.717960045,2656187.3141256,23.927482748275,0,0
82.58590674752,-86.452172748074,18.731913191319,3576809.586506,-12120.717960045,2656187.3141256,23.931913191319,0,0
82.585907162189,-86.469702338568,18.736343634363,3576809.586506,-12120.717960045,2656187.3141256,23.936343634363,0,0
82.585907576857,-86.487231929062,18.740774077408,3576809.586506,-12120.717960045,2656187.3141256,23.940774077408,0,0
82.585907991525,-86.504761519556,18.745204520452,3576809.586506,-12120.717960045,2656187.3141256,23.945204520452,0,0
82.585908406193,-86.52229111005,18.749634963496,3576809.586506,-12120.717960045,2656187.3141256,23.949634963496,0,0
82.585908820861,-86.539820700544,18.754065406541,3576809.586506,-12120.717960045,2656187.3141256,23.954065406541,0,0
82.58590923553,-86.557350291038,18.758495849585,3576809.586506,-12120.717960045,2656187.3141256,23.958495849585,0,0
82.585909650198,-86.574879881532,18.762926292629,3576809.586506,-12120.717960045,2656187.3141256,23.962926292629,0,0
82.585910064866,-86.592409472026,18.767356735674,3576809.586506,-12120.717960045,2656187.3141256,23.967356735674,0,0
82.585910479174,-86.609939062455,18.771787178718,3556086.3730007,7764.7005173275,2640208.0118623,23.971787178718,0,0
82.585910892613,-86.627468652727,18.776217621762,3556086.3730007,7764.7005173275,2640208.0118623,23.976217621762,0,0
82.585911306051,-86.644998242999,18.780648064806,3556086.3730007,7764.7005173275,2640208.0118623,23.980648064806,0,0
82.585911719489,-86.662527833271,18.785078507851,3556086.3730007,7764.7005173275,2640208.0118623,23.985078507851,0,0
82.585912132928,-86.680057423543,18.789508950895,3556086.3730007,7764.7005173275,2640208.0118623,23.989508950895,0,0
82.585912546366,-86.697587013815,18.793939393939,3556086.3730007,7764.7005173275,2640208.0118623,23.993939393939,0,0
82.585912959805,-86.715116604087,18.798369836984,3556086.3730007,7764.7005173275,2640208.0118623,23.998369836984,0,0
82.585913373243,-86.732646194359,18.802800280028,3556086.3730007,7764.7005173275,2640208.0118623,24.002800280028,0,0
82.585913786681,-86.750175784631,18.807230723072,3556086.3730007,7764.7005173275,2640208.0118623,24.007230723072,0,0
82.58591420012,-86.767705374902,18.811661166117,3556086.3730007,7764.7005173275,2640208.0118623,24.011661166117,0,0
82.585914613558,-86.785234965174,18.816091609161,3556086.3730007,7764.7005173275,2640208.0118623,24.016091609161,0,0
82.585915026996,-86.802764555446,18.820522052205,3556086.3730007,7764.7005173275,2640208.0118623,24.020522052205,0,0
82.585915440435,-86.820294145718,18.82495249525,3556086.3730007,7764.7005173275,2640208.0118623,24.02495249525,0,0
82.585915853873,-86.83782373599,18.829382938294,3556086.3730007,7764.7005173275,2640208.0118623,24.029382938294,0,0
82.585916267312,-86.855353326262,18.833813381338,3556086.3730007,7764.7005173275,2640208.0118623,24.033813381338,0,0
82.58591668075,-86.872882916534,18.838243824382,3556086.3730007,7764.7005173275,2640208.0118623,24.038243824382,0,0
82.585917094188,-86.890412506806,18.842674267427,3556086.3730007,7764.7005173275,2640208.0118623,24.042674267427,0,0
82.585917507627,-86.907942097078,18.847104710471,3556086.3730007,7764.7005173275,2640208.0118623,24.047104710471,0,0
82.585917921065,-86.92547168735,18.851535153515,3556086.3730007,7764.7005173275,2640208.0118623,24.051535153515,0,0
82.585918334503,-86.943001277622,18.85596559656,3556086.3730007,7764.7005173275,2640208.0118623,24.05596559656,0,0
82.585918747942,-86.960530867894,18.860396039604,3556086.3730007,7764.7005173275,2640208.0118623,24.060396039604,0,0
82.58591916138,-86.978060458166,18.864826482648,3556086.3730007,7764.7005173275,2640208.0118623,24.064826482648,0,0
82.585919574819,-86.995590048438,18.869256925693,3556086.3730007,7764.7005173275,2640208.0118623,24.069256925693,0,0
82.585919988257,-87.01311963871,18.873687368737,3556086.3730007,7764.7005173275,2640208.0118623,24.073687368737,0,0
82.585920401695,-87.030649228981,18.878117811781,3556086.3730007,7764.7005173275,2640208.0118623,24.078117811781,0,0
82.585920815134,-87.048178819253,18.882548254825,3556086.3730007,7764.7005173275,2640208.0118623,24.082548254825,0,0
82.585921228572,-87.065708409525,18.88697869787,3556086.3730007,7764.7005173275,2640208.0118623,24.08697869787,0,0
82.585921642011,-87.083237999797,18.891409140914,3556086.3730007,7764.7005173275,2640208.0118623,24.091409140914,0,0
82.585922055449,-87.100767590069,18.895839583958,3556086.3730007,7764.7005173275,2640208.0118623,24.095839583958,0,0
82.585922468887,-87.118297180341,18.900270027003,3556086.3730007,7764.7005173275,2640208.0118623,24.100270027003,0,0
82.585922882326,-87.135826770613,18.904700470047,3556086.3730007,7764.7005173275,2640208.0118623,24.104700470047,0,0
82.585923295764,-87.153356360885,18.909130913091,3556086.3730007,7764.7005173275,2640208.0118623,24.109130913091,0,0
82.585923709202,-87.170885951157,18.913561356136,3556086.3730007,7764.7005173275,2640208.0118623,24.113561356136,0,0
82.585924122641,-87.188415541429,18.91799179918,3556086.3730007,7764.7005173275,2640208.0118623,24.11799179918,0,0
82.585924536079,-87.205945131701,18.922422242224,3556086.3730007,7764.7005173275,2640208.0118623,24.122422242224,0,0
82.585924949518,-87.223474721973,18.926852685269,3556086.3730007,7764.7005173275,2640208.0118623,24.126852685269,0,0
82.585925362956,-87.241004312245,18.931283128313,3556086.3730007,7764.7005173275,2640208.0118623,24.131283128313,0,0
82.585925776394,-87.258533902517,18.935713571357,3556086.3730007,7764.7005173275,2640208.0118623,24.135713571357,0,0
82.585926189833,-87.276063492789,18.940144014401,3556086.3730007,7764.7005173275,2640208.0118623,24.140144014401,0,0
82.585926603271,-87.29359308306,18.944574457446,3556086.3730007,7764.7005173275,2640208.0118623,24.144574457446,0,0
82.585927016709,-87.311122673332,18.94900490049,3556086.3730007,7764.7005173275,2640208.0118623,24.14900490049,0,0
82.585927430148,-87.328652263604,18.953435343534,3556086.3730007,7764.7005173275,2640208.0118623,24.153435343534,0,0
82.585927843586,-87.346181853876,18.957865786579,3556086.3730007,7764.7005173275,2640208.0118623,24.157865786579,0,0
82.585928257025,-87.363711444148,18.962296229623,3556086.3730007,7764.7005173275,2640208.0118623,24.162296229623,0,0
82.585928670463,-87.38124103442,18.966726672667,3556086.3730007,7764.7005173275,2640208.0118623,24.166726672667,0,0
82.585929083901,-87.398770624692,18.971157115712,3556086.3730007,7764.7005173275,2640208.0118623,24.171157115712,0,0
82.58592949734,-87.416300214964,18.975587558756,3556086.3730007,7764.7005173275,2640208.0118623,24.175587558756,0,0
82.585929910778,-87.433829805236,18.9800180018,3556086.3730007,7764.7005173275,2640208.0118623,24.1800180018,0,0
82.585930324216,-87.451359395508,18.984448444844,3556086.3730007,7764.7005173275,2640208.0118623,24.184448444844,0,0
82.585930737655,-87.46888898578,18.988878887889,3556086.3730007,7764.7005173275,2640208.0118623,24.188878887889,0,0
82.585931151093,-87.486418576052,18.993309330933,3556086.3730007,7764.7005173275,2640208.0118623,24.193309330933,0,0
82.585931564532,-87.503948166324,18.997739773977,3556086.3730007,7764.7005173275,2640208.0118623,24.197739773977,0,0
82.58593197797,-87.521477756596,19.002170217022,3556086.3730007,7764.7005173275,2640208.0118623,24.202170217022,0,0
82.585932391408,-87.539007346868,19.006600660066,3556086.3730007,7764.7005173275,2640208.0118623,24.206600660066,0,0
82.585932804847,-87.556536937139,19.01103110311,3556086.3730007,7764.7005173275,2640208.0118623,24.21103110311,0,0
82.585933218285,-87.574066527411,19.015461546155,3556086.3730007,7764.7005173275,2640208.0118623,24.215461546155,0,0
82.585933631723,-87.591596117683,19.019891989199,3556086.3730007,7764.7005173275,2640208.0118623,24.219891989199,0,0
82.585934045162,-87.609125707955,19.024322432243,3556086.3730007,7764.7005173275,2640208.0118623,24.224322432243,0,0
82.5859344586,-87.626655298227,19.028752875288,3556086.3730007,7764.7005173275,2640208.0118623,24.228752875288,0,0
82.585934872039,-87.644184888499,19.033183318332,3556086.3730007,7764.7005173275,2640208.0118623,24.233183318332,0,0
82.585935285477,-87.661714478771,19.037613761376,3556086.3730007,7764.7005173275,2640208.0118623,24.237613761376,0,0
82.585935698915,-87.679244069043,19.04204420442,3556086.3730007,7764.7005173275,2640208.0118623,24.24204420442,0,0
82.585936112354,-87.696773659315,19.046474647465,3556086.3730007,7764.7005173275,2640208.0118623,24.246474647465,0,0
82.585936525792,-87.714303249587,19.050905090509,3556086.3730007,7764.7005173275,2640208.0118623,24.250905090509,0,0
82.58593693923,-87.731832839859,19.055335533553,3556086.3730007,7764.7005173275,2640208.0118623,24.255335533553,0,0
82.585937352669,-87.749362430131,19.059765976598,3556086.3730007,7764.7005173275,2640208.0118623,24.259765976598,0,0
82.585937766107,-87.766892020403,19.064196419642,3556086.3730007,7764.7005173275,2640208.0118623,24.264196419642,0,0
82.585938179546,-87.784421610675,19.068626862686,3556086.3730007,7764.7005173275,2640208.0118623,24.268626862686,0,0
82.585938592984,-87.801951200947,19.073057305731,3556086.3730007,7764.7005173275,2640208.0118623,24.273057305731,0,0
82.585939006422,-87.819480791218,19.077487748775,3556086.3730007,7764.7005173275,2640208.0118623,24.277487748775,0,0
82.585939419861,-87.83701038149,19.081918191819,3556086.3730007,7764.7005173275,2640208.0118623,24.281918191819,0,0
82.585939833299,-87.854539971762,19.086348634863,3556086.3730007,7764.7005173275,2640208.0118623,24.286348634863,0,0
82.585940246737,-87.872069562034,19.090779077908,3556086.3730007,7764.7005173275,2640208.0118623,24.290779077908,0,0
82.585940660176,-87.889599152306,19.095209520952,3556086.3730007,7764.7005173275,2640208.0118623,24.295209520952,0,0
82.585941073614,-87.907128742578,19.099639963996,3556086.3730007,7764.7005173275,2640208.0118623,24.299639963996,0,0
82.585941487053,-87.92465833285,19.104070407041,3556086.3730007,7764.7005173275,2640208.0118623,24.304070407041,0,0
82.585941900491,-87.942187923122,19.108500850085,3556086.3730007,7764.7005173275,2640208.0118623,24.308500850085,0,0
82.585942313929,-87.959717513394,19.112931293129,3556086.3730007,7764.7005173275,2640208.0118623,24.312931293129,0,0
82.585942727368,-87.977247103666,19.117361736174,3556086.3730007,7764.7005173275,2640208.0118623,24.317361736174,0,0
82.585943140806,-87.994776693938,19.121792179218,3556086.3730007,7764.7005173275,2640208.0118623,24.321792179218,0,0
82.585943554245,-88.01230628421,19.126222622262,3556086.3730007,7764.7005173275,2640208.0118623,24.326222622262,0,0
82.585943967683,-88.029835874482,19.130653065307,3556086.3730007,7764.7005173275,2640208.0118623,24.330653065307,0,0
82.585944381121,-88.047365464754,19.135083508351,3556086.3730007,7764.7005173275,2640208.0118623,24.335083508351,0,0
82.58594479456,-88.064895055026,19.139513951395,3556086.3730007,7764.7005173275,2640208.0118623,24.339513951395,0,0
82.585945207998,-88.082424645297,19.143944394439,3556086.3730007,7764.7005173275,2640208.0118623,24.343944394439,0,0
82.585945621436,-88.099954235569,19.148374837484,3556086.3730007,7764.7005173275,2640208.0118623,24.348374837484,0,0
82.585946034875,-88.117483825841,19.152805280528,3556086.3730007,7764.7005173275,2640208.0118623,24.352805280528,0,0
82.585946448313,-88.135013416113,19.157235723572,3556086.3730007,7764.7005173275,2640208.0118623,24.357235723572,0,0
82.585946861752,-88.152543006385,19.161666166617,3556086.3730007,7764.7005173275,2640208.0118623,24.361666166617,0,0
82.58594727519,-88.170072596657,19.166096609661,3556086.3730007,7764.7005173275,2640208.0118623,24.366096609661,0,0
82.585947688628,-88.187602186929,19.170527052705,3556086.3730007,7764.7005173275,2640208.0118623,24.370527052705,0,0
82.585948102067,-88.205131777201,19.17495749575,3556086.3730007,7764.7005173275,2640208.0118623,24.37495749575,0,0
82.585948515505,-88.222661367473,19.179387938794,3556086.3730007,7764.7005173275,2640208.0118623,24.379387938794,0,0
82.585948928943,-88.240190957745,19.183818381838,3556086.3730007,7764.7005173275,2640208.0118623,24.383818381838,0,0
82.585949342382,-88.257720548017,19.188248824882,3556086.3730007,7764.7005173275,2640208.0118623,24.388248824882,0,0
82.58594975582,-88.275250138289,19.192679267927,3556086.3730007,7764.7005173275,2640208.0118623,24.392679267927,0,0
82.585950169259,-88.292779728561,19.197109710971,3556086.3730007,7764.7005173275,2640208.0118623,24.397109710971,0,0
82.585950582697,-88.310309318833,19.201540154015,3556086.3730007,7764.7005173275,2640208.0118623,24.401540154015,0,0
82.585950996135,-88.327838909105,19.20597059706,3556086.3730007,7764.7005173275,2640208.0118623,24.40597059706,0,0
82.585951409574,-88.345368499376,19.210401040104,3556086.3730007,7764.7005173275,2640208.0118623,24.410401040104,0,0
82.585951823012,-88.362898089648,19.214831483148,3556086.3730007,7764.7005173275,2640208.0118623,24.414831483148,0,0
82.58595223645,-88.38042767992,19.219261926193,3556086.3730007,7764.7005173275,2640208.0118623,24.419261926193,0,0
82.585952649889,-88.397957270192,19.223692369237,3556086.3730007,7764.7005173275,2640208.0118623,24.423692369237,0,0
82.585953063327,-88.415486860464,19.228122812281,3556086.3730007,7764.7005173275,2640208.0118623,24.428122812281,0,0
82.585953476766,-88.433016450736,19.232553255326,3556086.3730007,7764.7005173275,2640208.0118623,24.432553255326,0,0
82.585953890204,-88.450546041008,19.23698369837,3556086.3730007,7764.7005173275,2640208.0118623,24.43698369837,0,0
82.585954303642,-88.46807563128,19.241414141414,3556086.3730007,7764.7005173275,2640208.0118623,24.441414141414,0,0
82.585954717081,-88.485605221552,19.245844584458,3556086.3730007,7764.7005173275,2640208.0118623,24.445844584458,0,0
82.585955130519,-88.503134811824,19.250275027503,3556086.3730007,7764.7005173275,2640208.0118623,24.450275027503,0,0
82.585955543957,-88.520664402096,19.254705470547,3556086.3730007,7764.7005173275,2640208.0118623,24.454705470547,0,0
82.585955957396,-88.538193992368,19.259135913591,3556086.3730007,7764.7005173275,2640208.0118623,24.459135913591,0,0
82.585956370834,-88.55572358264,19.263566356636,3556086.3730007,7764.7005173275,2640208.0118623,24.463566356636,0,0
82.585956784273,-88.573253172912,19.26799679968,3556086.3730007,7764.7005173275,2640208.0118623,24.46799679968,0,0
82.585957197711,-88.590782763184,19.272427242724,3556086.3730007,7764.7005173275,2640208.0118623,24.472427242724,0,0
82.585957611149,-88.608312353455,19.276857685769,3556086.3730007,7764.7005173275,2640208.0118623,24.476857685769,0,0
82.585958024588,-88.625841943727,19.281288128813,3556086.3730007,7764.7005173275,2640208.0118623,24.481288128813,0,0
82.585958438026,-88.643371533999,19.285718571857,3556086.3730007,7764.7005173275,2640208.0118623,24.485718571857,0,0
82.585958851464,-88.660901124271,19.290149014901,3556086.3730007,7764.7005173275,2640208.0118623,24.490149014901,0,0
82.585959264903,-88.678430714543,19.294579457946,3556086.3730007,7764.7005173275,2640208.0118623,24.494579457946,0,0
82.585959678341,-88.695960304815,19.29900990099,3556086.3730007,7764.7005173275,2640208.0118623,24.49900990099,0,0
82.58596009178,-88.713489895087,19.303440344034,3556086.3730007,7764.7005173275,2640208.0118623,24.503440344034,0,0
82.585960505218,-88.731019485359,19.307870787079,3556086.3730007,7764.7005173275,2640208.0118623,24.507870787079,0,0
82.585960918656,-88.748549075631,19.312301230123,3556086.3730007,7764.7005173275,2640208.0118623,24.512301230123,0,0
82.585961332095,-88.766078665903,19.316731673167,3556086.3730007,7764.7005173275,2640208.0118623,24.516731673167,0,0
82.585961745533,-88.783608256175,19.321162116212,3556086.3730007,7764.7005173275,2640208.0118623,24.521162116212,0,0
82.585962158971,-88.801137846447,19.325592559256,3556086.3730007,7764.7005173275,2640208.0118623,24.525592559256,0,0
82.58596257241,-88.818667436719,19.3300230023,3556086.3730007,7764.7005173275,2640208.0118623,24.5300230023,0,0
82.585962985848,-88.836197026991,19.334453445345,3556086.3730007,7764.7005173275,2640208.0118623,24.534453445345,0,0
82.585963399287,-88.853726617263,19.338883888389,3556086.3730007,7764.7005173275,2640208.0118623,24.538883888389,0,0
82.585963812725,-88.871256207534,19.343314331433,3556086.3730007,7764.7005173275,2640208.0118623,24.543314331433,0,0
82.585964226163,-88.888785797806,19.347744774477,3556086.3730007,7764.7005173275,2640208.0118623,24.547744774477,0,0
82.585964639602,-88.906315388078,19.352175217522,3556086.3730007,7764.7005173275,2640208.0118623,24.552175217522,0,0
82.58596505304,-88.92384497835,19.356605660566,3556086.3730007,7764.7005173275,2640208.0118623,24.556605660566,0,0
82.585965466479,-88.941374568622,19.36103610361,3556086.3730007,7764.7005173275,2640208.0118623,24.56103610361,0,0
82.585965879917,-88.958904158894,19.365466546655,3556086.3730007,7764.7005173275,2640208.0118623,24.565466546655,0,0
82.585966293355,-88.976433749166,19.369896989699,3556086.3730007,7764.7005173275,2640208.0118623,24.569896989699,0,0
82.585966706794,-88.993963339438,19.374327432743,3556086.3730007,7764.7005173275,2640208.0118623,24.574327432743,0,0
82.585967120232,-89.01149292971,19.378757875788,3556086.3730007,7764.7005173275,2640208.0118623,24.578757875788,0,0
82.58596753367,-89.029022519982,19.383188318832,3556086.3730007,7764.7005173275,2640208.0118623,24.583188318832,0,0
82.585967947109,-89.046552110254,19.387618761876,3556086.3730007,7764.7005173275,2640208.0118623,24.587618761876,0,0
82.585968360547,-89.064081700526,19.39204920492,3556086.3730007,7764.7005173275,2640208.0118623,24.59204920492,0,0
82.585968773986,-89.081611290798,19.396479647965,3556086.3730007,7764.7005173275,2640208.0118623,24.596479647965,0,0
82.585969187424,-89.09914088107,19.400910091009,3556086.3730007,7764.7005173275,2640208.0118623,24.600910091009,0,0
82.585969600862,-89.116670471342,19.405340534053,3556086.3730007,7764.7005173275,2640208.0118623,24.605340534053,0,0
82.585970014301,-89.134200061613,19.409770977098,3556086.3730007,7764.7005173275,2640208.0118623,24.609770977098,0,0
82.585970427739,-89.151729651885,19.414201420142,3556086.3730007,7764.7005173275,2640208.0118623,24.614201420142,0,0
82.585970841177,-89.169259242157,19.418631863186,3556086.3730007,7764.7005173275,2640208.0118623,24.618631863186,0,0
82.585971254616,-89.186788832429,19.423062306231,3556086.3730007,7764.7005173275,2640208.0118623,24.623062306231,0,0
82.585971668054,-89.204318422701,19.427492749275,3556086.3730007,7764.7005173275,2640208.0118623,24.627492749275,0,0
82.585972081493,-89.221848012973,19.431923192319,3556086.3730007,7764.7005173275,2640208.0118623,24.631923192319,0,0
82.585972494931,-89.239377603245,19.436353635364,3556086.3730007,7764.7005173275,2640208.0118623,24.636353635364,0,0
82.585972908369,-89.256907193517,19.440784078408,3556086.3730007,7764.7005173275,2640208.0118623,24.640784078408,0,0
82.585973321808,-89.274436783789,19.445214521452,3556086.3730007,7764.7005173275,2640208.0118623,24.645214521452,0,0
82.585973735246,-89.291966374061,19.449644964496,3556086.3730007,7764.7005173275,2640208.0118623,24.649644964496,0,0
82.585974148684,-89.309495964333,19.454075407541,3556086.3730007,7764.7005173275,2640208.0118623,24.654075407541,0,0
82.585974562123,-89.327025554605,19.458505850585,3556086.3730007,7764.7005173275,2640208.0118623,24.658505850585,0,0
82.585974975561,-89.344555144877,19.462936293629,3556086.3730007,7764.7005173275,2640208.0118623,24.662936293629,0,0
82.585975389,-89.362084735149,19.467366736674,3556086.3730007,7764.7005173275,2640208.0118623,24.667366736674,0,0
82.585975802438,-89.379614325421,19.471797179718,3556086.3730007,7764.7005173275,2640208.0118623,24.671797179718,0,0
82.585976215876,-89.397143915692,19.476227622762,3556086.3730007,7764.7005173275,2640208.0118623,24.676227622762,0,0
82.585976629315,-89.414673505964,19.480658065807,3556086.3730007,7764.7005173275,2640208.0118623,24.680658065807,0,0
82.585977042753,-89.432203096236,19.485088508851,3556086.3730007,7764.7005173275,2640208.0118623,24.685088508851,0,0
82.585977456191,-89.449732686508,19.489518951895,3556086.3730007,7764.7005173275,2640208.0118623,24.689518951895,0,0
82.58597786963,-89.46726227678,19.493949394939,3556086.3730007,7764.7005173275,2640208.0118623,24.693949394939,0,0
82.585978283068,-89.484791867052,19.498379837984,3556086.3730007,7764.7005173275,2640208.0118623,24.698379837984,0,0
82.585978696507,-89.502321457324,19.502810281028,3556086.3730007,7764.7005173275,2640208.0118623,24.702810281028,0,0
82.585979109945,-89.519851047596,19.507240724072,3556086.3730007,7764.7005173275,2640208.0118623,24.707240724072,0,0
82.585979523383,-89.537380637868,19.511671167117,3556086.3730007,7764.7005173275,2640208.0118623,24.711671167117,0,0
82.585979936822,-89.55491022814,19.516101610161,3556086.3730007,7764.7005173275,2640208.0118623,24.716101610161,0,0
82.58598035026,-89.572439818412,19.520532053205,3556086.3730007,7764.7005173275,2640208.0118623,24.720532053205,0,0
82.585980763698,-89.589969408684,19.52496249625,3556086.3730007,7764.7005173275,2640208.0118623,24.72496249625,0,0
82.585981177137,-89.607498998956,19.529392939294,3556086.3730007,7764.7005173275,2640208.0118623,24.729392939294,0,0
82.585981590575,-89.625028589228,19.533823382338,3556086.3730007,7764.7005173275,2640208.0118623,24.733823382338,0,0
82.585982004014,-89.6425581795,19.538253825383,3556086.3730007,7764.7005173275,2640208.0118623,24.738253825383,0,0
82.585982417452,-89.660087769771,19.542684268427,3556086.3730007,7764.7005173275,2640208.0118623,24.742684268427,0,0
82.58598283089,-89.677617360043,19.547114711471,3556086.3730007,7764.7005173275,2640208.0118623,24.747114711471,0,0
82.585983244329,-89.695146950315,19.551545154515,3556086.3730007,7764.7005173275,2640208.0118623,24.751545154515,0,0
82.585983657767,-89.712676540587,19.55597559756,3556086.3730007,7764.7005173275,2640208.0118623,24.75597559756,0,0
82.585984071206,-89.730206130859,19.560406040604,3556086.3730007,7764.7005173275,2640208.0118623,24.760406040604,0,0
82.585984484644,-89.747735721131,19.564836483648,3556086.3730007,7764.7005173275,2640208.0118623,24.764836483648,0,0
82.585984898082,-89.765265311403,19.569266926693,3556086.3730007,7764.7005173275,2640208.0118623,24.769266926693,0,0
82.585985313694,-89.782794900183,19.573697369737,3587685.4707334,11956.604866299,2644140.6971736,24.773697369737,0,0
82.585985729552,-89.800324488794,19.578127812781,3587685.4707334,11956.604866299,2644140.6971736,24.778127812781,0,0
82.585986145409,-89.817854077405,19.582558255826,3587685.4707334,11956.604866299,2644140.6971736,24.782558255826,0,0
82.585986561267,-89.835383666016,19.58698869887,3587685.4707334,11956.604866299,2644140.6971736,24.78698869887,0,0
82.585986977125,-89.852913254627,19.591419141914,3587685.4707334,11956.604866299,2644140.6971736,24.791419141914,0,0
82.585987392982,-89.870442843238,19.595849584958,3587685.4707334,11956.604866299,2644140.6971736,24.795849584958,0,0
82.58598780884,-89.887972431849,19.600280028003,3587685.4707334,11956.604866299,2644140.6971736,24.800280028003,0,0
82.585988224698,-89.905502020461,19.604710471047,3587685.4707334,11956.604866299,2644140.6971736,24.804710471047,0,0
82.585988640555,-89.923031609072,19.609140914091,3587685.4707334,11956.604866299,2644140.6971736,24.809140914091,0,0
82.585989056413,-89.940561197683,19.613571357136,3587685.4707334,11956.604866299,2644140.6971736,24.813571357136,0,0
82.585989472271,-89.958090786294,19.61800180018,3587685.4707334,11956.604866299,2644140.6971736,24.81800180018,0,0
82.585989888128,-89.975620374905,19.622432243224,3587685.4707334,11956.604866299,2644140.6971736,24.822432243224,0,0
82.585990303986,-89.993149963516,19.626862686269,3587685.4707334,11956.604866299,2644140.6971736,24.826862686269,0,0
82.585990719844,-90.010679552127,19.631293129313,3587685.4707334,11956.604866299,2644140.6971736,24.831293129313,0,0
82.585991135701,-90.028209140738,19.635723572357,3587685.4707334,11956.604866299,2644140.6971736,24.835723572357,0,0
82.585991551559,-90.045738729349,19.640154015402,3587685.4707334,11956.604866299,2644140.6971736,24.840154015402,0,0
82.585991967417,-90.06326831796,19.644584458446,3587685.4707334,11956.604866299,2644140.6971736,24.844584458446,0,0
82.585992383274,-90.080797906571,19.64901490149,3587685.4707334,11956.604866299,2644140.6971736,24.84901490149,0,0
82.585992799132,-90.098327495182,19.653445344534,3587685.4707334,11956.604866299,2644140.6971736,24.853445344534,0,0
82.58599321499,-90.115857083794,19.657875787579,3587685.4707334,11956.604866299,2644140.6971736,24.857875787579,0,0
82.585993630847,-90.133386672405,19.662306230623,3587685.4707334,11956.604866299,2644140.6971736,24.862306230623,0,0
82.585994046705,-90.150916261016,19.666736673667,3587685.4707334,11956.604866299,2644140.6971736,24.866736673667,0,0
82.585994462563,-90.168445849627,19.671167116712,3587685.4707334,11956.604866299,2644140.6971736,24.871167116712,0,0
82.58599487842,-90.185975438238,19.675597559756,3587685.4707334,11956.604866299,2644140.6971736,24.875597559756,0,0
82.585995294278,-90.203505026849,19.6800280028,3587685.4707334,11956.604866299,2644140.6971736,24.8800280028,0,0
82.585995710136,-90.22103461546,19.684458445845,3587685.4707334,11956.604866299,2644140.6971736,24.884458445845,0,0
82.585996125993,-90.238564204071,19.688888888889,3587685.4707334,11956.604866299,2644140.6971736,24.888888888889,0,0
82.585996541851,-90.256093792682,19.693319331933,3587685.4707334,11956.604866299,2644140.6971736,24.893319331933,0,0
82.585996957709,-90.273623381293,19.697749774977,3587685.4707334,11956.604866299,2644140.6971736,24.897749774977,0,0
82.585997373566,-90.291152969904,19.702180218022,3587685.4707334,11956.604866299,2644140.6971736,24.902180218022,0,0
82.585997789424,-90.308682558515,19.706610661066,3587685.4707334,11956.604866299,2644140.6971736,24.906610661066,0,0
82.585998205282,-90.326212147127,19.71104110411,3587685.4707334,11956.604866299,2644140.6971736,24.91104110411,0,0
82.585998621139,-90.343741735738,19.715471547155,3587685.4707334,11956.604866299,2644140.6971736,24.915471547155,0,0
82.585999036997,-90.361271324349,19.719901990199,3587685.4707334,11956.604866299,2644140.6971736,24.919901990199,0,0
82.585999452855,-90.37880091296,19.724332433243,3587685.4707334,11956.604866299,2644140.6971736,24.924332433243,0,0
82.585999868713,-90.396330501571,19.728762876288,3587685.4707334,11956.604866299,2644140.6971736,24.928762876288,0,0
82.58600028457,-90.413860090182,19.733193319332,3587685.4707334,11956.604866299,2644140.6971736,24.933193319332,0,0
82.586000700428,-90.431389678793,19.737623762376,3587685.4707334,11956.604866299,2644140.6971736,24.937623762376,0,0
82.586001116286,-90.448919267404,19.742054205421,3587685.4707334,11956.604866299,2644140.6971736,24.942054205421,0,0
82.586001532143,-90.466448856015,19.746484648465,3587685.4707334,11956.604866299,2644140.6971736,24.946484648465,0,0
82.586001948001,-90.483978444626,19.750915091509,3587685.4707334,11956.604866299,2644140.6971736,24.950915091509,0,0
82.586002363859,-90.501508033237,19.755345534553,3587685.4707334,11956.604866299,2644140.6971736,24.955345534553,0,0
82.586002779716,-90.519037621849,19.759775977598,3587685.4707334,11956.604866299,2644140.6971736,24.959775977598,0,0
82.586003195574,-90.53656721046,19.764206420642,3587685.4707334,11956.604866299,2644140.6971736,24.964206420642,0,0
82.586003611432,-90.554096799071,19.768636863686,3587685.4707334,11956.604866299,2644140.6971736,24.968636863686,0,0
82.586004027289,-90.571626387682,19.773067306731,3587685.4707334,11956.604866299,2644140.6971736,24.973067306731,0,0
82.586004443147,-90.589155976293,19.777497749775,3587685.4707334,11956.604866299,2644140.6971736,24.977497749775,0,0
82.586004859005,-90.606685564904,19.781928192819,3587685.4707334,11956.604866299,2644140.6971736,24.981928192819,0,0
82.586005274862,-90.624215153515,19.786358635864,3587685.4707334,11956.604866299,2644140.6971736,24.986358635864,0,0
82.58600569072,-90.641744742126,19.790789078908,3587685.4707334,11956.604866299,2644140.6971736,24.990789078908,0,0
82.586006106578,-90.659274330737,19.795219521952,3587685.4707334,11956.604866299,2644140.6971736,24.995219521952,0,0
82.586006522435,-90.676803919348,19.799649964996,3587685.4707334,11956.604866299,2644140.6971736,24.999649964996,0,0
82.586006938293,-90.694333507959,19.804080408041,3587685.4707334,11956.604866299,2644140.6971736,25.004080408041,0,0
82.586007354151,-90.71186309657,19.808510851085,3587685.4707334,11956.604866299,2644140.6971736,25.008510851085,0,0
82.586007770008,-90.729392685182,19.812941294129,3587685.4707334,11956.604866299,2644140.6971736,25.012941294129,0,0
82.586008185866,-90.746922273793,19.817371737174,3587685.4707334,11956.604866299,2644140.6971736,25.017371737174,0,0
82.586008601949,-90.764451862955,19.821802180218,3592314.2043168,6364.6771013736,2633661.3510773,25.021802180218,0,0
82.586009018456,-90.78198145315,19.826232623262,3592314.2043168,6364.6771013736,2633661.3510773,25.026232623262,0,0
82.586009434962,-90.799511043346,19.830663066307,3592314.2043168,6364.6771013736,2633661.3510773,25.030663066307,0,0
82.586009851468,-90.817040633541,19.835093509351,3592314.2043168,6364.6771013736,2633661.3510773,25.035093509351,0,0
82.586010267975,-90.834570223736,19.839523952395,3592314.2043168,6364.6771013736,2633661.3510773,25.039523952395,0,0
82.586010684481,-90.852099813932,19.84395439544,3592314.2043168,6364.6771013736,2633661.3510773,25.04395439544,0,0
82.586011100988,-90.869629404127,19.848384838484,3592314.2043168,6364.6771013736,2633661.3510773,25.048384838484,0,0
82.586011517494,-90.887158994322,19.852815281528,3592314.2043168,6364.6771013736,2633661.3510773,25.052815281528,0,0
82.586011934001,-90.904688584518,19.857245724572,3592314.2043168,6364.6771013736,2633661.3510773,25.057245724572,0,0
82.586012350507,-90.922218174713,19.861676167617,3592314.2043168,6364.6771013736,2633661.3510773,25.061676167617,0,0
82.586012767013,-90.939747764909,19.866106610661,3592314.2043168,6364.6771013736,2633661.3510773,25.066106610661,0,0
82.58601318352,-90.957277355104,19.870537053705,3592314.2043168,6364.6771013736,2633661.3510773,25.070537053705,0,0
82.586013600026,-90.974806945299,19.87496749675,3592314.2043168,6364.6771013736,2633661.3510773,25.07496749675,0,0
82.586014016533,-90.992336535495,19.879397939794,3592314.2043168,6364.6771013736,2633661.3510773,25.079397939794,0,0
82.586014433039,-91.00986612569,19.883828382838,3592314.2043168,6364.6771013736,2633661.3510773,25.083828382838,0,0
82.586014849545,-91.027395715886,19.888258825883,3592314.2043168,6364.6771013736,2633661.3510773,25.088258825883,0,0
82.586015266052,-91.044925306081,19.892689268927,3592314.2043168,6364.6771013736,2633661.3510773,25.092689268927,0,0
82.586015682558,-91.062454896276,19.897119711971,3592314.2043168,6364.6771013736,2633661.3510773,25.097119711971,0,0
82.586016099065,-91.079984486472,19.901550155015,3592314.2043168,6364.6771013736,2633661.3510773,25.101550155015,0,0
82.586016515571,-91.097514076667,19.90598059806,3592314.2043168,6364.6771013736,2633661.3510773,25.10598059806,0,0
82.586016932077,-91.115043666863,19.910411041104,3592314.2043168,6364.6771013736,2633661.3510773,25.110411041104,0,0
82.586017348584,-91.132573257058,19.914841484148,3592314.2043168,6364.6771013736,2633661.3510773,25.114841484148,0,0
82.58601776509,-91.150102847253,19.919271927193,3592314.2043168,6364.6771013736,2633661.3510773,25.119271927193,0,0
82.586018181597,-91.167632437449,19.923702370237,3592314.2043168,6364.6771013736,2633661.3510773,25.123702370237,0,0
82.586018598103,-91.185162027644,19.928132813281,3592314.2043168,6364.6771013736,2633661.3510773,25.128132813281,0,0
82.586019014609,-91.20269161784,19.932563256326,3592314.2043168,6364.6771013736,2633661.3510773,25.132563256326,0,0
82.586019431116,-91.220221208035,19.93699369937,3592314.2043168,6364.6771013736,2633661.3510773,25.13699369937,0,0
82.586019847622,-91.23775079823,19.941424142414,3592314.2043168,6364.6771013736,2633661.3510773,25.141424142414,0,0
82.586020264129,-91.255280388426,19.945854585459,3592314.2043168,6364.6771013736,2633661.3510773,25.145854585459,0,0
82.586020680635,-91.272809978621,19.950285028503,3592314.2043168,6364.6771013736,2633661.3510773,25.150285028503,0,0
82.586021097142,-91.290339568817,19.954715471547,3592314.2043168,6364.6771013736,2633661.3510773,25.154715471547,0,0
82.586021513648,-91.307869159012,19.959145914591,3592314.2043168,6364.6771013736,2633661.3510773,25.159145914591,0,0
82.586021930154,-91.325398749207,19.963576357636,3592314.2043168,6364.6771013736,2633661.3510773,25.163576357636,0,0
82.586022346661,-91.342928339403,19.96800680068,3592314.2043168,6364.6771013736,2633661.3510773,25.16800680068,0,0
82.586022763167,-91.360457929598,19.972437243724,3592314.2043168,6364.6771013736,2633661.3510773,25.172437243724,0,0
82.586023179674,-91.377987519793,19.976867686769,3592314.2043168,6364.6771013736,2633661.3510773,25.176867686769,0,0
82.58602359618,-91.395517109989,19.981298129813,3592314.2043168,6364.6771013736,2633661.3510773,25.181298129813,0,0
82.586024012686,-91.413046700184,19.985728572857,3592314.2043168,6364.6771013736,2633661.3510773,25.185728572857,0,0
82.586024429193,-91.43057629038,19.990159015902,3592314.2043168,6364.6771013736,2633661.3510773,25.190159015902,0,0
82.586024845699,-91.448105880575,19.994589458946,3592314.2043168,6364.6771013736,2633661.3510773,25.194589458946,0,0
82.586025262206,-91.46563547077,19.99901990199,3592314.2043168,6364.6771013736,2633661.3510773,25.19901990199,0,0
82.586025678712,-91.483165060966,20.003450345035,3592314.2043168,6364.6771013736,2633661.3510773,25.203450345035,0,0
82.586026095218,-91.500694651161,20.007880788079,3592314.2043168,6364.6771013736,2633661.3510773,25.207880788079,0,0
82.586026511725,-91.518224241357,20.012311231123,3592314.2043168,6364.6771013736,2633661.3510773,25.212311231123,0,0
82.586026928231,-91.535753831552,20.016741674167,3592314.2043168,6364.6771013736,2633661.3510773,25.216741674167,0,0
82.586027344738,-91.553283421747,20.021172117212,3592314.2043168,6364.6771013736,2633661.3510773,25.221172117212,0,0
82.586027761244,-91.570813011943,20.025602560256,3592314.2043168,6364.6771013736,2633661.3510773,25.225602560256,0,0
82.586028177751,-91.588342602138,20.0300330033,3592314.2043168,6364.6771013736,2633661.3510773,25.2300330033,0,0
82.586028594257,-91.605872192334,20.034463446345,3592314.2043168,6364.6771013736,2633661.3510773,25.234463446345,0,0
82.586029010763,-91.623401782529,20.038893889389,3592314.2043168,6364.6771013736,2633661.3510773,25.238893889389,0,0
82.58602942727,-91.640931372724,20.043324332433,3592314.2043168,6364.6771013736,2633661.3510773,25.243324332433,0,0
82.586029843776,-91.65846096292,20.047754775478,3592314.2043168,6364.6771013736,2633661.3510773,25.247754775478,0,0
82.586030260283,-91.675990553115,20.052185218522,3592314.2043168,6364.6771013736,2633661.3510773,25.252185218522,0,0
82.586030676789,-91.693520143311,20.056615661566,3592314.2043168,6364.6771013736,2633661.3510773,25.256615661566,0,0
82.586031093295,-91.711049733506,20.06104610461,3592314.2043168,6364.6771013736,2633661.3510773,25.26104610461,0,0
82.586031509802,-91.728579323701,20.065476547655,3592314.2043168,6364.6771013736,2633661.3510773,25.265476547655,0,0
82.586031926308,-91.746108913897,20.069906990699,3592314.2043168,6364.6771013736,2633661.3510773,25.269906990699,0,0
82.586032342815,-91.763638504092,20.074337433743,3592314.2043168,6364.6771013736,2633661.3510773,25.274337433743,0,0
82.586032759321,-91.781168094288,20.078767876788,3592314.2043168,6364.6771013736,2633661.3510773,25.278767876788,0,0
82.586033175827,-91.798697684483,20.083198319832,3592314.2043168,6364.6771013736,2633661.3510773,25.283198319832,0,0
82.586033592334,-91.816227274678,20.087628762876,3592314.2043168,6364.6771013736,2633661.3510773,25.287628762876,0,0
82.58603400884,-91.833756864874,20.092059205921,3592314.2043168,6364.6771013736,2633661.3510773,25.292059205921,0,0
82.586034425347,-91.851286455069,20.096489648965,3592314.2043168,6364.6771013736,2633661.3510773,25.296489648965,0,0
82.586034841853,-91.868816045265,20.100920092009,3592314.2043168,6364.6771013736,2633661.3510773,25.300920092009,0,0
82.586035258359,-91.88634563546,20.105350535054,3592314.2043168,6364.6771013736,2633661.3510773,25.305350535054,0,0
82.586035674866,-91.903875225655,20.109780978098,3592314.2043168,6364.6771013736,2633661.3510773,25.309780978098,0,0
82.586036091372,-91.921404815851,20.114211421142,3592314.2043168,6364.6771013736,2633661.3510773,25.314211421142,0,0
82.586036507879,-91.938934406046,20.118641864186,3592314.2043168,6364.6771013736,2633661.3510773,25.318641864186,0,0
82.586036924385,-91.956463996241,20.123072307231,3592314.2043168,6364.6771013736,2633661.3510773,25.323072307231,0,0
82.586037340892,-91.973993586437,20.127502750275,3592314.2043168,6364.6771013736,2633661.3510773,25.327502750275,0,0
82.586037757398,-91.991523176632,20.131933193319,3592314.2043168,6364.6771013736,2633661.3510773,25.331933193319,0,0
82.586038173904,-92.009052766828,20.136363636364,3592314.2043168,6364.6771013736,2633661.3510773,25.336363636364,0,0
82.586038590411,-92.026582357023,20.140794079408,3592314.2043168,6364.6771013736,2633661.3510773,25.340794079408,0,0
82.586039006917,-92.044111947218,20.145224522452,3592314.2043168,6364.6771013736,2633661.3510773,25.345224522452,0,0
82.586039423424,-92.061641537414,20.149654965497,3592314.2043168,6364.6771013736,2633661.3510773,25.349654965497,0,0
82.58603983993,-92.079171127609,20.154085408541,3592314.2043168,6364.6771013736,2633661.3510773,25.354085408541,0,0
82.586040256436,-92.096700717805,20.158515851585,3592314.2043168,6364.6771013736,2633661.3510773,25.358515851585,0,0
82.586040672943,-92.114230308,20.162946294629,3592314.2043168,6364.6771013736,2633661.3510773,25.362946294629,0,0
82.586041089449,-92.131759898195,20.167376737674,3592314.2043168,6364.6771013736,2633661.3510773,25.367376737674,0,0
82.586041505956,-92.149289488391,20.171807180718,3592314.2043168,6364.6771013736,2633661.3510773,25.371807180718,0,0
82.586041922462,-92.166819078586,20.176237623762,3592314.2043168,6364.6771013736,2633661.3510773,25.376237623762,0,0
82.586042338968,-92.184348668782,20.180668066807,3592314.2043168,6364.6771013736,2633661.3510773,25.380668066807,0,0
82.586042755475,-92.201878258977,20.185098509851,3592314.2043168,6364.6771013736,2633661.3510773,25.385098509851,0,0
82.586043171981,-92.219407849172,20.189528952895,3592314.2043168,6364.6771013736,2633661.3510773,25.389528952895,0,0
82.586043588488,-92.236937439368,20.19395939594,3592314.2043168,6364.6771013736,2633661.3510773,25.39395939594,0,0
82.586044004994,-92.254467029563,20.198389838984,3592314.2043168,6364.6771013736,2633661.3510773,25.398389838984,0,0
82.586044421501,-92.271996619759,20.202820282028,3592314.2043168,6364.6771013736,2633661.3510773,25.402820282028,0,0
82.586044838007,-92.289526209954,20.207250725073,3592314.2043168,6364.6771013736,2633661.3510773,25.407250725073,0,0
82.586045254513,-92.307055800149,20.211681168117,3592314.2043168,6364.6771013736,2633661.3510773,25.411681168117,0,0
82.58604567102,-92.324585390345,20.216111611161,3592314.2043168,6364.6771013736,2633661.3510773,25.416111611161,0,0
82.586046087526,-92.34211498054,20.220542054205,3592314.2043168,6364.6771013736,2633661.3510773,25.420542054205,0,0
82.586046504033,-92.359644570736,20.22497249725,3592314.2043168,6364.6771013736,2633661.3510773,25.42497249725,0,0
82.586046920539,-92.377174160931,20.229402940294,3592314.2043168,6364.6771013736,2633661.3510773,25.429402940294,0,0
82.586047337045,-92.394703751126,20.233833383338,3592314.2043168,6364.6771013736,2633661.3510773,25.433833383338,0,0
82.586047753552,-92.412233341322,20.238263826383,3592314.2043168,6364.6771013736,2633661.3510773,25.438263826383,0,0
82.586048170058,-92.429762931517,20.242694269427,3592314.2043168,6364.6771013736,2633661.3510773,25.442694269427,0,0
82.586048586565,-92.447292521712,20.247124712471,3592314.2043168,6364.6771013736,2633661.3510773,25.447124712471,0,0
82.586049003071,-92.464822111908,20.251555155516,3592314.2043168,6364.6771013736,2633661.3510773,25.451555155516,0,0
82.586049419577,-92.482351702103,20.25598559856,3592314.2043168,6364.6771013736,2633661.3510773,25.45598559856,0,0
82.586049836084,-92.499881292299,20.260416041604,3592314.2043168,6364.6771013736,2633661.3510773,25.460416041604,0,0
82.58605025259,-92.517410882494,20.264846484648,3592314.2043168,6364.6771013736,2633661.3510773,25.464846484648,0,0
82.586050669097,-92.534940472689,20.269276927693,3592314.2043168,6364.6771013736,2633661.3510773,25.469276927693,0,0
82.586051085603,-92.552470062885,20.273707370737,3592314.2043168,6364.6771013736,2633661.3510773,25.473707370737,0,0
82.586051502109,-92.56999965308,20.278137813781,3592314.2043168,6364.6771013736,2633661.3510773,25.478137813781,0,0
82.586051918616,-92.587529243276,20.282568256826,3592314.2043168,6364.6771013736,2633661.3510773,25.482568256826,0,0
82.586052335122,-92.605058833471,20.28699869987,3592314.2043168,6364.6771013736,2633661.3510773,25.48699869987,0,0
82.586052751629,-92.622588423666,20.291429142914,3592314.2043168,6364.6771013736,2633661.3510773,25.491429142914,0,0
82.586053168135,-92.640118013862,20.295859585959,3592314.2043168,6364.6771013736,2633661.3510773,25.495859585959,0,0
82.586053584642,-92.657647604057,20.300290029003,3592314.2043168,6364.6771013736,2633661.3510773,25.500290029003,0,0
82.586054001148,-92.675177194253,20.304720472047,3592314.2043168,6364.6771013736,2633661.3510773,25.504720472047,0,0
82.586054417654,-92.692706784448,20.309150915092,3592314.2043168,6364.6771013736,2633661.3510773,25.509150915092,0,0
82.586054834161,-92.710236374643,20.313581358136,3592314.2043168,6364.6771013736,2633661.3510773,25.513581358136,0,0
82.586055250667,-92.727765964839,20.31801180118,3592314.2043168,6364.6771013736,2633661.3510773,25.51801180118,0,0
82.586055667174,-92.745295555034,20.322442244224,3592314.2043168,6364.6771013736,2633661.3510773,25.522442244224,0,0
82.58605608368,-92.76282514523,20.326872687269,3592314.2043168,6364.6771013736,2633661.3510773,25.526872687269,0,0
82.586056500186,-92.780354735425,20.331303130313,3592314.2043168,6364.6771013736,2633661.3510773,25.531303130313,0,0
82.586056916693,-92.79788432562,20.335733573357,3592314.2043168,6364.6771013736,2633661.3510773,25.535733573357,0,0
82.586057333199,-92.815413915816,20.340164016402,3592314.2043168,6364.6771013736,2633661.3510773,25.540164016402,0,0
82.586057749706,-92.832943506011,20.344594459446,3592314.2043168,6364.6771013736,2633661.3510773,25.544594459446,0,0
82.586058166212,-92.850473096207,20.34902490249,3592314.2043168,6364.6771013736,2633661.3510773,25.54902490249,0,0
82.586058582718,-92.868002686402,20.353455345535,3592314.2043168,6364.6771013736,2633661.3510773,25.553455345535,0,0
82.586058999225,-92.885532276597,20.357885788579,3592314.2043168,6364.6771013736,2633661.3510773,25.557885788579,0,0
82.586059415731,-92.903061866793,20.362316231623,3592314.2043168,6364.6771013736,2633661.3510773,25.562316231623,0,0
82.586059832238,-92.920591456988,20.366746674667,3592314.2043168,6364.6771013736,2633661.3510773,25.566746674667,0,0
82.586060248744,-92.938121047184,20.371177117712,3592314.2043168,6364.6771013736,2633661.3510773,25.571177117712,0,0
82.58606066525,-92.955650637379,20.375607560756,3592314.2043168,6364.6771013736,2633661.3510773,25.575607560756,0,0
82.586061081757,-92.973180227574,20.3800380038,3592314.2043168,6364.6771013736,2633661.3510773,25.5800380038,0,0
82.586061498263,-92.99070981777,20.384468446845,3592314.2043168,6364.6771013736,2633661.3510773,25.584468446845,0,0
82.58606191477,-93.008239407965,20.388898889889,3592314.2043168,6364.6771013736,2633661.3510773,25.588898889889,0,0
82.586062331276,-93.02576899816,20.393329332933,3592314.2043168,6364.6771013736,2633661.3510773,25.593329332933,0,0
82.586062747783,-93.043298588356,20.397759775978,3592314.2043168,6364.6771013736,2633661.3510773,25.597759775978,0,0
82.586063164289,-93.060828178551,20.402190219022,3592314.2043168,6364.6771013736,2633661.3510773,25.602190219022,0,0
82.586063580795,-93.078357768747,20.406620662066,3592314.2043168,6364.6771013736,2633661.3510773,25.606620662066,0,0
82.586063997302,-93.095887358942,20.411051105111,3592314.2043168,6364.6771013736,2633661.3510773,25.611051105111,0,0
82.586064413808,-93.113416949137,20.415481548155,3592314.2043168,6364.6771013736,2633661.3510773,25.615481548155,0,0
82.586064830315,-93.130946539333,20.419911991199,3592314.2043168,6364.6771013736,2633661.3510773,25.619911991199,0,0
82.586065246821,-93.148476129528,20.424342434243,3592314.2043168,6364.6771013736,2633661.3510773,25.624342434243,0,0
82.586065663327,-93.166005719724,20.428772877288,3592314.2043168,6364.6771013736,2633661.3510773,25.628772877288,0,0
82.586066079834,-93.183535309919,20.433203320332,3592314.2043168,6364.6771013736,2633661.3510773,25.633203320332,0,0
82.58606649634,-93.201064900114,20.437633763376,3592314.2043168,6364.6771013736,2633661.3510773,25.637633763376,0,0
82.586066912847,-93.21859449031,20.442064206421,3592314.2043168,6364.6771013736,2633661.3510773,25.642064206421,0,0
82.586067329353,-93.236124080505,20.446494649465,3592314.2043168,6364.6771013736,2633661.3510773,25.646494649465,0,0
82.586067745859,-93.253653670701,20.450925092509,3592314.2043168,6364.6771013736,2633661.3510773,25.650925092509,0,0
82.586068162366,-93.271183260896,20.455355535554,3592314.2043168,6364.6771013736,2633661.3510773,25.655355535554,0,0
82.586068578872,-93.288712851091,20.459785978598,3592314.2043168,6364.6771013736,2633661.3510773,25.659785978598,0,0
82.586068995379,-93.306242441287,20.464216421642,3592314.2043168,6364.6771013736,2633661.3510773,25.664216421642,0,0
82.586069411885,-93.323772031482,20.468646864686,3592314.2043168,6364.6771013736,2633661.3510773,25.668646864686,0,0
82.586069828392,-93.341301621678,20.473077307731,3592314.2043168,6364.6771013736,2633661.3510773,25.673077307731,0,0
82.586070244898,-93.358831211873,20.477507750775,3592314.2043168,6364.6771013736,2633661.3510773,25.677507750775,0,0
82.586070661404,-93.376360802068,20.481938193819,3592314.2043168,6364.6771013736,2633661.3510773,25.681938193819,0,0
82.586071077911,-93.393890392264,20.486368636864,3592314.2043168,6364.6771013736,2633661.3510773,25.686368636864,0,0
82.586071494417,-93.411419982459,20.490799079908,3592314.2043168,6364.6771013736,2633661.3510773,25.690799079908,0,0
82.586071910924,-93.428949572655,20.495229522952,3592314.2043168,6364.6771013736,2633661.3510773,25.695229522952,0,0
82.58607232743,-93.44647916285,20.499659965997,3592314.2043168,6364.6771013736,2633661.3510773,25.699659965997,0,0
82.586072743936,-93.464008753045,20.504090409041,3592314.2043168,6364.6771013736,2633661.3510773,25.704090409041,0,0
82.586073160443,-93.481538343241,20.508520852085,3592314.2043168,6364.6771013736,2633661.3510773,25.708520852085,0,0
82.586073576949,-93.499067933436,20.51295129513,3592314.2043168,6364.6771013736,2633661.3510773,25.71295129513,0,0
82.586073993456,-93.516597523632,20.517381738174,3592314.2043168,6364.6771013736,2633661.3510773,25.717381738174,0,0
82.586074409962,-93.534127113827,20.521812181218,3592314.2043168,6364.6771013736,2633661.3510773,25.721812181218,0,0
82.586074826468,-93.551656704022,20.526242624262,3592314.2043168,6364.6771013736,2633661.3510773,25.726242624262,0,0
82.586075242975,-93.569186294218,20.530673067307,3592314.2043168,6364.6771013736,2633661.3510773,25.730673067307,0,0
82.586075659481,-93.586715884413,20.535103510351,3592314.2043168,6364.6771013736,2633661.3510773,25.735103510351,0,0
82.586076075988,-93.604245474608,20.539533953395,3592314.2043168,6364.6771013736,2633661.3510773,25.739533953395,0,0
82.586076492494,-93.621775064804,20.54396439644,3592314.2043168,6364.6771013736,2633661.3510773,25.74396439644,0,0
82.586076909,-93.639304654999,20.548394839484,3592314.2043168,6364.6771013736,2633661.3510773,25.748394839484,0,0
82.586077325507,-93.656834245195,20.552825282528,3592314.2043168,6364.6771013736,2633661.3510773,25.752825282528,0,0
82.586077742013,-93.67436383539,20.557255725573,3592314.2043168,6364.6771013736,2633661.3510773,25.757255725573,0,0
82.58607815852,-93.691893425585,20.561686168617,3592314.2043168,6364.6771013736,2633661.3510773,25.761686168617,0,0
82.586078575026,-93.709423015781,20.566116611661,3592314.2043168,6364.6771013736,2633661.3510773,25.766116611661,0,0
82.586078991533,-93.726952605976,20.570547054705,3592314.2043168,6364.6771013736,2633661.3510773,25.770547054705,0,0
82.586079408039,-93.744482196172,20.57497749775,3592314.2043168,6364.6771013736,2633661.3510773,25.77497749775,0,0
82.586079824545,-93.762011786367,20.579407940794,3592314.2043168,6364.6771013736,2633661.3510773,25.779407940794,0,0
82.586080241052,-93.779541376562,20.583838383838,3592314.2043168,6364.6771013736,2633661.3510773,25.783838383838,0,0
82.586080657558,-93.797070966758,20.588268826883,3592314.2043168,6364.6771013736,2633661.3510773,25.788268826883,0,0
82.586081074065,-93.814600556953,20.592699269927,3592314.2043168,6364.6771013736,2633661.3510773,25.792699269927,0,0
82.586081490571,-93.832130147149,20.597129712971,3592314.2043168,6364.6771013736,2633661.3510773,25.797129712971,0,0
82.586081907077,-93.849659737344,20.601560156016,3592314.2043168,6364.6771013736,2633661.3510773,25.801560156016,0,0
82.586082323584,-93.867189327539,20.60599059906,3592314.2043168,6364.6771013736,2633661.3510773,25.80599059906,0,0
82.58608274009,-93.884718917735,20.610421042104,3592314.2043168,6364.6771013736,2633661.3510773,25.810421042104,0,0
82.586083156597,-93.90224850793,20.614851485149,3592314.2043168,6364.6771013736,2633661.3510773,25.814851485149,0,0
82.586083573103,-93.919778098126,20.619281928193,3592314.2043168,6364.6771013736,2633661.3510773,25.819281928193,0,0
82.586083989609,-93.937307688321,20.623712371237,3592314.2043168,6364.6771013736,2633661.3510773,25.823712371237,0,0
82.586084406116,-93.954837278516,20.628142814281,3592314.2043168,6364.6771013736,2633661.3510773,25.828142814281,0,0
82.586084822622,-93.972366868712,20.632573257326,3592314.2043168,6364.6771013736,2633661.3510773,25.832573257326,0,0
82.586085239129,-93.989896458907,20.63700370037,3592314.2043168,6364.6771013736,2633661.3510773,25.83700370037,0,0
82.586085655635,-94.007426049103,20.641434143414,3592314.2043168,6364.6771013736,2633661.3510773,25.841434143414,0,0
82.586086072142,-94.024955639298,20.645864586459,3592314.2043168,6364.6771013736,2633661.3510773,25.845864586459,0,0
82.586086488648,-94.042485229493,20.650295029503,3592314.2043168,6364.6771013736,2633661.3510773,25.850295029503,0,0
82.586086905154,-94.060014819689,20.654725472547,3592314.2043168,6364.6771013736,2633661.3510773,25.854725472547,0,0
82.586087321661,-94.077544409884,20.659155915592,3592314.2043168,6364.6771013736,2633661.3510773,25.859155915592,0,0
82.586087738167,-94.09507400008,20.663586358636,3592314.2043168,6364.6771013736,2633661.3510773,25.863586358636,0,0
82.586088154674,-94.112603590275,20.66801680168,3592314.2043168,6364.6771013736,2633661.3510773,25.86801680168,0,0
82.58608857118,-94.13013318047,20.672447244724,3592314.2043168,6364.6771013736,2633661.3510773,25.872447244724,0,0
82.586088987686,-94.147662770666,20.676877687769,3592314.2043168,6364.6771013736,2633661.3510773,25.876877687769,0,0
82.586089404193,-94.165192360861,20.681308130813,3592314.2043168,6364.6771013736,2633661.3510773,25.881308130813,0,0
82.586089820699,-94.182721951056,20.685738573857,3592314.2043168,6364.6771013736,2633661.3510773,25.885738573857,0,0
82.586090237206,-94.200251541252,20.690169016902,3592314.2043168,6364.6771013736,2633661.3510773,25.890169016902,0,0
82.586090653712,-94.217781131447,20.694599459946,3592314.2043168,6364.6771013736,2633661.3510773,25.894599459946,0,0
82.586091070218,-94.235310721643,20.69902990299,3592314.2043168,6364.6771013736,2633661.3510773,25.89902990299,0,0
82.586091486725,-94.252840311838,20.703460346035,3592314.2043168,6364.6771013736,2633661.3510773,25.903460346035,0,0
82.586091903231,-94.270369902033,20.707890789079,3592314.2043168,6364.6771013736,2633661.3510773,25.907890789079,0,0
82.586092319738,-94.287899492229,20.712321232123,3592314.2043168,6364.6771013736,2633661.3510773,25.912321232123,0,0
82.586092736244,-94.305429082424,20.716751675168,3592314.2043168,6364.6771013736,2633661.3510773,25.916751675168,0,0
82.58609315275,-94.32295867262,20.721182118212,3592314.2043168,6364.6771013736,2633661.3510773,25.921182118212,0,0
82.586093569257,-94.340488262815,20.725612561256,3592314.2043168,6364.6771013736,2633661.3510773,25.925612561256,0,0
82.586093985763,-94.35801785301,20.7300430043,3592314.2043168,6364.6771013736,2633661.3510773,25.9300430043,0,0
82.58609440227,-94.375547443206,20.734473447345,3592314.2043168,6364.6771013736,2633661.3510773,25.934473447345,0,0
82.586094818776,-94.393077033401,20.738903890389,3592314.2043168,6364.6771013736,2633661.3510773,25.938903890389,0,0
82.586095235283,-94.410606623597,20.743334333433,3592314.2043168,6364.6771013736,2633661.3510773,25.943334333433,0,0
82.586095651789,-94.428136213792,20.747764776478,3592314.2043168,6364.6771013736,2633661.3510773,25.947764776478,0,0
82.586096068295,-94.445665803987,20.752195219522,3592314.2043168,6364.6771013736,2633661.3510773,25.952195219522,0,0
82.586096484802,-94.463195394183,20.756625662566,3592314.2043168,6364.6771013736,2633661.3510773,25.956625662566,0,0
82.586096901308,-94.480724984378,20.761056105611,3592314.2043168,6364.6771013736,2633661.3510773,25.961056105611,0,0
82.586097317815,-94.498254574574,20.765486548655,3592314.2043168,6364.6771013736,2633661.3510773,25.965486548655,0,0
82.586097734321,-94.515784164769,20.769916991699,3592314.2043168,6364.6771013736,2633661.3510773,25.969916991699,0,0
82.586098150827,-94.533313754964,20.774347434743,3592314.2043168,6364.6771013736,2633661.3510773,25.974347434743,0,0
82.586098567334,-94.55084334516,20.778777877788,3592314.2043168,6364.6771013736,2633661.3510773,25.978777877788,0,0
82.58609898384,-94.568372935355,20.783208320832,3592314.2043168,6364.6771013736,2633661.3510773,25.983208320832,0,0
82.586099400347,-94.585902525551,20.787638763876,3592314.2043168,6364.6771013736,2633661.3510773,25.987638763876,0,0
82.586099816853,-94.603432115746,20.792069206921,3592314.2043168,6364.6771013736,2633661.3510773,25.992069206921,0,0
82.586100233359,-94.620961705941,20.796499649965,3592314.2043168,6364.6771013736,2633661.3510773,25.996499649965,0,0
82.586100649866,-94.638491296137,20.800930093009,3592314.2043168,6364.6771013736,2633661.3510773,26.000930093009,0,0
82.586101066372,-94.656020886332,20.805360536054,3592314.2043168,6364.6771013736,2633661.3510773,26.005360536054,0,0
82.586101482879,-94.673550476527,20.809790979098,3592314.2043168,6364.6771013736,2633661.3510773,26.009790979098,0,0
82.586101899385,-94.691080066723,20.814221422142,3592314.2043168,6364.6771013736,2633661.3510773,26.014221422142,0,0
82.586102315892,-94.708609656918,20.818651865187,3592314.2043168,6364.6771013736,2633661.3510773,26.018651865187,0,0
82.586102732398,-94.726139247114,20.823082308231,3592314.2043168,6364.6771013736,2633661.3510773,26.023082308231,0,0
82.586103148904,-94.743668837309,20.827512751275,3592314.2043168,6364.6771013736,2633661.3510773,26.027512751275,0,0
82.586103565411,-94.761198427504,20.831943194319,3592314.2043168,6364.6771013736,2633661.3510773,26.031943194319,0,0
82.586103981917,-94.7787280177,20.836373637364,3592314.2043168,6364.6771013736,2633661.3510773,26.036373637364,0,0
82.586104398424,-94.796257607895,20.840804080408,3592314.2043168,6364.6771013736,2633661.3510773,26.040804080408,0,0
82.58610481493,-94.813787198091,20.845234523452,3592314.2043168,6364.6771013736,2633661.3510773,26.045234523452,0,0
82.586105231436,-94.831316788286,20.849664966497,3592314.2043168,6364.6771013736,2633661.3510773,26.049664966497,0,0
82.586105647943,-94.848846378481,20.854095409541,3592314.2043168,6364.6771013736,2633661.3510773,26.054095409541,0,0
82.586106064449,-94.866375968677,20.858525852585,3592314.2043168,6364.6771013736,2633661.3510773,26.058525852585,0,0
82.586106480956,-94.883905558872,20.86295629563,3592314.2043168,6364.6771013736,2633661.3510773,26.06295629563,0,0
82.586106897462,-94.901435149068,20.867386738674,3592314.2043168,6364.6771013736,2633661.3510773,26.067386738674,0,0
82.586107313968,-94.918964739263,20.871817181718,3592314.2043168,6364.6771013736,2633661.3510773,26.071817181718,0,0
82.586107730475,-94.936494329458,20.876247624762,3592314.2043168,6364.6771013736,2633661.3510773,26.076247624762,0,0
82.586108146981,-94.954023919654,20.880678067807,3592314.2043168,6364.6771013736,2633661.3510773,26.080678067807,0,0
82.586108563488,-94.971553509849,20.885108510851,3592314.2043168,6364.6771013736,2633661.3510773,26.085108510851,0,0
82.586108979994,-94.989083100045,20.889538953895,3592314.2043168,6364.6771013736,2633661.3510773,26.089538953895,0,0
82.5861093965,-95.00661269024,20.89396939694,3592314.2043168,6364.6771013736,2633661.3510773,26.09396939694,0,0
82.586109813007,-95.024142280435,20.898399839984,3592314.2043168,6364.6771013736,2633661.3510773,26.098399839984,0,0
82.586110229513,-95.041671870631,20.902830283028,3592314.2043168,6364.6771013736,2633661.3510773,26.102830283028,0,0
82.58611064602,-95.059201460826,20.907260726073,3592314.2043168,6364.6771013736,2633661.3510773,26.107260726073,0,0
82.586111062526,-95.076731051022,20.911691169117,3592314.2043168,6364.6771013736,2633661.3510773,26.111691169117,0,0
82.586111479033,-95.094260641217,20.916121612161,3592314.2043168,6364.6771013736,2633661.3510773,26.116121612161,0,0
82.586111895539,-95.111790231412,20.920552055206,3592314.2043168,6364.6771013736,2633661.3510773,26.120552055206,0,0
82.586112312045,-95.129319821608,20.92498249825,3592314.2043168,6364.6771013736,2633661.3510773,26.12498249825,0,0
82.586112728552,-95.146849411803,20.929412941294,3592314.2043168,6364.6771013736,2633661.3510773,26.129412941294,0,0
82.586113145058,-95.164379001999,20.933843384338,3592314.2043168,6364.6771013736,2633661.3510773,26.133843384338,0,0
82.586113561565,-95.181908592194,20.938273827383,3592314.2043168,6364.6771013736,2633661.3510773,26.138273827383,0,0
82.586113978071,-95.199438182389,20.942704270427,3592314.2043168,6364.6771013736,2633661.3510773,26.142704270427,0,0
82.586114394577,-95.216967772585,20.947134713471,3592314.2043168,6364.6771013736,2633661.3510773,26.147134713471,0,0
82.586114811084,-95.23449736278,20.951565156516,3592314.2043168,6364.6771013736,2633661.3510773,26.151565156516,0,0
82.58611522759,-95.252026952975,20.95599559956,3592314.2043168,6364.6771013736,2633661.3510773,26.15599559956,0,0
82.586115644097,-95.269556543171,20.960426042604,3592314.2043168,6364.6771013736,2633661.3510773,26.160426042604,0,0
82.586116060603,-95.287086133366,20.964856485649,3592314.2043168,6364.6771013736,2633661.3510773,26.164856485649,0,0
82.586116477109,-95.304615723562,20.969286928693,3592314.2043168,6364.6771013736,2633661.3510773,26.169286928693,0,0
82.586116893616,-95.322145313757,20.973717371737,3592314.2043168,6364.6771013736,2633661.3510773,26.173717371737,0,0
82.586117310122,-95.339674903952,20.978147814781,3592314.2043168,6364.6771013736,2633661.3510773,26.178147814781,0,0
82.586117726643,-95.357204494132,20.982578257826,3607974.9531405,10599.049044231,2632548.5281882,26.182578257826,0,0
82.58611814443,-95.374734082954,20.98700870087,3607974.9531405,10599.049044231,2632548.5281882,26.18700870087,0,0
82.586118562217,-95.392263671776,20.991439143914,3607974.9531405,10599.049044231,2632548.5281882,26.191439143914,0,0
82.586118980004,-95.409793260598,20.995869586959,3607974.9531405,10599.049044231,2632548.5281882,26.195869586959,0,0
82.586119397791,-95.42732284942,21.000300030003,3607974.9531405,10599.049044231,2632548.5281882,26.200300030003,0,0
82.586119815578,-95.444852438242,21.004730473047,3607974.9531405,10599.049044231,2632548.5281882,26.204730473047,0,0
82.586120233365,-95.462382027063,21.009160916092,3607974.9531405,10599.049044231,2632548.5281882,26.209160916092,0,0
82.586120651152,-95.479911615885,21.013591359136,3607974.9531405,10599.049044231,2632548.5281882,26.213591359136,0,0
82.586121068939,-95.497441204707,21.01802180218,3607974.9531405,10599.049044231,2632548.5281882,26.21802180218,0,0
82.586121486726,-95.514970793529,21.022452245225,3607974.9531405,10599.049044231,2632548.5281882,26.222452245225,0,0
82.586121904513,-95.532500382351,21.026882688269,3607974.9531405,10599.049044231,2632548.5281882,26.226882688269,0,0
82.5861223223,-95.550029971173,21.031313131313,3607974.9531405,10599.049044231,2632548.5281882,26.231313131313,0,0
82.586122740087,-95.567559559994,21.035743574357,3607974.9531405,10599.049044231,2632548.5281882,26.235743574357,0,0
82.586123157874,-95.585089148816,21.040174017402,3607974.9531405,10599.049044231,2632548.5281882,26.240174017402,0,0
82.586123575661,-95.602618737638,21.044604460446,3607974.9531405,10599.049044231,2632548.5281882,26.244604460446,0,0
82.586123993448,-95.62014832646,21.04903490349,3607974.9531405,10599.049044231,2632548.5281882,26.24903490349,0,0
82.586124411234,-95.637677915282,21.053465346535,3607974.9531405,10599.049044231,2632548.5281882,26.253465346535,0,0
82.586124829021,-95.655207504104,21.057895789579,3607974.9531405,10599.049044231,2632548.5281882,26.257895789579,0,0
82.586125246808,-95.672737092926,21.062326232623,3607974.9531405,10599.049044231,2632548.5281882,26.262326232623,0,0
82.586125664595,-95.690266681747,21.066756675668,3607974.9531405,10599.049044231,2632548.5281882,26.266756675668,0,0
82.586126082382,-95.707796270569,21.071187118712,3607974.9531405,10599.049044231,2632548.5281882,26.271187118712,0,0
82.586126500169,-95.725325859391,21.075617561756,3607974.9531405,10599.049044231,2632548.5281882,26.275617561756,0,0
82.586126917956,-95.742855448213,21.0800480048,3607974.9531405,10599.049044231,2632548.5281882,26.2800480048,0,0
82.586127335743,-95.760385037035,21.084478447845,3607974.9531405,10599.049044231,2632548.5281882,26.284478447845,0,0
82.58612775353,-95.777914625857,21.088908890889,3607974.9531405,10599.049044231,2632548.5281882,26.288908890889,0,0
82.586128171317,-95.795444214679,21.093339333933,3607974.9531405,10599.049044231,2632548.5281882,26.293339333933,0,0
82.586128589104,-95.8129738035,21.097769776978,3607974.9531405,10599.049044231,2632548.5281882,26.297769776978,0,0
82.586129006891,-95.830503392322,21.102200220022,3607974.9531405,10599.049044231,2632548.5281882,26.302200220022,0,0
82.586129424678,-95.848032981144,21.106630663066,3607974.9531405,10599.049044231,2632548.5281882,26.306630663066,0,0
82.586129842465,-95.865562569966,21.111061106111,3607974.9531405,10599.049044231,2632548.5281882,26.311061106111,0,0
82.586130260252,-95.883092158788,21.115491549155,3607974.9531405,10599.049044231,2632548.5281882,26.315491549155,0,0
82.586130678039,-95.90062174761,21.119921992199,3607974.9531405,10599.049044231,2632548.5281882,26.319921992199,0,0
82.586131095826,-95.918151336432,21.124352435244,3607974.9531405,10599.049044231,2632548.5281882,26.324352435244,0,0
82.586131513613,-95.935680925253,21.128782878288,3607974.9531405,10599.049044231,2632548.5281882,26.328782878288,0,0
82.5861319314,-95.953210514075,21.133213321332,3607974.9531405,10599.049044231,2632548.5281882,26.333213321332,0,0
82.586132349187,-95.970740102897,21.137643764376,3607974.9531405,10599.049044231,2632548.5281882,26.337643764376,0,0
82.586132766974,-95.988269691719,21.142074207421,3607974.9531405,10599.049044231,2632548.5281882,26.342074207421,0,0
82.586133184761,-96.005799280541,21.146504650465,3607974.9531405,10599.049044231,2632548.5281882,26.346504650465,0,0
82.586133602547,-96.023328869363,21.150935093509,3607974.9531405,10599.049044231,2632548.5281882,26.350935093509,0,0
82.586134020334,-96.040858458185,21.155365536554,3607974.9531405,10599.049044231,2632548.5281882,26.355365536554,0,0
82.586134438121,-96.058388047006,21.159795979598,3607974.9531405,10599.049044231,2632548.5281882,26.359795979598,0,0
82.586134855908,-96.075917635828,21.164226422642,3607974.9531405,10599.049044231,2632548.5281882,26.364226422642,0,0
82.586135274219,-96.093447225623,21.168656865687,3614466.1810665,6250.2941896979,2624228.5199762,26.368656865687,0,0
82.586135692746,-96.110976815822,21.173087308731,3614466.1810665,6250.2941896979,2624228.5199762,26.373087308731,0,0
82.586136111273,-96.12850640602,21.177517751775,3614466.1810665,6250.2941896979,2624228.5199762,26.377517751775,0,0
82.586136529799,-96.146035996218,21.181948194819,3614466.1810665,6250.2941896979,2624228.5199762,26.381948194819,0,0
82.586136948326,-96.163565586417,21.186378637864,3614466.1810665,6250.2941896979,2624228.5199762,26.386378637864,0,0
82.586137366853,-96.181095176615,21.190809080908,3614466.1810665,6250.2941896979,2624228.5199762,26.390809080908,0,0
82.58613778538,-96.198624766813,21.195239523952,3614466.1810665,6250.2941896979,2624228.5199762,26.395239523952,0,0
82.586138203907,-96.216154357012,21.199669966997,3614466.1810665,6250.2941896979,2624228.5199762,26.399669966997,0,0
82.586138622434,-96.23368394721,21.204100410041,3614466.1810665,6250.2941896979,2624228.5199762,26.404100410041,0,0
82.586139040961,-96.251213537409,21.208530853085,3614466.1810665,6250.2941896979,2624228.5199762,26.408530853085,0,0
82.586139459488,-96.268743127607,21.21296129613,3614466.1810665,6250.2941896979,2624228.5199762,26.41296129613,0,0
82.586139878015,-96.286272717805,21.217391739174,3614466.1810665,6250.2941896979,2624228.5199762,26.417391739174,0,0
82.586140296542,-96.303802308004,21.221822182218,3614466.1810665,6250.2941896979,2624228.5199762,26.421822182218,0,0
82.586140715069,-96.321331898202,21.226252625263,3614466.1810665,6250.2941896979,2624228.5199762,26.426252625263,0,0
82.586141133596,-96.3388614884,21.230683068307,3614466.1810665,6250.2941896979,2624228.5199762,26.430683068307,0,0
82.586141552123,-96.356391078599,21.235113511351,3614466.1810665,6250.2941896979,2624228.5199762,26.435113511351,0,0
82.58614197065,-96.373920668797,21.239543954395,3614466.1810665,6250.2941896979,2624228.5199762,26.439543954395,0,0
82.586142389177,-96.391450258995,21.24397439744,3614466.1810665,6250.294189698,2624228.5199762,26.44397439744,0,0
82.586142807704,-96.408979849194,21.248404840484,3614466.1810665,6250.294189698,2624228.5199762,26.448404840484,0,0
82.586143226231,-96.426509439392,21.252835283528,3614466.1810665,6250.294189698,2624228.5199762,26.452835283528,0,0
82.586143644758,-96.44403902959,21.257265726573,3614466.1810665,6250.294189698,2624228.5199762,26.457265726573,0,0
82.586144063285,-96.461568619789,21.261696169617,3614466.1810665,6250.294189698,2624228.5199762,26.461696169617,0,0
82.586144481812,-96.479098209987,21.266126612661,3614466.1810665,6250.294189698,2624228.5199762,26.466126612661,0,0
82.586144900339,-96.496627800185,21.270557055706,3614466.1810665,6250.294189698,2624228.5199762,26.470557055706,0,0
82.586145318866,-96.514157390384,21.27498749875,3614466.1810665,6250.294189698,2624228.5199762,26.47498749875,0,0
82.586145737393,-96.531686980582,21.279417941794,3614466.1810665,6250.294189698,2624228.5199762,26.479417941794,0,0
82.58614615592,-96.54921657078,21.283848384838,3614466.1810665,6250.294189698,2624228.5199762,26.483848384838,0,0
82.586146574447,-96.566746160979,21.288278827883,3614466.1810665,6250.294189698,2624228.5199762,26.488278827883,0,0
82.586146992974,-96.584275751177,21.292709270927,3614466.1810665,6250.294189698,2624228.5199762,26.492709270927,0,0
82.586147411501,-96.601805341375,21.297139713971,3614466.1810665,6250.294189698,2624228.5199762,26.497139713971,0,0
82.586147830028,-96.619334931574,21.301570157016,3614466.1810665,6250.294189698,2624228.5199762,26.501570157016,0,0
82.586148248555,-96.636864521772,21.30600060006,3614466.1810665,6250.294189698,2624228.5199762,26.50600060006,0,0
82.586148667082,-96.65439411197,21.310431043104,3614466.1810665,6250.294189698,2624228.5199762,26.510431043104,0,0
82.586149085608,-96.671923702169,21.314861486149,3614466.1810665,6250.294189698,2624228.5199762,26.514861486149,0,0
82.586149504135,-96.689453292367,21.319291929193,3614466.1810665,6250.294189698,2624228.5199762,26.519291929193,0,0
82.586149922662,-96.706982882565,21.323722372237,3614466.1810665,6250.294189698,2624228.5199762,26.523722372237,0,0
82.586150341189,-96.724512472764,21.328152815282,3614466.1810665,6250.294189698,2624228.5199762,26.528152815282,0,0
82.586150759716,-96.742042062962,21.332583258326,3614466.1810665,6250.294189698,2624228.5199762,26.532583258326,0,0
82.586151178243,-96.75957165316,21.33701370137,3614466.1810665,6250.294189698,2624228.5199762,26.53701370137,0,0
82.58615159677,-96.777101243359,21.341444144414,3614466.1810665,6250.294189698,2624228.5199762,26.541444144414,0,0
82.586152015297,-96.794630833557,21.345874587459,3614466.1810665,6250.294189698,2624228.5199762,26.545874587459,0,0
82.586152433824,-96.812160423755,21.350305030503,3614466.1810665,6250.294189698,2624228.5199762,26.550305030503,0,0
82.586152852351,-96.829690013954,21.354735473547,3614466.1810665,6250.294189698,2624228.5199762,26.554735473547,0,0
82.586153270878,-96.847219604152,21.359165916592,3614466.1810665,6250.294189698,2624228.5199762,26.559165916592,0,0
82.586153689405,-96.86474919435,21.363596359636,3614466.1810665,6250.294189698,2624228.5199762,26.563596359636,0,0
82.586154107932,-96.882278784549,21.36802680268,3614466.1810665,6250.294189698,2624228.5199762,26.56802680268,0,0
82.586154526459,-96.899808374747,21.372457245725,3614466.1810665,6250.294189698,2624228.5199762,26.572457245725,0,0
82.586154944986,-96.917337964946,21.376887688769,3614466.1810665,6250.294189698,2624228.5199762,26.576887688769,0,0
82.586155363513,-96.934867555144,21.381318131813,3614466.1810665,6250.294189698,2624228.5199762,26.581318131813,0,0
82.58615578204,-96.952397145342,21.385748574857,3614466.1810665,6250.294189698,2624228.5199762,26.585748574857,0,0
82.586156200567,-96.969926735541,21.390179017902,3614466.1810665,6250.294189698,2624228.5199762,26.590179017902,0,0
82.586156619094,-96.987456325739,21.394609460946,3614466.1810665,6250.294189698,2624228.5199762,26.594609460946,0,0
82.586157037621,-97.004985915937,21.39903990399,3614466.1810665,6250.294189698,2624228.5199762,26.59903990399,0,0
82.586157456148,-97.022515506136,21.403470347035,3614466.1810665,6250.294189698,2624228.5199762,26.603470347035,0,0
82.586157874675,-97.040045096334,21.407900790079,3614466.1810665,6250.294189698,2624228.5199762,26.607900790079,0,0
82.586158293202,-97.057574686532,21.412331233123,3614466.1810665,6250.294189698,2624228.5199762,26.612331233123,0,0
82.586158711729,-97.075104276731,21.416761676168,3614466.1810665,6250.294189698,2624228.5199762,26.616761676168,0,0
82.586159130256,-97.092633866929,21.421192119212,3614466.1810665,6250.294189698,2624228.5199762,26.621192119212,0,0
82.586159548783,-97.110163457127,21.425622562256,3614466.1810665,6250.294189698,2624228.5199762,26.625622562256,0,0
82.58615996731,-97.127693047326,21.430053005301,3614466.1810665,6250.294189698,2624228.5199762,26.630053005301,0,0
82.586160385837,-97.145222637524,21.434483448345,3614466.1810665,6250.294189698,2624228.5199762,26.634483448345,0,0
82.586160804364,-97.162752227722,21.438913891389,3614466.1810665,6250.294189698,2624228.5199762,26.638913891389,0,0
82.586161222891,-97.180281817921,21.443344334433,3614466.1810665,6250.294189698,2624228.5199762,26.643344334433,0,0
82.586161641418,-97.197811408119,21.447774777478,3614466.1810665,6250.294189698,2624228.5199762,26.647774777478,0,0
82.586162059945,-97.215340998317,21.452205220522,3614466.1810665,6250.294189698,2624228.5199762,26.652205220522,0,0
82.586162478471,-97.232870588516,21.456635663566,3614466.1810665,6250.294189698,2624228.5199762,26.656635663566,0,0
82.586162896998,-97.250400178714,21.461066106611,3614466.1810665,6250.294189698,2624228.5199762,26.661066106611,0,0
82.586163315525,-97.267929768912,21.465496549655,3614466.1810665,6250.294189698,2624228.5199762,26.665496549655,0,0
82.586163734052,-97.285459359111,21.469926992699,3614466.1810665,6250.294189698,2624228.5199762,26.669926992699,0,0
82.586164152579,-97.302988949309,21.474357435744,3614466.1810665,6250.294189698,2624228.5199762,26.674357435744,0,0
82.586164571106,-97.320518539507,21.478787878788,3614466.1810665,6250.294189698,2624228.5199762,26.678787878788,0,0
82.586164989633,-97.338048129706,21.483218321832,3614466.1810665,6250.294189698,2624228.5199762,26.683218321832,0,0
82.58616540816,-97.355577719904,21.487648764876,3614466.1810665,6250.294189698,2624228.5199762,26.687648764876,0,0
82.586165826687,-97.373107310102,21.492079207921,3614466.1810665,6250.294189698,2624228.5199762,26.692079207921,0,0
82.586166245214,-97.390636900301,21.496509650965,3614466.1810665,6250.294189698,2624228.5199762,26.696509650965,0,0
82.586166663741,-97.408166490499,21.500940094009,3614466.1810665,6250.294189698,2624228.5199762,26.700940094009,0,0
82.586167082268,-97.425696080697,21.505370537054,3614466.1810665,6250.294189698,2624228.5199762,26.705370537054,0,0
82.586167500795,-97.443225670896,21.509800980098,3614466.1810665,6250.294189698,2624228.5199762,26.709800980098,0,0
82.586167919322,-97.460755261094,21.514231423142,3614466.1810665,6250.294189698,2624228.5199762,26.714231423142,0,0
82.586168337849,-97.478284851292,21.518661866187,3614466.1810665,6250.294189698,2624228.5199762,26.718661866187,0,0
82.586168756376,-97.495814441491,21.523092309231,3614466.1810665,6250.294189698,2624228.5199762,26.723092309231,0,0
82.586169174903,-97.513344031689,21.527522752275,3614466.1810665,6250.294189698,2624228.5199762,26.727522752275,0,0
82.58616959343,-97.530873621887,21.53195319532,3614466.1810665,6250.294189698,2624228.5199762,26.73195319532,0,0
82.586170011957,-97.548403212086,21.536383638364,3614466.1810665,6250.294189698,2624228.5199762,26.736383638364,0,0
82.586170430484,-97.565932802284,21.540814081408,3614466.1810665,6250.294189698,2624228.5199762,26.740814081408,0,0
82.586170849011,-97.583462392482,21.545244524452,3614466.1810665,6250.294189698,2624228.5199762,26.745244524452,0,0
82.586171267538,-97.600991982681,21.549674967497,3614466.1810665,6250.294189698,2624228.5199762,26.749674967497,0,0
82.586171686065,-97.618521572879,21.554105410541,3614466.1810665,6250.294189698,2624228.5199762,26.754105410541,0,0
82.586172104592,-97.636051163077,21.558535853585,3614466.1810665,6250.294189698,2624228.5199762,26.758535853585,0,0
82.586172523119,-97.653580753276,21.56296629663,3614466.1810665,6250.294189698,2624228.5199762,26.76296629663,0,0
82.586172941646,-97.671110343474,21.567396739674,3614466.1810665,6250.294189698,2624228.5199762,26.767396739674,0,0
82.586173360173,-97.688639933673,21.571827182718,3614466.1810665,6250.294189698,2624228.5199762,26.771827182718,0,0
82.5861737787,-97.706169523871,21.576257625763,3614466.1810665,6250.294189698,2624228.5199762,26.776257625763,0,0
82.586174197227,-97.723699114069,21.580688068807,3614466.1810665,6250.294189698,2624228.5199762,26.780688068807,0,0
82.586174615754,-97.741228704268,21.585118511851,3614466.1810665,6250.294189698,2624228.5199762,26.785118511851,0,0
82.586175034281,-97.758758294466,21.589548954895,3614466.1810665,6250.294189698,2624228.5199762,26.789548954895,0,0
82.586175452808,-97.776287884664,21.59397939794,3614466.1810665,6250.294189698,2624228.5199762,26.79397939794,0,0
82.586175871334,-97.793817474863,21.598409840984,3614466.1810665,6250.294189698,2624228.5199762,26.798409840984,0,0
82.586176289861,-97.811347065061,21.602840284028,3614466.1810665,6250.294189698,2624228.5199762,26.802840284028,0,0
82.586176708388,-97.828876655259,21.607270727073,3614466.1810665,6250.294189698,2624228.5199762,26.807270727073,0,0
82.586177126915,-97.846406245458,21.611701170117,3614466.1810665,6250.294189698,2624228.5199762,26.811701170117,0,0
82.586177545442,-97.863935835656,21.616131613161,3614466.1810665,6250.294189698,2624228.5199762,26.816131613161,0,0
82.586177963969,-97.881465425854,21.620562056206,3614466.1810665,6250.294189698,2624228.5199762,26.820562056206,0,0
82.586178382496,-97.898995016053,21.62499249925,3614466.1810665,6250.294189698,2624228.5199762,26.82499249925,0,0
82.586178801023,-97.916524606251,21.629422942294,3614466.1810665,6250.294189698,2624228.5199762,26.829422942294,0,0
82.58617921955,-97.934054196449,21.633853385339,3614466.1810665,6250.294189698,2624228.5199762,26.833853385339,0,0
82.586179638077,-97.951583786648,21.638283828383,3614466.1810665,6250.294189698,2624228.5199762,26.838283828383,0,0
82.586180056604,-97.969113376846,21.642714271427,3614466.1810665,6250.294189698,2624228.5199762,26.842714271427,0,0
82.586180475131,-97.986642967044,21.647144714471,3614466.1810665,6250.294189698,2624228.5199762,26.847144714471,0,0
82.586180893658,-98.004172557243,21.651575157516,3614466.1810665,6250.294189698,2624228.5199762,26.851575157516,0,0
82.586181312185,-98.021702147441,21.65600560056,3614466.1810665,6250.294189698,2624228.5199762,26.85600560056,0,0
82.586181730712,-98.039231737639,21.660436043604,3614466.1810665,6250.294189698,2624228.5199762,26.860436043604,0,0
82.586182149239,-98.056761327838,21.664866486649,3614466.1810665,6250.294189698,2624228.5199762,26.864866486649,0,0
82.586182567766,-98.074290918036,21.669296929693,3614466.1810665,6250.294189698,2624228.5199762,26.869296929693,0,0
82.586182986293,-98.091820508234,21.673727372737,3614466.1810665,6250.294189698,2624228.5199762,26.873727372737,0,0
82.58618340482,-98.109350098433,21.678157815782,3614466.1810665,6250.294189698,2624228.5199762,26.878157815782,0,0
82.586183823347,-98.126879688631,21.682588258826,3614466.1810665,6250.294189698,2624228.5199762,26.882588258826,0,0
82.586184241874,-98.144409278829,21.68701870187,3614466.1810665,6250.294189698,2624228.5199762,26.88701870187,0,0
82.586184660401,-98.161938869028,21.691449144914,3614466.1810665,6250.294189698,2624228.5199762,26.891449144914,0,0
82.586185078928,-98.179468459226,21.695879587959,3614466.1810665,6250.294189698,2624228.5199762,26.895879587959,0,0
82.586185497455,-98.196998049424,21.700310031003,3614466.1810665,6250.294189698,2624228.5199762,26.900310031003,0,0
82.586185915982,-98.214527639623,21.704740474047,3614466.1810665,6250.294189698,2624228.5199762,26.904740474047,0,0
82.586186334509,-98.232057229821,21.709170917092,3614466.1810665,6250.294189698,2624228.5199762,26.909170917092,0,0
82.586186753036,-98.249586820019,21.713601360136,3614466.1810665,6250.294189698,2624228.5199762,26.913601360136,0,0
82.586187171563,-98.267116410218,21.71803180318,3614466.1810665,6250.294189698,2624228.5199762,26.91803180318,0,0
82.58618759009,-98.284646000416,21.722462246225,3614466.1810665,6250.294189698,2624228.5199762,26.922462246225,0,0
82.586188008617,-98.302175590614,21.726892689269,3614466.1810665,6250.294189698,2624228.5199762,26.926892689269,0,0
82.586188427144,-98.319705180813,21.731323132313,3614466.1810665,6250.294189698,2624228.5199762,26.931323132313,0,0
82.58618884567,-98.337234771011,21.735753575358,3614466.1810665,6250.294189698,2624228.5199762,26.935753575358,0,0
82.586189264197,-98.35476436121,21.740184018402,3614466.1810665,6250.294189698,2624228.5199762,26.940184018402,0,0
82.586189682724,-98.372293951408,21.744614461446,3614466.1810665,6250.294189698,2624228.5199762,26.944614461446,0,0
82.586190101251,-98.389823541606,21.74904490449,3614466.1810665,6250.294189698,2624228.5199762,26.94904490449,0,0
82.586190519778,-98.407353131805,21.753475347535,3614466.1810665,6250.294189698,2624228.5199762,26.953475347535,0,0
82.586190938305,-98.424882722003,21.757905790579,3614466.1810665,6250.294189698,2624228.5199762,26.957905790579,0,0
82.586191356832,-98.442412312201,21.762336233623,3614466.1810665,6250.294189698,2624228.5199762,26.962336233623,0,0
82.586191775359,-98.4599419024,21.766766676668,3614466.1810665,6250.294189698,2624228.5199762,26.966766676668,0,0
82.586192193886,-98.477471492598,21.771197119712,3614466.1810665,6250.294189698,2624228.5199762,26.971197119712,0,0
82.586192612413,-98.495001082796,21.775627562756,3614466.1810665,6250.294189698,2624228.5199762,26.975627562756,0,0
82.58619303094,-98.512530672995,21.780058005801,3614466.1810665,6250.294189698,2624228.5199762,26.980058005801,0,0
82.586193449467,-98.530060263193,21.784488448845,3614466.1810665,6250.294189698,2624228.5199762,26.984488448845,0,0
82.586193867994,-98.547589853391,21.788918891889,3614466.1810665,6250.294189698,2624228.5199762,26.988918891889,0,0
82.586194286521,-98.56511944359,21.793349334933,3614466.1810665,6250.294189698,2624228.5199762,26.993349334933,0,0
82.586194705048,-98.582649033788,21.797779777978,3614466.1810665,6250.294189698,2624228.5199762,26.997779777978,0,0
82.586195123575,-98.600178623986,21.802210221022,3614466.1810665,6250.294189698,2624228.5199762,27.002210221022,0,0
82.586195542102,-98.617708214185,21.806640664066,3614466.1810665,6250.294189698,2624228.5199762,27.006640664066,0,0
82.586195960629,-98.635237804383,21.811071107111,3614466.1810665,6250.294189698,2624228.5199762,27.011071107111,0,0
82.586196379156,-98.652767394581,21.815501550155,3614466.1810665,6250.294189698,2624228.5199762,27.015501550155,0,0
82.586196797683,-98.67029698478,21.819931993199,3614466.1810665,6250.294189698,2624228.5199762,27.019931993199,0,0
82.58619721621,-98.687826574978,21.824362436244,3614466.1810665,6250.294189698,2624228.5199762,27.024362436244,0,0
82.586197634737,-98.705356165176,21.828792879288,3614466.1810665,6250.294189698,2624228.5199762,27.028792879288,0,0
82.586198053264,-98.722885755375,21.833223322332,3614466.1810665,6250.294189698,2624228.5199762,27.033223322332,0,0
82.586198471791,-98.740415345573,21.837653765377,3614466.1810665,6250.294189698,2624228.5199762,27.037653765377,0,0
82.586198890318,-98.757944935771,21.842084208421,3614466.1810665,6250.294189698,2624228.5199762,27.042084208421,0,0
82.586199308845,-98.77547452597,21.846514651465,3614466.1810665,6250.294189698,2624228.5199762,27.046514651465,0,0
82.586199727372,-98.793004116168,21.850945094509,3614466.1810665,6250.294189698,2624228.5199762,27.050945094509,0,0
82.586200145899,-98.810533706366,21.855375537554,3614466.1810665,6250.294189698,2624228.5199762,27.055375537554,0,0
82.586200564426,-98.828063296565,21.859805980598,3614466.1810665,6250.294189698,2624228.5199762,27.059805980598,0,0
82.586200982953,-98.845592886763,21.864236423642,3614466.1810665,6250.294189698,2624228.5199762,27.064236423642,0,0
82.58620140148,-98.863122476961,21.868666866687,3614466.1810665,6250.294189698,2624228.5199762,27.068666866687,0,0
82.586201820006,-98.88065206716,21.873097309731,3614466.1810665,6250.294189698,2624228.5199762,27.073097309731,0,0
82.586202238533,-98.898181657358,21.877527752775,3614466.1810665,6250.294189698,2624228.5199762,27.077527752775,0,0
82.58620265706,-98.915711247556,21.88195819582,3614466.1810665,6250.294189698,2624228.5199762,27.08195819582,0,0
82.586203075587,-98.933240837755,21.886388638864,3614466.1810665,6250.294189698,2624228.5199762,27.086388638864,0,0
82.586203494114,-98.950770427953,21.890819081908,3614466.1810665,6250.294189698,2624228.5199762,27.090819081908,0,0
82.586203912641,-98.968300018151,21.895249524952,3614466.1810665,6250.294189698,2624228.5199762,27.095249524952,0,0
82.586204331168,-98.98582960835,21.899679967997,3614466.1810665,6250.294189698,2624228.5199762,27.099679967997,0,0
82.586204749695,-99.003359198548,21.904110411041,3614466.1810665,6250.294189698,2624228.5199762,27.104110411041,0,0
82.586205168222,-99.020888788746,21.908540854085,3614466.1810665,6250.294189698,2624228.5199762,27.108540854085,0,0
82.586205586749,-99.038418378945,21.91297129713,3614466.1810665,6250.294189698,2624228.5199762,27.11297129713,0,0
82.586206005276,-99.055947969143,21.917401740174,3614466.1810665,6250.294189698,2624228.5199762,27.117401740174,0,0
82.586206423803,-99.073477559342,21.921832183218,3614466.1810665,6250.294189698,2624228.5199762,27.121832183218,0,0
82.58620684233,-99.09100714954,21.926262626263,3614466.1810665,6250.294189698,2624228.5199762,27.126262626263,0,0
82.586207260857,-99.108536739738,21.930693069307,3614466.1810665,6250.294189698,2624228.5199762,27.130693069307,0,0
82.586207679384,-99.126066329937,21.935123512351,3614466.1810665,6250.294189698,2624228.5199762,27.135123512351,0,0
82.586208097911,-99.143595920135,21.939553955396,3614466.1810665,6250.294189698,2624228.5199762,27.139553955396,0,0
82.586208516438,-99.161125510333,21.94398439844,3614466.1810665,6250.294189698,2624228.5199762,27.14398439844,0,0
82.586208934965,-99.178655100532,21.948414841484,3614466.1810665,6250.294189698,2624228.5199762,27.148414841484,0,0
82.586209353492,-99.19618469073,21.952845284528,3614466.1810665,6250.294189698,2624228.5199762,27.152845284528,0,0
82.586209772019,-99.213714280928,21.957275727573,3614466.1810665,6250.294189698,2624228.5199762,27.157275727573,0,0
82.586210190546,-99.231243871127,21.961706170617,3614466.1810665,6250.294189698,2624228.5199762,27.161706170617,0,0
82.586210609073,-99.248773461325,21.966136613661,3614466.1810665,6250.294189698,2624228.5199762,27.166136613661,0,0
82.5862110276,-99.266303051523,21.970567056706,3614466.1810665,6250.294189698,2624228.5199762,27.170567056706,0,0
82.586211446127,-99.283832641722,21.97499749975,3614466.1810665,6250.294189698,2624228.5199762,27.17499749975,0,0
82.586211864654,-99.30136223192,21.979427942794,3614466.1810665,6250.294189698,2624228.5199762,27.179427942794,0,0
82.586212283181,-99.318891822118,21.983858385839,3614466.1810665,6250.294189698,2624228.5199762,27.183858385839,0,0
82.586212701708,-99.336421412317,21.988288828883,3614466.1810665,6250.294189698,2624228.5199762,27.188288828883,0,0
82.586213120235,-99.353951002515,21.992719271927,3614466.1810665,6250.294189698,2624228.5199762,27.192719271927,0,0
82.586213538762,-99.371480592713,21.997149714971,3614466.1810665,6250.294189698,2624228.5199762,27.197149714971,0,0
82.586213957289,-99.389010182912,22.001580158016,3614466.1810665,6250.294189698,2624228.5199762,27.201580158016,0,0
82.586214375816,-99.40653977311,22.00601060106,3614466.1810665,6250.294189698,2624228.5199762,27.20601060106,0,0
82.586214794343,-99.424069363308,22.010441044104,3614466.1810665,6250.294189698,2624228.5199762,27.210441044104,0,0
82.586215212869,-99.441598953507,22.014871487149,3614466.1810665,6250.294189698,2624228.5199762,27.214871487149,0,0
82.586215631396,-99.459128543705,22.019301930193,3614466.1810665,6250.294189698,2624228.5199762,27.219301930193,0,0
82.586216049923,-99.476658133903,22.023732373237,3614466.1810665,6250.294189698,2624228.5199762,27.223732373237,0,0
82.58621646845,-99.494187724102,22.028162816282,3614466.1810665,6250.294189698,2624228.5199762,27.228162816282,0,0
82.586216886977,-99.5117173143,22.032593259326,3614466.1810665,6250.294189698,2624228.5199762,27.232593259326,0,0
82.586217305504,-99.529246904498,22.03702370237,3614466.1810665,6250.294189698,2624228.5199762,27.23702370237,0,0
82.586217724031,-99.546776494697,22.041454145415,3614466.1810665,6250.294189698,2624228.5199762,27.241454145415,0,0
82.586218142558,-99.564306084895,22.045884588459,3614466.1810665,6250.294189698,2624228.5199762,27.245884588459,0,0
82.586218561085,-99.581835675093,22.050315031503,3614466.1810665,6250.294189698,2624228.5199762,27.250315031503,0,0
82.586218979612,-99.599365265292,22.054745474547,3614466.1810665,6250.294189698,2624228.5199762,27.254745474547,0,0
82.586219398139,-99.61689485549,22.059175917592,3614466.1810665,6250.294189698,2624228.5199762,27.259175917592,0,0
82.586219816666,-99.634424445688,22.063606360636,3614466.1810665,6250.294189698,2624228.5199762,27.263606360636,0,0
82.586220235193,-99.651954035887,22.06803680368,3614466.1810665,6250.294189698,2624228.5199762,27.26803680368,0,0
82.58622065372,-99.669483626085,22.072467246725,3614466.1810665,6250.294189698,2624228.5199762,27.272467246725,0,0
82.586221072247,-99.687013216283,22.076897689769,3614466.1810665,6250.294189698,2624228.5199762,27.276897689769,0,0
82.586221490774,-99.704542806482,22.081328132813,3614466.1810665,6250.294189698,2624228.5199762,27.281328132813,0,0
82.586221909301,-99.72207239668,22.085758575858,3614466.1810665,6250.294189698,2624228.5199762,27.285758575858,0,0
82.586222327828,-99.739601986878,22.090189018902,3614466.1810665,6250.294189698,2624228.5199762,27.290189018902,0,0
82.586222746355,-99.757131577077,22.094619461946,3614466.1810665,6250.294189698,2624228.5199762,27.294619461946,0,0
82.586223164882,-99.774661167275,22.09904990499,3614466.1810665,6250.294189698,2624228.5199762,27.29904990499,0,0
82.586223583409,-99.792190757473,22.103480348035,3614466.1810665,6250.294189698,2624228.5199762,27.303480348035,0,0
82.586224001936,-99.809720347672,22.107910791079,3614466.1810665,6250.294189698,2624228.5199762,27.307910791079,0,0
82.586224420463,-99.82724993787,22.112341234123,3614466.1810665,6250.294189698,2624228.5199762,27.312341234123,0,0
82.58622483899,-99.844779528069,22.116771677168,3614466.1810665,6250.294189698,2624228.5199762,27.316771677168,0,0
82.586225257517,-99.862309118267,22.121202120212,3614466.1810665,6250.294189698,2624228.5199762,27.321202120212,0,0
82.586225676044,-99.879838708465,22.125632563256,3614466.1810665,6250.294189698,2624228.5199762,27.325632563256,0,0
82.586226094571,-99.897368298664,22.130063006301,3614466.1810665,6250.294189698,2624228.5199762,27.330063006301,0,0
82.586226513098,-99.914897888862,22.134493449345,3614466.1810665,6250.294189698,2624228.5199762,27.334493449345,0,0
82.586226931625,-99.93242747906,22.138923892389,3614466.1810665,6250.294189698,2624228.5199762,27.338923892389,0,0
82.586227350152,-99.949957069259,22.143354335434,3614466.1810665,6250.294189698,2624228.5199762,27.343354335434,0,0
82.586227768679,-99.967486659457,22.147784778478,3614466.1810665,6250.294189698,2624228.5199762,27.347784778478,0,0
82.586228187205,-99.985016249655,22.152215221522,3614466.1810665,6250.294189698,2624228.5199762,27.352215221522,0,0
82.586228605732,-100.00254583985,22.156645664566,3614466.1810665,6250.294189698,2624228.5199762,27.356645664566,0,0
82.586229024259,-100.02007543005,22.161076107611,3614466.1810665,6250.294189698,2624228.5199762,27.361076107611,0,0
82.586229442786,-100.03760502025,22.165506550655,3614466.1810665,6250.294189698,2624228.5199762,27.365506550655,0,0
82.586229861313,-100.05513461045,22.169936993699,3614466.1810665,6250.294189698,2624228.5199762,27.369936993699,0,0
82.58623027984,-100.07266420065,22.174367436744,3614466.1810665,6250.294189698,2624228.5199762,27.374367436744,0,0
82.586230698367,-100.09019379085,22.178797879788,3614466.1810665,6250.294189698,2624228.5199762,27.378797879788,0,0
82.586231116894,-100.10772338104,22.183228322832,3614466.1810665,6250.294189698,2624228.5199762,27.383228322832,0,0
82.586231535421,-100.12525297124,22.187658765877,3614466.1810665,6250.294189698,2624228.5199762,27.387658765877,0,0
82.586231953948,-100.14278256144,22.192089208921,3614466.1810665,6250.294189698,2624228.5199762,27.392089208921,0,0
82.586232372475,-100.16031215164,22.196519651965,3614466.1810665,6250.294189698,2624228.5199762,27.396519651965,0,0
82.586232791002,-100.17784174184,22.200950095009,3614466.1810665,6250.294189698,2624228.5199762,27.400950095009,0,0
82.586233209529,-100.19537133204,22.205380538054,3614466.1810665,6250.294189698,2624228.5199762,27.405380538054,0,0
82.586233628056,-100.21290092223,22.209810981098,3614466.1810665,6250.294189698,2624228.5199762,27.409810981098,0,0
82.586234046583,-100.23043051243,22.214241424142,3614466.1810665,6250.294189698,2624228.5199762,27.414241424142,0,0
82.58623446511,-100.24796010263,22.218671867187,3614466.1810665,6250.294189698,2624228.5199762,27.418671867187,0,0
82.586234883637,-100.26548969283,22.223102310231,3614466.1810665,6250.294189698,2624228.5199762,27.423102310231,0,0
82.586235302164,-100.28301928303,22.227532753275,3614466.1810665,6250.294189698,2624228.5199762,27.427532753275,0,0
82.586235720691,-100.30054887323,22.23196319632,3614466.1810665,6250.294189698,2624228.5199762,27.43196319632,0,0
82.586236139218,-100.31807846342,22.236393639364,3614466.1810665,6250.294189698,2624228.5199762,27.436393639364,0,0
82.586236557745,-100.33560805362,22.240824082408,3614466.1810665,6250.294189698,2624228.5199762,27.440824082408,0,0
82.586236976272,-100.35313764382,22.245254525453,3614466.1810665,6250.294189698,2624228.5199762,27.445254525453,0,0
82.586237394799,-100.37066723402,22.249684968497,3614466.1810665,6250.294189698,2624228.5199762,27.449684968497,0,0
82.586237813326,-100.38819682422,22.254115411541,3614466.1810665,6250.294189698,2624228.5199762,27.454115411541,0,0
82.586238231853,-100.40572641442,22.258545854585,3614466.1810665,6250.294189698,2624228.5199762,27.458545854585,0,0
82.58623865038,-100.42325600461,22.26297629763,3614466.1810665,6250.294189698,2624228.5199762,27.46297629763,0,0
82.586239068907,-100.44078559481,22.267406740674,3614466.1810665,6250.294189698,2624228.5199762,27.467406740674,0,0
82.586239487434,-100.45831518501,22.271837183718,3614466.1810665,6250.294189698,2624228.5199762,27.471837183718,0,0
82.586239905961,-100.47584477521,22.276267626763,3614466.1810665,6250.294189698,2624228.5199762,27.476267626763,0,0
82.586240324488,-100.49337436541,22.280698069807,3614466.1810665,6250.294189698,2624228.5199762,27.480698069807,0,0
82.586240743015,-100.51090395561,22.285128512851,3614466.1810665,6250.294189698,2624228.5199762,27.485128512851,0,0
82.586241161541,-100.5284335458,22.289558955896,3614466.1810665,6250.294189698,2624228.5199762,27.489558955896,0,0
82.586241580068,-100.545963136,22.29398939894,3614466.1810665,6250.294189698,2624228.5199762,27.49398939894,0,0
82.586241998595,-100.5634927262,22.298419841984,3614466.1810665,6250.294189698,2624228.5199762,27.498419841984,0,0
82.586242417122,-100.5810223164,22.302850285029,3614466.1810665,6250.294189698,2624228.5199762,27.502850285029,0,0
82.586242835649,-100.5985519066,22.307280728073,3614466.1810665,6250.294189698,2624228.5199762,27.507280728073,0,0
82.586243254176,-100.6160814968,22.311711171117,3614466.1810665,6250.294189698,2624228.5199762,27.511711171117,0,0
82.586243672703,-100.63361108699,22.316141614161,3614466.1810665,6250.294189698,2624228.5199762,27.516141614161,0,0
82.58624409123,-100.65114067719,22.320572057206,3614466.1810665,6250.294189698,2624228.5199762,27.520572057206,0,0
82.586244509757,-100.66867026739,22.32500250025,3614466.1810665,6250.294189698,2624228.5199762,27.52500250025,0,0
82.586244928284,-100.68619985759,22.329432943294,3614466.1810665,6250.294189698,2624228.5199762,27.529432943294,0,0
82.586245346811,-100.70372944779,22.333863386339,3614466.1810665,6250.294189698,2624228.5199762,27.533863386339,0,0
82.586245765338,-100.72125903799,22.338293829383,3614466.1810665,6250.294189698,2624228.5199762,27.538293829383,0,0
82.586246183865,-100.73878862818,22.342724272427,3614466.1810665,6250.294189698,2624228.5199762,27.542724272427,0,0
82.586246602392,-100.75631821838,22.347154715472,3614466.1810665,6250.294189698,2624228.5199762,27.547154715472,0,0
82.586247020919,-100.77384780858,22.351585158516,3614466.1810665,6250.294189698,2624228.5199762,27.551585158516,0,0
82.586247439446,-100.79137739878,22.35601560156,3614466.1810665,6250.294189698,2624228.5199762,27.55601560156,0,0
82.586247857973,-100.80890698898,22.360446044604,3614466.1810665,6250.294189698,2624228.5199762,27.560446044604,0,0
82.5862482765,-100.82643657918,22.364876487649,3614466.1810665,6250.294189698,2624228.5199762,27.564876487649,0,0
82.586248695027,-100.84396616937,22.369306930693,3614466.1810665,6250.294189698,2624228.5199762,27.569306930693,0,0
82.586249113554,-100.86149575957,22.373737373737,3614466.1810665,6250.294189698,2624228.5199762,27.573737373737,0,0
82.586249532081,-100.87902534977,22.378167816782,3614466.1810665,6250.294189698,2624228.5199762,27.578167816782,0,0
82.586249950608,-100.89655493997,22.382598259826,3614466.1810665,6250.294189698,2624228.5199762,27.582598259826,0,0
82.586250369135,-100.91408453017,22.38702870287,3614466.1810665,6250.294189698,2624228.5199762,27.58702870287,0,0
82.586250787662,-100.93161412037,22.391459145915,3614466.1810665,6250.294189698,2624228.5199762,27.591459145915,0,0
82.586251206189,-100.94914371056,22.395889588959,3614466.1810665,6250.294189698,2624228.5199762,27.595889588959,0,0
82.586251624716,-100.96667330076,22.400320032003,3614466.1810665,6250.294189698,2624228.5199762,27.600320032003,0,0
82.586252043243,-100.98420289096,22.404750475048,3614466.1810665,6250.294189698,2624228.5199762,27.604750475048,0,0
82.58625246177,-101.00173248116,22.409180918092,3614466.1810665,6250.294189698,2624228.5199762,27.609180918092,0,0
82.586252880297,-101.01926207136,22.413611361136,3614466.1810665,6250.294189698,2624228.5199762,27.613611361136,0,0
82.586253298824,-101.03679166156,22.41804180418,3614466.1810665,6250.294189698,2624228.5199762,27.61804180418,0,0
82.586253717351,-101.05432125175,22.422472247225,3614466.1810665,6250.294189698,2624228.5199762,27.622472247225,0,0
82.586254135878,-101.07185084195,22.426902690269,3614466.1810665,6250.294189698,2624228.5199762,27.626902690269,0,0
82.586254554404,-101.08938043215,22.431333133313,3614466.1810665,6250.294189698,2624228.5199762,27.631333133313,0,0
82.586254972931,-101.10691002235,22.435763576358,3614466.1810665,6250.294189698,2624228.5199762,27.635763576358,0,0
82.586255391458,-101.12443961255,22.440194019402,3614466.1810665,6250.294189698,2624228.5199762,27.640194019402,0,0
82.586255809985,-101.14196920275,22.444624462446,3614466.1810665,6250.294189698,2624228.5199762,27.644624462446,0,0
82.586256228512,-101.15949879294,22.449054905491,3614466.1810665,6250.294189698,2624228.5199762,27.649054905491,0,0
82.586256647039,-101.17702838314,22.453485348535,3614466.1810665,6250.294189698,2624228.5199762,27.653485348535,0,0
82.586257065566,-101.19455797334,22.457915791579,3614466.1810665,6250.294189698,2624228.5199762,27.657915791579,0,0
82.586257484093,-101.21208756354,22.462346234623,3614466.1810665,6250.294189698,2624228.5199762,27.662346234623,0,0
82.58625790262,-101.22961715374,22.466776677668,3614466.1810665,6250.294189698,2624228.5199762,27.666776677668,0,0
82.586258321147,-101.24714674394,22.471207120712,3614466.1810665,6250.294189698,2624228.5199762,27.671207120712,0,0
82.586258739674,-101.26467633413,22.475637563756,3614466.1810665,6250.294189698,2624228.5199762,27.675637563756,0,0
82.586259158201,-101.28220592433,22.480068006801,3614466.1810665,6250.294189698,2624228.5199762,27.680068006801,0,0
82.586259576728,-101.29973551453,22.484498449845,3614466.1810665,6250.294189698,2624228.5199762,27.684498449845,0,0
82.586259995255,-101.31726510473,22.488928892889,3614466.1810665,6250.294189698,2624228.5199762,27.688928892889,0,0
82.586260413782,-101.33479469493,22.493359335934,3614466.1810665,6250.294189698,2624228.5199762,27.693359335934,0,0
82.586260832309,-101.35232428513,22.497789778978,3614466.1810665,6250.294189698,2624228.5199762,27.697789778978,0,0
82.586261250836,-101.36985387532,22.502220222022,3614466.1810665,6250.294189698,2624228.5199762,27.702220222022,0,0
82.586261669363,-101.38738346552,22.506650665067,3614466.1810665,6250.294189698,2624228.5199762,27.706650665067,0,0
82.58626208789,-101.40491305572,22.511081108111,3614466.1810665,6250.294189698,2624228.5199762,27.711081108111,0,0
82.586262506417,-101.42244264592,22.515511551155,3614466.1810665,6250.294189698,2624228.5199762,27.715511551155,0,0
82.586262924944,-101.43997223612,22.519941994199,3614466.1810665,6250.294189698,2624228.5199762,27.719941994199,0,0
82.586263343471,-101.45750182632,22.524372437244,3614466.1810665,6250.294189698,2624228.5199762,27.724372437244,0,0
82.586263761998,-101.47503141651,22.528802880288,3614466.1810665,6250.294189698,2624228.5199762,27.728802880288,0,0
82.586264180525,-101.49256100671,22.533233323332,3614466.1810665,6250.294189698,2624228.5199762,27.733233323332,0,0
82.586264599052,-101.51009059691,22.537663766377,3614466.1810665,6250.294189698,2624228.5199762,27.737663766377,0,0
82.586265017579,-101.52762018711,22.542094209421,3614466.1810665,6250.294189698,2624228.5199762,27.742094209421,0,0
82.586265436106,-101.54514977731,22.546524652465,3614466.1810665,6250.294189698,2624228.5199762,27.746524652465,0,0
82.586265854633,-101.56267936751,22.55095509551,3614466.1810665,6250.294189698,2624228.5199762,27.75095509551,0,0
82.58626627316,-101.5802089577,22.555385538554,3614466.1810665,6250.294189698,2624228.5199762,27.755385538554,0,0
82.586266691687,-101.5977385479,22.559815981598,3614466.1810665,6250.294189698,2624228.5199762,27.759815981598,0,0
82.586267110214,-101.6152681381,22.564246424642,3614466.1810665,6250.294189698,2624228.5199762,27.764246424642,0,0
82.586267529501,-101.63279772776,22.568676867687,3631712.6127608,7711.8472677284,2623999.620331,27.768676867687,0,0
82.586267949412,-101.65032731697,22.573107310731,3631712.6127608,7711.8472677284,2623999.620331,27.773107310731,0,0
82.586268369322,-101.66785690619,22.577537753775,3631712.6127608,7711.8472677284,2623999.620331,27.777537753775,0,0
82.586268789233,-101.6853864954,22.58196819682,3631712.6127608,7711.8472677284,2623999.620331,27.78196819682,0,0
82.586269209144,-101.70291608462,22.586398639864,3631712.6127608,7711.8472677284,2623999.620331,27.786398639864,0,0
82.586269629054,-101.72044567383,22.590829082908,3631712.6127608,7711.8472677284,2623999.620331,27.790829082908,0,0
82.586270048965,-101.73797526305,22.595259525953,3631712.6127608,7711.8472677284,2623999.620331,27.795259525953,0,0
82.586270468875,-101.75550485226,22.599689968997,3631712.6127608,7711.8472677284,2623999.620331,27.799689968997,0,0
82.586270888786,-101.77303444148,22.604120412041,3631712.6127608,7711.8472677284,2623999.620331,27.804120412041,0,0
82.586271308697,-101.79056403069,22.608550855086,3631712.6127608,7711.8472677284,2623999.620331,27.808550855086,0,0
82.586271728607,-101.80809361991,22.61298129813,3631712.6127608,7711.8472677284,2623999.620331,27.81298129813,0,0
82.586272148518,-101.82562320913,22.617411741174,3631712.6127608,7711.8472677284,2623999.620331,27.817411741174,0,0
82.586272568429,-101.84315279834,22.621842184218,3631712.6127608,7711.8472677284,2623999.620331,27.821842184218,0,0
82.586272988339,-101.86068238756,22.626272627263,3631712.6127608,7711.8472677284,2623999.620331,27.826272627263,0,0
82.58627340825,-101.87821197677,22.630703070307,3631712.6127608,7711.8472677284,2623999.620331,27.830703070307,0,0
82.586273828161,-101.89574156599,22.635133513351,3631712.6127608,7711.8472677284,2623999.620331,27.835133513351,0,0
82.586274248071,-101.9132711552,22.639563956396,3631712.6127608,7711.8472677284,2623999.620331,27.839563956396,0,0
82.586274667982,-101.93080074442,22.64399439944,3631712.6127608,7711.8472677284,2623999.620331,27.84399439944,0,0
82.586275087892,-101.94833033363,22.648424842484,3631712.6127608,7711.8472677284,2623999.620331,27.848424842484,0,0
82.586275507803,-101.96585992285,22.652855285529,3631712.6127608,7711.8472677284,2623999.620331,27.852855285529,0,0
82.586275927714,-101.98338951206,22.657285728573,3631712.6127608,7711.8472677284,2623999.620331,27.857285728573,0,0
82.586276347624,-102.00091910128,22.661716171617,3631712.6127608,7711.8472677284,2623999.620331,27.861716171617,0,0
82.586276767535,-102.01844869049,22.666146614661,3631712.6127608,7711.8472677284,2623999.620331,27.866146614661,0,0
82.586277187446,-102.03597827971,22.670577057706,3631712.6127608,7711.8472677284,2623999.620331,27.870577057706,0,0
82.586277607356,-102.05350786892,22.67500750075,3631712.6127608,7711.8472677284,2623999.620331,27.87500750075,0,0
82.586278027267,-102.07103745814,22.679437943794,3631712.6127608,7711.8472677284,2623999.620331,27.879437943794,0,0
82.586278447178,-102.08856704735,22.683868386839,3631712.6127608,7711.8472677284,2623999.620331,27.883868386839,0,0
82.586278867088,-102.10609663657,22.688298829883,3631712.6127608,7711.8472677284,2623999.620331,27.888298829883,0,0
82.586279286999,-102.12362622578,22.692729272927,3631712.6127608,7711.8472677284,2623999.620331,27.892729272927,0,0
82.586279706909,-102.141155815,22.697159715972,3631712.6127608,7711.8472677284,2623999.620331,27.897159715972,0,0
82.58628012682,-102.15868540421,22.701590159016,3631712.6127608,7711.8472677284,2623999.620331,27.901590159016,0,0
82.586280546731,-102.17621499343,22.70602060206,3631712.6127608,7711.8472677284,2623999.620331,27.90602060206,0,0
82.586280966641,-102.19374458264,22.710451045105,3631712.6127608,7711.8472677284,2623999.620331,27.910451045105,0,0
82.586281386552,-102.21127417186,22.714881488149,3631712.6127608,7711.8472677284,2623999.620331,27.914881488149,0,0
82.586281806463,-102.22880376107,22.719311931193,3631712.6127608,7711.8472677284,2623999.620331,27.919311931193,0,0
82.586282226373,-102.24633335029,22.723742374237,3631712.6127608,7711.8472677284,2623999.620331,27.923742374237,0,0
82.586282646284,-102.2638629395,22.728172817282,3631712.6127608,7711.8472677284,2623999.620331,27.928172817282,0,0
82.586283066194,-102.28139252872,22.732603260326,3631712.6127608,7711.8472677284,2623999.620331,27.932603260326,0,0
82.586283486105,-102.29892211793,22.73703370337,3631712.6127608,7711.8472677284,2623999.620331,27.93703370337,0,0
82.586283906016,-102.31645170715,22.741464146415,3631712.6127608,7711.8472677284,2623999.620331,27.941464146415,0,0
82.586284325926,-102.33398129636,22.745894589459,3631712.6127608,7711.8472677284,2623999.620331,27.945894589459,0,0
82.586284745837,-102.35151088558,22.750325032503,3631712.6127608,7711.8472677284,2623999.620331,27.950325032503,0,0
82.586285165748,-102.36904047479,22.754755475548,3631712.6127608,7711.8472677284,2623999.620331,27.954755475548,0,0
82.586285585658,-102.38657006401,22.759185918592,3631712.6127608,7711.8472677284,2623999.620331,27.959185918592,0,0
82.586286005569,-102.40409965322,22.763616361636,3631712.6127608,7711.8472677284,2623999.620331,27.963616361636,0,0
82.58628642548,-102.42162924244,22.76804680468,3631712.6127608,7711.8472677284,2623999.620331,27.96804680468,0,0
82.58628684539,-102.43915883165,22.772477247725,3631712.6127608,7711.8472677284,2623999.620331,27.972477247725,0,0
82.586287265301,-102.45668842087,22.776907690769,3631712.6127608,7711.8472677284,2623999.620331,27.976907690769,0,0
82.586287685211,-102.47421801008,22.781338133813,3631712.6127608,7711.8472677284,2623999.620331,27.981338133813,0,0
82.586288105122,-102.4917475993,22.785768576858,3631712.6127608,7711.8472677284,2623999.620331,27.985768576858,0,0
82.586288525033,-102.50927718851,22.790199019902,3631712.6127608,7711.8472677284,2623999.620331,27.990199019902,0,0
82.586288944943,-102.52680677773,22.794629462946,3631712.6127608,7711.8472677284,2623999.620331,27.994629462946,0,0
82.586289364854,-102.54433636694,22.799059905991,3631712.6127608,7711.8472677284,2623999.620331,27.999059905991,0,0
82.586289784765,-102.56186595616,22.803490349035,3631712.6127608,7711.8472677284,2623999.620331,28.003490349035,0,0
82.586290204675,-102.57939554537,22.807920792079,3631712.6127608,7711.8472677284,2623999.620331,28.007920792079,0,0
82.586290624586,-102.59692513459,22.812351235124,3631712.6127608,7711.8472677284,2623999.620331,28.012351235124,0,0
82.586291044497,-102.6144547238,22.816781678168,3631712.6127608,7711.8472677284,2623999.620331,28.016781678168,0,0
82.586291464407,-102.63198431302,22.821212121212,3631712.6127608,7711.8472677284,2623999.620331,28.021212121212,0,0
82.586291884318,-102.64951390223,22.825642564256,3631712.6127608,7711.8472677284,2623999.620331,28.025642564256,0,0
82.586292304502,-102.66704349207,22.830073007301,3635330.2239172,3818.9161375612,2615544.8510758,28.030073007301,0,0
82.586292724926,-102.68457308245,22.834503450345,3635330.2239172,3818.9161375612,2615544.8510758,28.034503450345,0,0
82.586293145351,-102.70210267284,22.838933893389,3635330.2239172,3818.9161375612,2615544.8510758,28.038933893389,0,0
82.586293565776,-102.71963226322,22.843364336434,3635330.2239172,3818.9161375612,2615544.8510758,28.043364336434,0,0
82.5862939862,-102.73716185361,22.847794779478,3635330.2239172,3818.9161375612,2615544.8510758,28.047794779478,0,0
82.586294406625,-102.75469144399,22.852225222522,3635330.2239172,3818.9161375612,2615544.8510758,28.052225222522,0,0
82.58629482705,-102.77222103437,22.856655665567,3635330.2239172,3818.9161375612,2615544.8510758,28.056655665567,0,0
82.586295247474,-102.78975062476,22.861086108611,3635330.2239172,3818.9161375612,2615544.8510758,28.061086108611,0,0
82.586295667899,-102.80728021514,22.865516551655,3635330.2239172,3818.9161375612,2615544.8510758,28.065516551655,0,0
82.586296088324,-102.82480980552,22.869946994699,3635330.2239172,3818.9161375612,2615544.8510758,28.069946994699,0,0
82.586296508749,-102.84233939591,22.874377437744,3635330.2239172,3818.9161375612,2615544.8510758,28.074377437744,0,0
82.586296929173,-102.85986898629,22.878807880788,3635330.2239172,3818.9161375612,2615544.8510758,28.078807880788,0,0
82.586297349598,-102.87739857668,22.883238323832,3635330.2239172,3818.9161375612,2615544.8510758,28.083238323832,0,0
82.586297770023,-102.89492816706,22.887668766877,3635330.2239172,3818.9161375612,2615544.8510758,28.087668766877,0,0
82.586298190447,-102.91245775744,22.892099209921,3635330.2239172,3818.9161375612,2615544.8510758,28.092099209921,0,0
82.586298610872,-102.92998734783,22.896529652965,3635330.2239172,3818.9161375612,2615544.8510758,28.096529652965,0,0
82.586299031297,-102.94751693821,22.90096009601,3635330.2239172,3818.9161375612,2615544.8510758,28.10096009601,0,0
82.586299451722,-102.96504652859,22.905390539054,3635330.2239172,3818.9161375612,2615544.8510758,28.105390539054,0,0
82.586299872146,-102.98257611898,22.909820982098,3635330.2239172,3818.9161375612,2615544.8510758,28.109820982098,0,0
82.586300292571,-103.00010570936,22.914251425143,3635330.2239172,3818.9161375612,2615544.8510758,28.114251425143,0,0
82.586300712996,-103.01763529975,22.918681868187,3635330.2239172,3818.9161375612,2615544.8510758,28.118681868187,0,0
82.58630113342,-103.03516489013,22.923112311231,3635330.2239172,3818.9161375612,2615544.8510758,28.123112311231,0,0
82.586301553845,-103.05269448051,22.927542754275,3635330.2239172,3818.9161375612,2615544.8510758,28.127542754275,0,0
82.58630197427,-103.0702240709,22.93197319732,3635330.2239172,3818.9161375612,2615544.8510758,28.13197319732,0,0
82.586302394694,-103.08775366128,22.936403640364,3635330.2239172,3818.9161375612,2615544.8510758,28.136403640364,0,0
82.586302815119,-103.10528325166,22.940834083408,3635330.2239172,3818.9161375612,2615544.8510758,28.140834083408,0,0
82.586303235544,-103.12281284205,22.945264526453,3635330.2239172,3818.9161375612,2615544.8510758,28.145264526453,0,0
82.586303655969,-103.14034243243,22.949694969497,3635330.2239172,3818.9161375612,2615544.8510758,28.149694969497,0,0
82.586304076393,-103.15787202282,22.954125412541,3635330.2239172,3818.9161375612,2615544.8510758,28.154125412541,0,0
82.586304496818,-103.1754016132,22.958555855586,3635330.2239172,3818.9161375612,2615544.8510758,28.158555855586,0,0
82.586304917243,-103.19293120358,22.96298629863,3635330.2239172,3818.9161375612,2615544.8510758,28.16298629863,0,0
82.586305337667,-103.21046079397,22.967416741674,3635330.2239172,3818.9161375612,2615544.8510758,28.167416741674,0,0
82.586305758092,-103.22799038435,22.971847184718,3635330.2239172,3818.9161375612,2615544.8510758,28.171847184718,0,0
82.586306178517,-103.24551997473,22.976277627763,3635330.2239172,3818.9161375612,2615544.8510758,28.176277627763,0,0
82.586306598941,-103.26304956512,22.980708070807,3635330.2239172,3818.9161375612,2615544.8510758,28.180708070807,0,0
82.586307019366,-103.2805791555,22.985138513851,3635330.2239172,3818.9161375612,2615544.8510758,28.185138513851,0,0
82.586307439791,-103.29810874589,22.989568956896,3635330.2239172,3818.9161375612,2615544.8510758,28.189568956896,0,0
82.586307860216,-103.31563833627,22.99399939994,3635330.2239172,3818.9161375612,2615544.8510758,28.19399939994,0,0
82.58630828064,-103.33316792665,22.998429842984,3635330.2239172,3818.9161375612,2615544.8510758,28.198429842984,0,0
82.586308701065,-103.35069751704,23.002860286029,3635330.2239172,3818.9161375612,2615544.8510758,28.202860286029,0,0
82.58630912149,-103.36822710742,23.007290729073,3635330.2239172,3818.9161375612,2615544.8510758,28.207290729073,0,0
82.586309541914,-103.3857566978,23.011721172117,3635330.2239172,3818.9161375612,2615544.8510758,28.211721172117,0,0
82.586309962339,-103.40328628819,23.016151615162,3635330.2239172,3818.9161375612,2615544.8510758,28.216151615162,0,0
82.586310382764,-103.42081587857,23.020582058206,3635330.2239172,3818.9161375612,2615544.8510758,28.220582058206,0,0
82.586310803189,-103.43834546896,23.02501250125,3635330.2239172,3818.9161375612,2615544.8510758,28.22501250125,0,0
82.586311223613,-103.45587505934,23.029442944294,3635330.2239172,3818.9161375612,2615544.8510758,28.229442944294,0,0
82.586311644038,-103.47340464972,23.033873387339,3635330.2239172,3818.9161375612,2615544.8510758,28.233873387339,0,0
82.586312064463,-103.49093424011,23.038303830383,3635330.2239172,3818.9161375612,2615544.8510758,28.238303830383,0,0
82.586312484887,-103.50846383049,23.042734273427,3635330.2239172,3818.9161375612,2615544.8510758,28.242734273427,0,0
82.586312905312,-103.52599342087,23.047164716472,3635330.2239172,3818.9161375612,2615544.8510758,28.247164716472,0,0
82.586313325737,-103.54352301126,23.051595159516,3635330.2239172,3818.9161375612,2615544.8510758,28.251595159516,0,0
82.586313746161,-103.56105260164,23.05602560256,3635330.2239172,3818.9161375612,2615544.8510758,28.25602560256,0,0
82.586314166586,-103.57858219203,23.060456045605,3635330.2239172,3818.9161375612,2615544.8510758,28.260456045605,0,0
82.586314587011,-103.59611178241,23.064886488649,3635330.2239172,3818.9161375612,2615544.8510758,28.264886488649,0,0
82.586315007436,-103.61364137279,23.069316931693,3635330.2239172,3818.9161375612,2615544.8510758,28.269316931693,0,0
82.58631542786,-103.63117096318,23.073747374737,3635330.2239172,3818.9161375612,2615544.8510758,28.273747374737,0,0
82.586315848285,-103.64870055356,23.078177817782,3635330.2239172,3818.9161375612,2615544.8510758,28.278177817782,0,0
82.58631626871,-103.66623014394,23.082608260826,3635330.2239172,3818.9161375612,2615544.8510758,28.282608260826,0,0
82.586316689134,-103.68375973433,23.08703870387,3635330.2239172,3818.9161375612,2615544.8510758,28.28703870387,0,0
82.586317109559,-103.70128932471,23.091469146915,3635330.2239172,3818.9161375612,2615544.8510758,28.291469146915,0,0
82.586317529984,-103.7188189151,23.095899589959,3635330.2239172,3818.9161375612,2615544.8510758,28.295899589959,0,0
82.586317950408,-103.73634850548,23.100330033003,3635330.2239172,3818.9161375612,2615544.8510758,28.300330033003,0,0
82.586318370833,-103.75387809586,23.104760476048,3635330.2239172,3818.9161375612,2615544.8510758,28.304760476048,0,0
82.586318791258,-103.77140768625,23.109190919092,3635330.2239172,3818.9161375612,2615544.8510758,28.309190919092,0,0
82.586319211683,-103.78893727663,23.113621362136,3635330.2239172,3818.9161375612,2615544.8510758,28.313621362136,0,0
82.586319632107,-103.80646686701,23.118051805181,3635330.2239172,3818.9161375612,2615544.8510758,28.318051805181,0,0
82.586320052532,-103.8239964574,23.122482248225,3635330.2239172,3818.9161375612,2615544.8510758,28.322482248225,0,0
82.586320472957,-103.84152604778,23.126912691269,3635330.2239172,3818.9161375612,2615544.8510758,28.326912691269,0,0
82.586320893381,-103.85905563817,23.131343134313,3635330.2239172,3818.9161375612,2615544.8510758,28.331343134313,0,0
82.586321313806,-103.87658522855,23.135773577358,3635330.2239172,3818.9161375612,2615544.8510758,28.335773577358,0,0
82.586321734231,-103.89411481893,23.140204020402,3635330.2239172,3818.9161375612,2615544.8510758,28.340204020402,0,0
82.586322154656,-103.91164440932,23.144634463446,3635330.2239172,3818.9161375612,2615544.8510758,28.344634463446,0,0
82.58632257508,-103.9291739997,23.149064906491,3635330.2239172,3818.9161375612,2615544.8510758,28.349064906491,0,0
82.586322995505,-103.94670359008,23.153495349535,3635330.2239172,3818.9161375612,2615544.8510758,28.353495349535,0,0
82.58632341593,-103.96423318047,23.157925792579,3635330.2239172,3818.9161375612,2615544.8510758,28.357925792579,0,0
82.586323836354,-103.98176277085,23.162356235624,3635330.2239172,3818.9161375612,2615544.8510758,28.362356235624,0,0
82.586324256779,-103.99929236124,23.166786678668,3635330.2239172,3818.9161375612,2615544.8510758,28.366786678668,0,0
82.586324677204,-104.01682195162,23.171217121712,3635330.2239172,3818.9161375612,2615544.8510758,28.371217121712,0,0
82.586325097628,-104.034351542,23.175647564756,3635330.2239172,3818.9161375612,2615544.8510758,28.375647564756,0,0
82.586325518053,-104.05188113239,23.180078007801,3635330.2239172,3818.9161375612,2615544.8510758,28.380078007801,0,0
82.586325938478,-104.06941072277,23.184508450845,3635330.2239172,3818.9161375612,2615544.8510758,28.384508450845,0,0
82.586326358903,-104.08694031315,23.188938893889,3635330.2239172,3818.9161375612,2615544.8510758,28.388938893889,0,0
82.586326779327,-104.10446990354,23.193369336934,3635330.2239172,3818.9161375612,2615544.8510758,28.393369336934,0,0
82.586327199752,-104.12199949392,23.197799779978,3635330.2239172,3818.9161375612,2615544.8510758,28.397799779978,0,0
82.586327620177,-104.13952908431,23.202230223022,3635330.2239172,3818.9161375612,2615544.8510758,28.402230223022,0,0
82.586328040601,-104.15705867469,23.206660666067,3635330.2239172,3818.9161375612,2615544.8510758,28.406660666067,0,0
82.586328461026,-104.17458826507,23.211091109111,3635330.2239172,3818.9161375612,2615544.8510758,28.411091109111,0,0
82.586328881451,-104.19211785546,23.215521552155,3635330.2239172,3818.9161375612,2615544.8510758,28.415521552155,0,0
82.586329301876,-104.20964744584,23.2199519952,3635330.2239172,3818.9161375612,2615544.8510758,28.4199519952,0,0
82.5863297223,-104.22717703622,23.224382438244,3635330.2239172,3818.9161375612,2615544.8510758,28.424382438244,0,0
82.586330142725,-104.24470662661,23.228812881288,3635330.2239172,3818.9161375612,2615544.8510758,28.428812881288,0,0
82.58633056315,-104.26223621699,23.233243324332,3635330.2239172,3818.9161375612,2615544.8510758,28.433243324332,0,0
82.586330983574,-104.27976580737,23.237673767377,3635330.2239172,3818.9161375612,2615544.8510758,28.437673767377,0,0
82.586331403999,-104.29729539776,23.242104210421,3635330.2239172,3818.9161375612,2615544.8510758,28.442104210421,0,0
82.586331824424,-104.31482498814,23.246534653465,3635330.2239172,3818.9161375612,2615544.8510758,28.446534653465,0,0
82.586332244848,-104.33235457853,23.25096509651,3635330.2239172,3818.9161375612,2615544.8510758,28.45096509651,0,0
82.586332665273,-104.34988416891,23.255395539554,3635330.2239172,3818.9161375612,2615544.8510758,28.455395539554,0,0
82.586333085698,-104.36741375929,23.259825982598,3635330.2239172,3818.9161375612,2615544.8510758,28.459825982598,0,0
82.586333506123,-104.38494334968,23.264256425643,3635330.2239172,3818.9161375612,2615544.8510758,28.464256425643,0,0
82.586333926547,-104.40247294006,23.268686868687,3635330.2239172,3818.9161375612,2615544.8510758,28.468686868687,0,0
82.586334346972,-104.42000253044,23.273117311731,3635330.2239172,3818.9161375612,2615544.8510758,28.473117311731,0,0
82.586334767397,-104.43753212083,23.277547754775,3635330.2239172,3818.9161375612,2615544.8510758,28.477547754775,0,0
82.586335187821,-104.45506171121,23.28197819782,3635330.2239172,3818.9161375612,2615544.8510758,28.48197819782,0,0
82.586335608246,-104.4725913016,23.286408640864,3635330.2239172,3818.9161375612,2615544.8510758,28.486408640864,0,0
82.586336028671,-104.49012089198,23.290839083908,3635330.2239172,3818.9161375612,2615544.8510758,28.490839083908,0,0
82.586336449096,-104.50765048236,23.295269526953,3635330.2239172,3818.9161375612,2615544.8510758,28.495269526953,0,0
82.58633686952,-104.52518007275,23.299699969997,3635330.2239172,3818.9161375612,2615544.8510758,28.499699969997,0,0
82.586337289945,-104.54270966313,23.304130413041,3635330.2239172,3818.9161375612,2615544.8510758,28.504130413041,0,0
82.58633771037,-104.56023925351,23.308560856086,3635330.2239172,3818.9161375612,2615544.8510758,28.508560856086,0,0
82.586338130794,-104.5777688439,23.31299129913,3635330.2239172,3818.9161375612,2615544.8510758,28.51299129913,0,0
82.586338551219,-104.59529843428,23.317421742174,3635330.2239172,3818.9161375612,2615544.8510758,28.517421742174,0,0
82.586338971644,-104.61282802467,23.321852185219,3635330.2239172,3818.9161375612,2615544.8510758,28.521852185219,0,0
82.586339392068,-104.63035761505,23.326282628263,3635330.2239172,3818.9161375612,2615544.8510758,28.526282628263,0,0
82.586339812493,-104.64788720543,23.330713071307,3635330.2239172,3818.9161375612,2615544.8510758,28.530713071307,0,0
82.586340232918,-104.66541679582,23.335143514351,3635330.2239172,3818.9161375612,2615544.8510758,28.535143514351,0,0
82.586340653343,-104.6829463862,23.339573957396,3635330.2239172,3818.9161375612,2615544.8510758,28.539573957396,0,0
82.586341073767,-104.70047597658,23.34400440044,3635330.2239172,3818.9161375612,2615544.8510758,28.54400440044,0,0
82.586341494192,-104.71800556697,23.348434843484,3635330.2239172,3818.9161375612,2615544.8510758,28.548434843484,0,0
82.586341914617,-104.73553515735,23.352865286529,3635330.2239172,3818.9161375612,2615544.8510758,28.552865286529,0,0
82.586342335041,-104.75306474774,23.357295729573,3635330.2239172,3818.9161375612,2615544.8510758,28.557295729573,0,0
82.586342755466,-104.77059433812,23.361726172617,3635330.2239172,3818.9161375612,2615544.8510758,28.561726172617,0,0
82.586343175891,-104.7881239285,23.366156615662,3635330.2239172,3818.9161375612,2615544.8510758,28.566156615662,0,0
82.586343596315,-104.80565351889,23.370587058706,3635330.2239172,3818.9161375612,2615544.8510758,28.570587058706,0,0
82.58634401674,-104.82318310927,23.37501750175,3635330.2239172,3818.9161375612,2615544.8510758,28.57501750175,0,0
82.586344437165,-104.84071269965,23.379447944794,3635330.2239172,3818.9161375612,2615544.8510758,28.579447944794,0,0
82.58634485759,-104.85824229004,23.383878387839,3635330.2239172,3818.9161375612,2615544.8510758,28.583878387839,0,0
82.586345278014,-104.87577188042,23.388308830883,3635330.2239172,3818.9161375612,2615544.8510758,28.588308830883,0,0
82.586345698439,-104.89330147081,23.392739273927,3635330.2239172,3818.9161375612,2615544.8510758,28.592739273927,0,0
82.586346118864,-104.91083106119,23.397169716972,3635330.2239172,3818.9161375612,2615544.8510758,28.597169716972,0,0
82.586346539288,-104.92836065157,23.401600160016,3635330.2239172,3818.9161375612,2615544.8510758,28.601600160016,0,0
82.586346959713,-104.94589024196,23.40603060306,3635330.2239172,3818.9161375612,2615544.8510758,28.60603060306,0,0
82.586347380138,-104.96341983234,23.410461046105,3635330.2239172,3818.9161375612,2615544.8510758,28.610461046105,0,0
82.586347800563,-104.98094942272,23.414891489149,3635330.2239172,3818.9161375612,2615544.8510758,28.614891489149,0,0
82.586348220987,-104.99847901311,23.419321932193,3635330.2239172,3818.9161375612,2615544.8510758,28.619321932193,0,0
82.586348641412,-105.01600860349,23.423752375238,3635330.2239172,3818.9161375612,2615544.8510758,28.623752375238,0,0
82.586349061837,-105.03353819388,23.428182818282,3635330.2239172,3818.9161375612,2615544.8510758,28.628182818282,0,0
82.586349482261,-105.05106778426,23.432613261326,3635330.2239172,3818.9161375612,2615544.8510758,28.632613261326,0,0
82.586349902686,-105.06859737464,23.43704370437,3635330.2239172,3818.9161375612,2615544.8510758,28.63704370437,0,0
82.586350323111,-105.08612696503,23.441474147415,3635330.2239172,3818.9161375612,2615544.8510758,28.641474147415,0,0
82.586350743535,-105.10365655541,23.445904590459,3635330.2239172,3818.9161375612,2615544.8510758,28.645904590459,0,0
82.58635116396,-105.12118614579,23.450335033503,3635330.2239172,3818.9161375612,2615544.8510758,28.650335033503,0,0
82.586351584385,-105.13871573618,23.454765476548,3635330.2239172,3818.9161375612,2615544.8510758,28.654765476548,0,0
82.58635200481,-105.15624532656,23.459195919592,3635330.2239172,3818.9161375612,2615544.8510758,28.659195919592,0,0
82.586352425234,-105.17377491695,23.463626362636,3635330.2239172,3818.9161375612,2615544.8510758,28.663626362636,0,0
82.586352845659,-105.19130450733,23.468056805681,3635330.2239172,3818.9161375612,2615544.8510758,28.668056805681,0,0
82.586353266084,-105.20883409771,23.472487248725,3635330.2239172,3818.9161375612,2615544.8510758,28.672487248725,0,0
82.586353686508,-105.2263636881,23.476917691769,3635330.2239172,3818.9161375612,2615544.8510758,28.676917691769,0,0
82.586354106933,-105.24389327848,23.481348134813,3635330.2239172,3818.9161375612,2615544.8510758,28.681348134813,0,0
82.586354527358,-105.26142286886,23.485778577858,3635330.2239172,3818.9161375612,2615544.8510758,28.685778577858,0,0
82.586354947783,-105.27895245925,23.490209020902,3635330.2239172,3818.9161375612,2615544.8510758,28.690209020902,0,0
82.586355368207,-105.29648204963,23.494639463946,3635330.2239172,3818.9161375612,2615544.8510758,28.694639463946,0,0
82.586355788632,-105.31401164002,23.499069906991,3635330.2239172,3818.9161375612,2615544.8510758,28.699069906991,0,0
82.586356209057,-105.3315412304,23.503500350035,3635330.2239172,3818.9161375612,2615544.8510758,28.703500350035,0,0
82.586356629481,-105.34907082078,23.507930793079,3635330.2239172,3818.9161375612,2615544.8510758,28.707930793079,0,0
82.586357049906,-105.36660041117,23.512361236124,3635330.2239172,3818.9161375612,2615544.8510758,28.712361236124,0,0
82.586357470331,-105.38413000155,23.516791679168,3635330.2239172,3818.9161375612,2615544.8510758,28.716791679168,0,0
82.586357890755,-105.40165959193,23.521222122212,3635330.2239172,3818.9161375612,2615544.8510758,28.721222122212,0,0
82.58635831118,-105.41918918232,23.525652565257,3635330.2239172,3818.9161375612,2615544.8510758,28.725652565257,0,0
82.586358731605,-105.4367187727,23.530083008301,3635330.2239172,3818.9161375612,2615544.8510758,28.730083008301,0,0
82.58635915203,-105.45424836309,23.534513451345,3635330.2239172,3818.9161375612,2615544.8510758,28.734513451345,0,0
82.586359572454,-105.47177795347,23.538943894389,3635330.2239172,3818.9161375612,2615544.8510758,28.738943894389,0,0
82.586359992879,-105.48930754385,23.543374337434,3635330.2239172,3818.9161375612,2615544.8510758,28.743374337434,0,0
82.586360413304,-105.50683713424,23.547804780478,3635330.2239172,3818.9161375612,2615544.8510758,28.747804780478,0,0
82.586360833728,-105.52436672462,23.552235223522,3635330.2239172,3818.9161375612,2615544.8510758,28.752235223522,0,0
82.586361254153,-105.541896315,23.556665666567,3635330.2239172,3818.9161375612,2615544.8510758,28.756665666567,0,0
82.586361674578,-105.55942590539,23.561096109611,3635330.2239172,3818.9161375612,2615544.8510758,28.761096109611,0,0
82.586362095002,-105.57695549577,23.565526552655,3635330.2239172,3818.9161375612,2615544.8510758,28.765526552655,0,0
82.586362515427,-105.59448508616,23.5699569957,3635330.2239172,3818.9161375612,2615544.8510758,28.7699569957,0,0
82.586362935852,-105.61201467654,23.574387438744,3635330.2239172,3818.9161375612,2615544.8510758,28.774387438744,0,0
82.586363356277,-105.62954426692,23.578817881788,3635330.2239172,3818.9161375612,2615544.8510758,28.778817881788,0,0
82.586363776701,-105.64707385731,23.583248324832,3635330.2239172,3818.9161375612,2615544.8510758,28.783248324832,0,0
82.586364197126,-105.66460344769,23.587678767877,3635330.2239172,3818.9161375612,2615544.8510758,28.787678767877,0,0
82.586364617551,-105.68213303807,23.592109210921,3635330.2239172,3818.9161375612,2615544.8510758,28.792109210921,0,0
82.586365037975,-105.69966262846,23.596539653965,3635330.2239172,3818.9161375612,2615544.8510758,28.796539653965,0,0
82.5863654584,-105.71719221884,23.60097009701,3635330.2239172,3818.9161375612,2615544.8510758,28.80097009701,0,0
82.586365878825,-105.73472180923,23.605400540054,3635330.2239172,3818.9161375612,2615544.8510758,28.805400540054,0,0
82.58636629925,-105.75225139961,23.609830983098,3635330.2239172,3818.9161375612,2615544.8510758,28.809830983098,0,0
82.586366719674,-105.76978098999,23.614261426143,3635330.2239172,3818.9161375612,2615544.8510758,28.814261426143,0,0
82.586367140099,-105.78731058038,23.618691869187,3635330.2239172,3818.9161375612,2615544.8510758,28.818691869187,0,0
82.586367560524,-105.80484017076,23.623122312231,3635330.2239172,3818.9161375612,2615544.8510758,28.823122312231,0,0
82.586367980948,-105.82236976114,23.627552755276,3635330.2239172,3818.9161375612,2615544.8510758,28.827552755276,0,0
82.586368401373,-105.83989935153,23.63198319832,3635330.2239172,3818.9161375612,2615544.8510758,28.83198319832,0,0
82.586368821798,-105.85742894191,23.636413641364,3635330.2239172,3818.9161375612,2615544.8510758,28.836413641364,0,0
82.586369242222,-105.8749585323,23.640844084408,3635330.2239172,3818.9161375612,2615544.8510758,28.840844084408,0,0
82.586369662647,-105.89248812268,23.645274527453,3635330.2239172,3818.9161375612,2615544.8510758,28.845274527453,0,0
82.586370083072,-105.91001771306,23.649704970497,3635330.2239172,3818.9161375612,2615544.8510758,28.849704970497,0,0
82.586370503497,-105.92754730345,23.654135413541,3635330.2239172,3818.9161375612,2615544.8510758,28.854135413541,0,0
82.586370923921,-105.94507689383,23.658565856586,3635330.2239172,3818.9161375612,2615544.8510758,28.858565856586,0,0
82.586371344346,-105.96260648421,23.66299629963,3635330.2239172,3818.9161375612,2615544.8510758,28.86299629963,0,0
82.586371764771,-105.9801360746,23.667426742674,3635330.2239172,3818.9161375612,2615544.8510758,28.867426742674,0,0
82.586372185195,-105.99766566498,23.671857185719,3635330.2239172,3818.9161375612,2615544.8510758,28.871857185719,0,0
82.58637260562,-106.01519525537,23.676287628763,3635330.2239172,3818.9161375612,2615544.8510758,28.876287628763,0,0
82.586373026045,-106.03272484575,23.680718071807,3635330.2239172,3818.9161375612,2615544.8510758,28.880718071807,0,0
82.58637344647,-106.05025443613,23.685148514851,3635330.2239172,3818.9161375612,2615544.8510758,28.885148514851,0,0
82.586373866894,-106.06778402652,23.689578957896,3635330.2239172,3818.9161375612,2615544.8510758,28.889578957896,0,0
82.586374287319,-106.0853136169,23.69400940094,3635330.2239172,3818.9161375612,2615544.8510758,28.89400940094,0,0
82.586374707744,-106.10284320728,23.698439843984,3635330.2239172,3818.9161375612,2615544.8510758,28.898439843984,0,0
82.586375128168,-106.12037279767,23.702870287029,3635330.2239172,3818.9161375612,2615544.8510758,28.902870287029,0,0
82.586375548593,-106.13790238805,23.707300730073,3635330.2239172,3818.9161375612,2615544.8510758,28.907300730073,0,0
82.586375969018,-106.15543197844,23.711731173117,3635330.2239172,3818.9161375612,2615544.8510758,28.911731173117,0,0
82.586376389442,-106.17296156882,23.716161616162,3635330.2239172,3818.9161375612,2615544.8510758,28.916161616162,0,0
82.586376809867,-106.1904911592,23.720592059206,3635330.2239172,3818.9161375612,2615544.8510758,28.920592059206,0,0
82.586377230292,-106.20802074959,23.72502250225,3635330.2239172,3818.9161375612,2615544.8510758,28.92502250225,0,0
82.586377650717,-106.22555033997,23.729452945295,3635330.2239172,3818.9161375612,2615544.8510758,28.929452945295,0,0
82.586378071141,-106.24307993035,23.733883388339,3635330.2239172,3818.9161375612,2615544.8510758,28.933883388339,0,0
82.586378491566,-106.26060952074,23.738313831383,3635330.2239172,3818.9161375612,2615544.8510758,28.938313831383,0,0
82.586378911991,-106.27813911112,23.742744274427,3635330.2239172,3818.9161375612,2615544.8510758,28.942744274427,0,0
82.586379332415,-106.29566870151,23.747174717472,3635330.2239172,3818.9161375612,2615544.8510758,28.947174717472,0,0
82.58637975284,-106.31319829189,23.751605160516,3635330.2239172,3818.9161375612,2615544.8510758,28.951605160516,0,0
82.586380173265,-106.33072788227,23.75603560356,3635330.2239172,3818.9161375612,2615544.8510758,28.95603560356,0,0
82.586380593689,-106.34825747266,23.760466046605,3635330.2239172,3818.9161375612,2615544.8510758,28.960466046605,0,0
82.586381014114,-106.36578706304,23.764896489649,3635330.2239172,3818.9161375612,2615544.8510758,28.964896489649,0,0
82.586381434539,-106.38331665342,23.769326932693,3635330.2239172,3818.9161375612,2615544.8510758,28.969326932693,0,0
82.586381854964,-106.40084624381,23.773757375738,3635330.2239172,3818.9161375612,2615544.8510758,28.973757375738,0,0
82.586382275388,-106.41837583419,23.778187818782,3635330.2239172,3818.9161375612,2615544.8510758,28.978187818782,0,0
82.586382695813,-106.43590542458,23.782618261826,3635330.2239172,3818.9161375612,2615544.8510758,28.982618261826,0,0
82.586383116238,-106.45343501496,23.78704870487,3635330.2239172,3818.9161375612,2615544.8510758,28.98704870487,0,0
82.586383536662,-106.47096460534,23.791479147915,3635330.2239172,3818.9161375612,2615544.8510758,28.991479147915,0,0
82.586383957087,-106.48849419573,23.795909590959,3635330.2239172,3818.9161375612,2615544.8510758,28.995909590959,0,0
82.586384377512,-106.50602378611,23.800340034003,3635330.2239172,3818.9161375612,2615544.8510758,29.000340034003,0,0
82.586384797937,-106.52355337649,23.804770477048,3635330.2239172,3818.9161375612,2615544.8510758,29.004770477048,0,0
82.586385218361,-106.54108296688,23.809200920092,3635330.2239172,3818.9161375612,2615544.8510758,29.009200920092,0,0
82.586385638786,-106.55861255726,23.813631363136,3635330.2239172,3818.9161375612,2615544.8510758,29.013631363136,0,0
82.586386059211,-106.57614214765,23.818061806181,3635330.2239172,3818.9161375612,2615544.8510758,29.018061806181,0,0
82.586386479635,-106.59367173803,23.822492249225,3635330.2239172,3818.9161375612,2615544.8510758,29.022492249225,0,0
82.58638690006,-106.61120132841,23.826922692269,3635330.2239172,3818.9161375612,2615544.8510758,29.026922692269,0,0
82.586387320485,-106.6287309188,23.831353135314,3635330.2239172,3818.9161375612,2615544.8510758,29.031353135314,0,0
82.586387740909,-106.64626050918,23.835783578358,3635330.2239172,3818.9161375612,2615544.8510758,29.035783578358,0,0
82.586388161334,-106.66379009956,23.840214021402,3635330.2239172,3818.9161375612,2615544.8510758,29.040214021402,0,0
82.586388581759,-106.68131968995,23.844644464446,3635330.2239172,3818.9161375612,2615544.8510758,29.044644464446,0,0
82.586389002184,-106.69884928033,23.849074907491,3635330.2239172,3818.9161375612,2615544.8510758,29.049074907491,0,0
82.586389422608,-106.71637887072,23.853505350535,3635330.2239172,3818.9161375612,2615544.8510758,29.053505350535,0,0
82.586389843033,-106.7339084611,23.857935793579,3635330.2239172,3818.9161375612,2615544.8510758,29.057935793579,0,0
82.586390263458,-106.75143805148,23.862366236624,3635330.2239172,3818.9161375612,2615544.8510758,29.062366236624,0,0
82.586390683882,-106.76896764187,23.866796679668,3635330.2239172,3818.9161375612,2615544.8510758,29.066796679668,0,0
82.586391104307,-106.78649723225,23.871227122712,3635330.2239172,3818.9161375612,2615544.8510758,29.071227122712,0,0
82.586391524732,-106.80402682263,23.875657565757,3635330.2239172,3818.9161375612,2615544.8510758,29.075657565757,0,0
82.586391945157,-106.82155641302,23.880088008801,3635330.2239172,3818.9161375612,2615544.8510758,29.080088008801,0,0
82.586392365581,-106.8390860034,23.884518451845,3635330.2239172,3818.9161375612,2615544.8510758,29.084518451845,0,0
82.586392786006,-106.85661559379,23.888948894889,3635330.2239172,3818.9161375612,2615544.8510758,29.088948894889,0,0
82.586393206431,-106.87414518417,23.893379337934,3635330.2239172,3818.9161375612,2615544.8510758,29.093379337934,0,0
82.586393626855,-106.89167477455,23.897809780978,3635330.2239172,3818.9161375612,2615544.8510758,29.097809780978,0,0
82.58639404728,-106.90920436494,23.902240224022,3635330.2239172,3818.9161375612,2615544.8510758,29.102240224022,0,0
82.586394467705,-106.92673395532,23.906670667067,3635330.2239172,3818.9161375612,2615544.8510758,29.106670667067,0,0
82.586394888129,-106.9442635457,23.911101110111,3635330.2239172,3818.9161375612,2615544.8510758,29.111101110111,0,0
82.586395308554,-106.96179313609,23.915531553155,3635330.2239172,3818.9161375612,2615544.8510758,29.115531553155,0,0
82.586395728979,-106.97932272647,23.9199619962,3635330.2239172,3818.9161375612,2615544.8510758,29.1199619962,0,0
82.586396149404,-106.99685231686,23.924392439244,3635330.2239172,3818.9161375612,2615544.8510758,29.124392439244,0,0
82.586396569828,-107.01438190724,23.928822882288,3635330.2239172,3818.9161375612,2615544.8510758,29.128822882288,0,0
82.586396990253,-107.03191149762,23.933253325333,3635330.2239172,3818.9161375612,2615544.8510758,29.133253325333,0,0
82.586397410678,-107.04944108801,23.937683768377,3635330.2239172,3818.9161375612,2615544.8510758,29.137683768377,0,0
82.586397831102,-107.06697067839,23.942114211421,3635330.2239172,3818.9161375612,2615544.8510758,29.142114211421,0,0
82.586398251527,-107.08450026877,23.946544654465,3635330.2239172,3818.9161375612,2615544.8510758,29.146544654465,0,0
82.586398671952,-107.10202985916,23.95097509751,3635330.2239172,3818.9161375612,2615544.8510758,29.15097509751,0,0
82.586399092376,-107.11955944954,23.955405540554,3635330.2239172,3818.9161375612,2615544.8510758,29.155405540554,0,0
82.586399512801,-107.13708903993,23.959835983598,3635330.2239172,3818.9161375612,2615544.8510758,29.159835983598,0,0
82.586399933226,-107.15461863031,23.964266426643,3635330.2239172,3818.9161375612,2615544.8510758,29.164266426643,0,0
82.586400353651,-107.17214822069,23.968696869687,3635330.2239172,3818.9161375612,2615544.8510758,29.168696869687,0,0
82.586400774075,-107.18967781108,23.973127312731,3635330.2239172,3818.9161375612,2615544.8510758,29.173127312731,0,0
82.5864011945,-107.20720740146,23.977557755776,3635330.2239172,3818.9161375612,2615544.8510758,29.177557755776,0,0
82.586401614925,-107.22473699184,23.98198819882,3635330.2239172,3818.9161375612,2615544.8510758,29.18198819882,0,0
82.586402035349,-107.24226658223,23.986418641864,3635330.2239172,3818.9161375612,2615544.8510758,29.186418641864,0,0
82.586402455774,-107.25979617261,23.990849084908,3635330.2239172,3818.9161375612,2615544.8510758,29.190849084908,0,0
82.586402876199,-107.27732576299,23.995279527953,3635330.2239172,3818.9161375612,2615544.8510758,29.195279527953,0,0
82.586403296624,-107.29485535338,23.999709970997,3635330.2239172,3818.9161375612,2615544.8510758,29.199709970997,0,0
82.586403717048,-107.31238494376,24.004140414041,3635330.2239172,3818.9161375612,2615544.8510758,29.204140414041,0,0
82.586404137473,-107.32991453415,24.008570857086,3635330.2239172,3818.9161375612,2615544.8510758,29.208570857086,0,0
82.586404557898,-107.34744412453,24.01300130013,3635330.2239172,3818.9161375612,2615544.8510758,29.21300130013,0,0
82.586404978322,-107.36497371491,24.017431743174,3635330.2239172,3818.9161375612,2615544.8510758,29.217431743174,0,0
82.586405398747,-107.3825033053,24.021862186219,3635330.2239172,3818.9161375612,2615544.8510758,29.221862186219,0,0
82.586405819172,-107.40003289568,24.026292629263,3635330.2239172,3818.9161375612,2615544.8510758,29.226292629263,0,0
82.586406239596,-107.41756248606,24.030723072307,3635330.2239172,3818.9161375612,2615544.8510758,29.230723072307,0,0
82.586406660021,-107.43509207645,24.035153515352,3635330.2239172,3818.9161375612,2615544.8510758,29.235153515352,0,0
82.586407080446,-107.45262166683,24.039583958396,3635330.2239172,3818.9161375612,2615544.8510758,29.239583958396,0,0
82.586407500871,-107.47015125722,24.04401440144,3635330.2239172,3818.9161375612,2615544.8510758,29.24401440144,0,0
82.586407921295,-107.4876808476,24.048444844484,3635330.2239172,3818.9161375612,2615544.8510758,29.248444844484,0,0
82.58640834172,-107.50521043798,24.052875287529,3635330.2239172,3818.9161375612,2615544.8510758,29.252875287529,0,0
82.586408762145,-107.52274002837,24.057305730573,3635330.2239172,3818.9161375612,2615544.8510758,29.257305730573,0,0
82.586409182569,-107.54026961875,24.061736173617,3635330.2239172,3818.9161375612,2615544.8510758,29.261736173617,0,0
82.586409602994,-107.55779920913,24.066166616662,3635330.2239172,3818.9161375612,2615544.8510758,29.266166616662,0,0
82.586410023419,-107.57532879952,24.070597059706,3635330.2239172,3818.9161375612,2615544.8510758,29.270597059706,0,0
82.586410443844,-107.5928583899,24.07502750275,3635330.2239172,3818.9161375612,2615544.8510758,29.27502750275,0,0
82.586410864268,-107.61038798029,24.079457945795,3635330.2239172,3818.9161375612,2615544.8510758,29.279457945795,0,0
82.586411284693,-107.62791757067,24.083888388839,3635330.2239172,3818.9161375612,2615544.8510758,29.283888388839,0,0
82.586411705118,-107.64544716105,24.088318831883,3635330.2239172,3818.9161375612,2615544.8510758,29.288318831883,0,0
82.586412125542,-107.66297675144,24.092749274927,3635330.2239172,3818.9161375612,2615544.8510758,29.292749274927,0,0
82.586412545967,-107.68050634182,24.097179717972,3635330.2239172,3818.9161375612,2615544.8510758,29.297179717972,0,0
82.586412966392,-107.6980359322,24.101610161016,3635330.2239172,3818.9161375612,2615544.8510758,29.301610161016,0,0
82.586413386816,-107.71556552259,24.10604060406,3635330.2239172,3818.9161375612,2615544.8510758,29.30604060406,0,0
82.586413807241,-107.73309511297,24.110471047105,3635330.2239172,3818.9161375612,2615544.8510758,29.310471047105,0,0
82.586414227666,-107.75062470336,24.114901490149,3635330.2239172,3818.9161375612,2615544.8510758,29.314901490149,0,0
82.586414648091,-107.76815429374,24.119331933193,3635330.2239172,3818.9161375612,2615544.8510758,29.319331933193,0,0
82.586415068515,-107.78568388412,24.123762376238,3635330.2239172,3818.9161375612,2615544.8510758,29.323762376238,0,0
82.58641548894,-107.80321347451,24.128192819282,3635330.2239172,3818.9161375612,2615544.8510758,29.328192819282,0,0
82.586415909365,-107.82074306489,24.132623262326,3635330.2239172,3818.9161375612,2615544.8510758,29.332623262326,0,0
82.586416329789,-107.83827265527,24.137053705371,3635330.2239172,3818.9161375612,2615544.8510758,29.337053705371,0,0
82.586416750214,-107.85580224566,24.141484148415,3635330.2239172,3818.9161375612,2615544.8510758,29.341484148415,0,0
82.586417170639,-107.87333183604,24.145914591459,3635330.2239172,3818.9161375612,2615544.8510758,29.345914591459,0,0
82.586417591064,-107.89086142643,24.150345034503,3635330.2239172,3818.9161375612,2615544.8510758,29.350345034503,0,0
82.586418011488,-107.90839101681,24.154775477548,3635330.2239172,3818.9161375612,2615544.8510758,29.354775477548,0,0
82.586418431913,-107.92592060719,24.159205920592,3635330.2239172,3818.9161375612,2615544.8510758,29.359205920592,0,0
82.586418852338,-107.94345019758,24.163636363636,3635330.2239172,3818.9161375612,2615544.8510758,29.363636363636,0,0
82.586419272762,-107.96097978796,24.168066806681,3635330.2239172,3818.9161375612,2615544.8510758,29.368066806681,0,0
82.586419693187,-107.97850937834,24.172497249725,3635330.2239172,3818.9161375612,2615544.8510758,29.372497249725,0,0
82.586420113612,-107.99603896873,24.176927692769,3635330.2239172,3818.9161375612,2615544.8510758,29.376927692769,0,0
82.586420534036,-108.01356855911,24.181358135814,3635330.2239172,3818.9161375612,2615544.8510758,29.381358135814,0,0
82.586420954461,-108.0310981495,24.185788578858,3635330.2239172,3818.9161375612,2615544.8510758,29.385788578858,0,0
82.586421374886,-108.04862773988,24.190219021902,3635330.2239172,3818.9161375612,2615544.8510758,29.390219021902,0,0
82.586421795311,-108.06615733026,24.194649464946,3635330.2239172,3818.9161375612,2615544.8510758,29.394649464946,0,0
82.586422215735,-108.08368692065,24.199079907991,3635330.2239172,3818.9161375612,2615544.8510758,29.399079907991,0,0
82.58642263616,-108.10121651103,24.203510351035,3635330.2239172,3818.9161375612,2615544.8510758,29.403510351035,0,0
82.586423056585,-108.11874610141,24.207940794079,3635330.2239172,3818.9161375612,2615544.8510758,29.407940794079,0,0
82.586423477009,-108.1362756918,24.212371237124,3635330.2239172,3818.9161375612,2615544.8510758,29.412371237124,0,0
82.586423897434,-108.15380528218,24.216801680168,3635330.2239172,3818.9161375612,2615544.8510758,29.416801680168,0,0
82.586424317859,-108.17133487257,24.221232123212,3635330.2239172,3818.9161375612,2615544.8510758,29.421232123212,0,0
82.586424738283,-108.18886446295,24.225662566257,3635330.2239172,3818.9161375612,2615544.8510758,29.425662566257,0,0
82.586425158708,-108.20639405333,24.230093009301,3635330.2239172,3818.9161375612,2615544.8510758,29.430093009301,0,0
82.586425579133,-108.22392364372,24.234523452345,3635330.2239172,3818.9161375612,2615544.8510758,29.434523452345,0,0
82.586425999558,-108.2414532341,24.23895389539,3635330.2239172,3818.9161375612,2615544.8510758,29.43895389539,0,0
82.586426419982,-108.25898282448,24.243384338434,3635330.2239172,3818.9161375612,2615544.8510758,29.443384338434,0,0
82.586426840407,-108.27651241487,24.247814781478,3635330.2239172,3818.9161375612,2615544.8510758,29.447814781478,0,0
82.586427260832,-108.29404200525,24.252245224522,3635330.2239172,3818.9161375612,2615544.8510758,29.452245224522,0,0
82.586427681256,-108.31157159564,24.256675667567,3635330.2239172,3818.9161375612,2615544.8510758,29.456675667567,0,0
82.586428101681,-108.32910118602,24.261106110611,3635330.2239172,3818.9161375612,2615544.8510758,29.461106110611,0,0
82.586428522106,-108.3466307764,24.265536553655,3635330.2239172,3818.9161375612,2615544.8510758,29.465536553655,0,0
82.586428942531,-108.36416036679,24.2699669967,3635330.2239172,3818.9161375612,2615544.8510758,29.4699669967,0,0
82.586429362955,-108.38168995717,24.274397439744,3635330.2239172,3818.9161375612,2615544.8510758,29.474397439744,0,0
82.58642978338,-108.39921954755,24.278827882788,3635330.2239172,3818.9161375612,2615544.8510758,29.478827882788,0,0
82.586430203805,-108.41674913794,24.283258325833,3635330.2239172,3818.9161375612,2615544.8510758,29.483258325833,0,0
82.586430624229,-108.43427872832,24.287688768877,3635330.2239172,3818.9161375612,2615544.8510758,29.487688768877,0,0
82.586431044654,-108.45180831871,24.292119211921,3635330.2239172,3818.9161375612,2615544.8510758,29.492119211921,0,0
82.586431465079,-108.46933790909,24.296549654965,3635330.2239172,3818.9161375612,2615544.8510758,29.496549654965,0,0
82.586431885503,-108.48686749947,24.30098009801,3635330.2239172,3818.9161375612,2615544.8510758,29.50098009801,0,0
82.586432305928,-108.50439708986,24.305410541054,3635330.2239172,3818.9161375612,2615544.8510758,29.505410541054,0,0
82.586432726353,-108.52192668024,24.309840984098,3635330.2239172,3818.9161375612,2615544.8510758,29.509840984098,0,0
82.586433146778,-108.53945627062,24.314271427143,3635330.2239172,3818.9161375612,2615544.8510758,29.514271427143,0,0
82.586433567202,-108.55698586101,24.318701870187,3635330.2239172,3818.9161375612,2615544.8510758,29.518701870187,0,0
82.58643398802,-108.57451545108,24.323132313231,3652591.5309335,5456.3347634939,2613363.407047,29.523132313231,0,0
82.586434409881,-108.59204504032,24.327562756276,3652591.5309335,5456.3347634939,2613363.407047,29.527562756276,0,0
82.586434831743,-108.60957462956,24.33199319932,3652591.5309335,5456.3347634939,2613363.407047,29.53199319932,0,0
82.586435253604,-108.6271042188,24.336423642364,3652591.5309335,5456.3347634939,2613363.407047,29.536423642364,0,0
82.586435675466,-108.64463380804,24.340854085409,3652591.5309335,5456.3347634939,2613363.407047,29.540854085409,0,0
82.586436097328,-108.66216339728,24.345284528453,3652591.5309335,5456.3347634939,2613363.407047,29.545284528453,0,0
82.586436519189,-108.67969298651,24.349714971497,3652591.5309335,5456.3347634939,2613363.407047,29.549714971497,0,0
82.586436941051,-108.69722257575,24.354145414541,3652591.5309335,5456.3347634939,2613363.407047,29.554145414541,0,0
82.586437362912,-108.71475216499,24.358575857586,3652591.5309335,5456.3347634939,2613363.407047,29.558575857586,0,0
82.586437784774,-108.73228175423,24.36300630063,3652591.5309335,5456.3347634939,2613363.407047,29.56300630063,0,0
82.586438206635,-108.74981134347,24.367436743674,3652591.5309335,5456.3347634939,2613363.407047,29.567436743674,0,0
82.586438628497,-108.76734093271,24.371867186719,3652591.5309335,5456.3347634939,2613363.407047,29.571867186719,0,0
82.586439050358,-108.78487052195,24.376297629763,3652591.5309335,5456.3347634939,2613363.407047,29.576297629763,0,0
82.58643947222,-108.80240011119,24.380728072807,3652591.5309335,5456.3347634939,2613363.407047,29.580728072807,0,0
82.586439894081,-108.81992970043,24.385158515852,3652591.5309335,5456.3347634939,2613363.407047,29.585158515852,0,0
82.586440315943,-108.83745928967,24.389588958896,3652591.5309335,5456.3347634939,2613363.407047,29.589588958896,0,0
82.586440737805,-108.85498887891,24.39401940194,3652591.5309335,5456.3347634939,2613363.407047,29.59401940194,0,0
82.586441159666,-108.87251846815,24.398449844984,3652591.5309335,5456.3347634939,2613363.407047,29.598449844984,0,0
82.586441581528,-108.89004805739,24.402880288029,3652591.5309335,5456.3347634939,2613363.407047,29.602880288029,0,0
82.586442003389,-108.90757764662,24.407310731073,3652591.5309335,5456.3347634939,2613363.407047,29.607310731073,0,0
82.586442425251,-108.92510723586,24.411741174117,3652591.5309335,5456.3347634939,2613363.407047,29.611741174117,0,0
82.586442847112,-108.9426368251,24.416171617162,3652591.5309335,5456.3347634939,2613363.407047,29.616171617162,0,0
82.586443268974,-108.96016641434,24.420602060206,3652591.5309335,5456.3347634939,2613363.407047,29.620602060206,0,0
82.586443690835,-108.97769600358,24.42503250325,3652591.5309335,5456.3347634939,2613363.407047,29.62503250325,0,0
82.586444112697,-108.99522559282,24.429462946295,3652591.5309335,5456.3347634939,2613363.407047,29.629462946295,0,0
82.586444534558,-109.01275518206,24.433893389339,3652591.5309335,5456.3347634939,2613363.407047,29.633893389339,0,0
82.58644495642,-109.0302847713,24.438323832383,3652591.5309335,5456.3347634939,2613363.407047,29.638323832383,0,0
82.586445378282,-109.04781436054,24.442754275428,3652591.5309335,5456.3347634939,2613363.407047,29.642754275428,0,0
82.586445800143,-109.06534394978,24.447184718472,3652591.5309335,5456.3347634939,2613363.407047,29.647184718472,0,0
82.586446222005,-109.08287353902,24.451615161516,3652591.5309335,5456.3347634939,2613363.407047,29.651615161516,0,0
82.586446643866,-109.10040312826,24.45604560456,3652591.5309335,5456.3347634939,2613363.407047,29.65604560456,0,0
82.586447065728,-109.1179327175,24.460476047605,3652591.5309335,5456.3347634939,2613363.407047,29.660476047605,0,0
82.586447487589,-109.13546230673,24.464906490649,3652591.5309335,5456.3347634939,2613363.407047,29.664906490649,0,0
82.586447909451,-109.15299189597,24.469336933693,3652591.5309335,5456.3347634939,2613363.407047,29.669336933693,0,0
82.586448331312,-109.17052148521,24.473767376738,3652591.5309335,5456.3347634939,2613363.407047,29.673767376738,0,0
82.586448753174,-109.18805107445,24.478197819782,3652591.5309335,5456.3347634939,2613363.407047,29.678197819782,0,0
82.586449175035,-109.20558066369,24.482628262826,3652591.5309335,5456.3347634939,2613363.407047,29.682628262826,0,0
82.586449596897,-109.22311025293,24.487058705871,3652591.5309335,5456.3347634939,2613363.407047,29.687058705871,0,0
82.586450018759,-109.24063984217,24.491489148915,3652591.5309335,5456.3347634939,2613363.407047,29.691489148915,0,0
82.58645044062,-109.25816943141,24.495919591959,3652591.5309335,5456.3347634939,2613363.407047,29.695919591959,0,0
82.586450862482,-109.27569902065,24.500350035003,3652591.5309335,5456.3347634939,2613363.407047,29.700350035003,0,0
82.586451284343,-109.29322860989,24.504780478048,3652591.5309335,5456.3347634939,2613363.407047,29.704780478048,0,0
82.586451706205,-109.31075819913,24.509210921092,3652591.5309335,5456.3347634939,2613363.407047,29.709210921092,0,0
82.586452128066,-109.32828778837,24.513641364136,3652591.5309335,5456.3347634939,2613363.407047,29.713641364136,0,0
82.586452549928,-109.34581737761,24.518071807181,3652591.5309335,5456.3347634939,2613363.407047,29.718071807181,0,0
82.586452971789,-109.36334696684,24.522502250225,3652591.5309335,5456.3347634939,2613363.407047,29.722502250225,0,0
82.586453393651,-109.38087655608,24.526932693269,3652591.5309335,5456.3347634939,2613363.407047,29.726932693269,0,0
82.586453815513,-109.39840614532,24.531363136314,3652591.5309335,5456.3347634939,2613363.407047,29.731363136314,0,0
82.586454237374,-109.41593573456,24.535793579358,3652591.5309335,5456.3347634939,2613363.407047,29.735793579358,0,0
82.586454659236,-109.4334653238,24.540224022402,3652591.5309335,5456.3347634939,2613363.407047,29.740224022402,0,0
82.586455081097,-109.45099491304,24.544654465447,3652591.5309335,5456.3347634939,2613363.407047,29.744654465447,0,0
82.586455502959,-109.46852450228,24.549084908491,3652591.5309335,5456.3347634939,2613363.407047,29.749084908491,0,0
82.58645592482,-109.48605409152,24.553515351535,3652591.5309335,5456.3347634939,2613363.407047,29.753515351535,0,0
82.586456346682,-109.50358368076,24.557945794579,3652591.5309335,5456.3347634939,2613363.407047,29.757945794579,0,0
82.586456768543,-109.52111327,24.562376237624,3652591.5309335,5456.3347634939,2613363.407047,29.762376237624,0,0
82.586457190405,-109.53864285924,24.566806680668,3652591.5309335,5456.3347634939,2613363.407047,29.766806680668,0,0
82.586457612266,-109.55617244848,24.571237123712,3652591.5309335,5456.3347634939,2613363.407047,29.771237123712,0,0
82.586458034128,-109.57370203772,24.575667566757,3652591.5309335,5456.3347634939,2613363.407047,29.775667566757,0,0
82.58645845599,-109.59123162695,24.580098009801,3652591.5309335,5456.3347634939,2613363.407047,29.780098009801,0,0
82.586458877851,-109.60876121619,24.584528452845,3652591.5309335,5456.3347634939,2613363.407047,29.784528452845,0,0
82.586459299713,-109.62629080543,24.58895889589,3652591.5309335,5456.3347634939,2613363.407047,29.78895889589,0,0
82.586459721574,-109.64382039467,24.593389338934,3652591.5309335,5456.3347634939,2613363.407047,29.793389338934,0,0
82.586460143436,-109.66134998391,24.597819781978,3652591.5309335,5456.3347634939,2613363.407047,29.797819781978,0,0
82.586460565297,-109.67887957315,24.602250225022,3652591.5309335,5456.3347634939,2613363.407047,29.802250225022,0,0
82.586460987159,-109.69640916239,24.606680668067,3652591.5309335,5456.3347634939,2613363.407047,29.806680668067,0,0
82.58646140902,-109.71393875163,24.611111111111,3652591.5309335,5456.3347634939,2613363.407047,29.811111111111,0,0
82.586461830882,-109.73146834087,24.615541554155,3652591.5309335,5456.3347634939,2613363.407047,29.815541554155,0,0
82.586462252743,-109.74899793011,24.6199719972,3652591.5309335,5456.3347634939,2613363.407047,29.8199719972,0,0
82.586462674605,-109.76652751935,24.624402440244,3652591.5309335,5456.3347634939,2613363.407047,29.824402440244,0,0
82.586463096467,-109.78405710859,24.628832883288,3652591.5309335,5456.3347634939,2613363.407047,29.828832883288,0,0
82.586463518328,-109.80158669783,24.633263326333,3652591.5309335,5456.3347634939,2613363.407047,29.833263326333,0,0
82.58646394019,-109.81911628706,24.637693769377,3652591.5309335,5456.3347634939,2613363.407047,29.837693769377,0,0
82.586464362051,-109.8366458763,24.642124212421,3652591.5309335,5456.3347634939,2613363.407047,29.842124212421,0,0
82.586464783913,-109.85417546554,24.646554655466,3652591.5309335,5456.3347634939,2613363.407047,29.846554655466,0,0
82.586465205774,-109.87170505478,24.65098509851,3652591.5309335,5456.3347634939,2613363.407047,29.85098509851,0,0
82.586465627636,-109.88923464402,24.655415541554,3652591.5309335,5456.3347634939,2613363.407047,29.855415541554,0,0
82.586466049497,-109.90676423326,24.659845984598,3652591.5309335,5456.3347634939,2613363.407047,29.859845984598,0,0
82.586466471359,-109.9242938225,24.664276427643,3652591.5309335,5456.3347634939,2613363.407047,29.864276427643,0,0
82.58646689322,-109.94182341174,24.668706870687,3652591.5309335,5456.3347634939,2613363.407047,29.868706870687,0,0
82.586467315082,-109.95935300098,24.673137313731,3652591.5309335,5456.3347634939,2613363.407047,29.873137313731,0,0
82.586467736944,-109.97688259022,24.677567756776,3652591.5309335,5456.3347634939,2613363.407047,29.877567756776,0,0
82.586468158805,-109.99441217946,24.68199819982,3652591.5309335,5456.3347634939,2613363.407047,29.88199819982,0,0
82.586468580667,-110.0119417687,24.686428642864,3652591.5309335,5456.3347634939,2613363.407047,29.886428642864,0,0
82.586469002528,-110.02947135794,24.690859085909,3652591.5309335,5456.3347634939,2613363.407047,29.890859085909,0,0
82.58646942439,-110.04700094718,24.695289528953,3652591.5309335,5456.3347634939,2613363.407047,29.895289528953,0,0
82.586469846251,-110.06453053641,24.699719971997,3652591.5309335,5456.3347634939,2613363.407047,29.899719971997,0,0
82.586470268113,-110.08206012565,24.704150415042,3652591.5309335,5456.3347634939,2613363.407047,29.904150415041,0,0
82.586470689974,-110.09958971489,24.708580858086,3652591.5309335,5456.3347634939,2613363.407047,29.908580858086,0,0
82.586471111836,-110.11711930413,24.71301130113,3652591.5309335,5456.3347634939,2613363.407047,29.91301130113,0,0
82.586471533697,-110.13464889337,24.717441744174,3652591.5309335,5456.3347634939,2613363.407047,29.917441744174,0,0
82.586471955559,-110.15217848261,24.721872187219,3652591.5309335,5456.3347634939,2613363.407047,29.921872187219,0,0
82.586472377421,-110.16970807185,24.726302630263,3652591.5309335,5456.3347634939,2613363.407047,29.926302630263,0,0
82.586472799282,-110.18723766109,24.730733073307,3652591.5309335,5456.3347634939,2613363.407047,29.930733073307,0,0
82.586473221144,-110.20476725033,24.735163516352,3652591.5309335,5456.3347634939,2613363.407047,29.935163516352,0,0
82.586473643005,-110.22229683957,24.739593959396,3652591.5309335,5456.3347634939,2613363.407047,29.939593959396,0,0
82.586474064867,-110.23982642881,24.74402440244,3652591.5309335,5456.3347634939,2613363.407047,29.94402440244,0,0
82.586474486728,-110.25735601805,24.748454845485,3652591.5309335,5456.3347634939,2613363.407047,29.948454845485,0,0
82.58647490859,-110.27488560729,24.752885288529,3652591.5309335,5456.3347634939,2613363.407047,29.952885288529,0,0
82.586475330451,-110.29241519652,24.757315731573,3652591.5309335,5456.3347634939,2613363.407047,29.957315731573,0,0
82.586475752313,-110.30994478576,24.761746174617,3652591.5309335,5456.3347634939,2613363.407047,29.961746174617,0,0
82.586476174174,-110.327474375,24.766176617662,3652591.5309335,5456.3347634939,2613363.407047,29.966176617662,0,0
82.586476596036,-110.34500396424,24.770607060706,3652591.5309335,5456.3347634939,2613363.407047,29.970607060706,0,0
82.586477017898,-110.36253355348,24.77503750375,3652591.5309335,5456.3347634939,2613363.407047,29.97503750375,0,0
82.586477439759,-110.38006314272,24.779467946795,3652591.5309335,5456.3347634939,2613363.407047,29.979467946795,0,0
82.586477861621,-110.39759273196,24.783898389839,3652591.5309335,5456.3347634939,2613363.407047,29.983898389839,0,0
82.586478283482,-110.4151223212,24.788328832883,3652591.5309335,5456.3347634939,2613363.407047,29.988328832883,0,0
82.586478705344,-110.43265191044,24.792759275928,3652591.5309335,5456.3347634939,2613363.407047,29.992759275928,0,0
82.586479127205,-110.45018149968,24.797189718972,3652591.5309335,5456.3347634939,2613363.407047,29.997189718972,0,0
82.586479549067,-110.46771108892,24.801620162016,3652591.5309335,5456.3347634939,2613363.407047,30.001620162016,0,0
82.586479971642,-110.48524067899,24.806050605061,3661936.0143413,3013.6411612602,2609655.6362427,30.006050605061,0,0
82.586480394349,-110.50277026922,24.810481048105,3661936.0143413,3013.6411612602,2609655.6362427,30.010481048105,0,0
82.586480817056,-110.52029985944,24.814911491149,3661936.0143413,3013.6411612602,2609655.6362427,30.014911491149,0,0
82.586481239762,-110.53782944967,24.819341934193,3661936.0143413,3013.6411612602,2609655.6362427,30.019341934193,0,0
82.586481662469,-110.55535903989,24.823772377238,3661936.0143413,3013.6411612602,2609655.6362427,30.023772377238,0,0
82.586482085176,-110.57288863012,24.828202820282,3661936.0143413,3013.6411612602,2609655.6362427,30.028202820282,0,0
82.586482507882,-110.59041822035,24.832633263326,3661936.0143413,3013.6411612602,2609655.6362427,30.032633263326,0,0
82.586482930589,-110.60794781057,24.837063706371,3661936.0143413,3013.6411612602,2609655.6362427,30.037063706371,0,0
82.586483353296,-110.6254774008,24.841494149415,3661936.0143413,3013.6411612602,2609655.6362427,30.041494149415,0,0
82.586483776002,-110.64300699103,24.845924592459,3661936.0143413,3013.6411612602,2609655.6362427,30.045924592459,0,0
82.586484198709,-110.66053658125,24.850355035504,3661936.0143413,3013.6411612602,2609655.6362427,30.050355035504,0,0
82.586484621416,-110.67806617148,24.854785478548,3661936.0143413,3013.6411612602,2609655.6362427,30.054785478548,0,0
82.586485044122,-110.6955957617,24.859215921592,3661936.0143413,3013.6411612602,2609655.6362427,30.059215921592,0,0
82.586485466829,-110.71312535193,24.863646364636,3661936.0143413,3013.6411612602,2609655.6362427,30.063646364636,0,0
82.586485889536,-110.73065494216,24.868076807681,3661936.0143413,3013.6411612602,2609655.6362427,30.068076807681,0,0
82.586486312242,-110.74818453238,24.872507250725,3661936.0143413,3013.6411612602,2609655.6362427,30.072507250725,0,0
82.586486734949,-110.76571412261,24.876937693769,3661936.0143413,3013.6411612602,2609655.6362427,30.076937693769,0,0
82.586487157656,-110.78324371284,24.881368136814,3661936.0143413,3013.6411612602,2609655.6362427,30.081368136814,0,0
82.586487580362,-110.80077330306,24.885798579858,3661936.0143413,3013.6411612602,2609655.6362427,30.085798579858,0,0
82.586488003069,-110.81830289329,24.890229022902,3661936.0143413,3013.6411612602,2609655.6362427,30.090229022902,0,0
82.586488425776,-110.83583248351,24.894659465947,3661936.0143413,3013.6411612602,2609655.6362427,30.094659465947,0,0
82.586488848482,-110.85336207374,24.899089908991,3661936.0143413,3013.6411612602,2609655.6362427,30.099089908991,0,0
82.586489271189,-110.87089166397,24.903520352035,3661936.0143413,3013.6411612602,2609655.6362427,30.103520352035,0,0
82.586489693896,-110.88842125419,24.90795079508,3661936.0143413,3013.6411612602,2609655.6362427,30.10795079508,0,0
82.586490116602,-110.90595084442,24.912381238124,3661936.0143413,3013.6411612602,2609655.6362427,30.112381238124,0,0
82.586490539309,-110.92348043464,24.916811681168,3661936.0143413,3013.6411612602,2609655.6362427,30.116811681168,0,0
82.586490962016,-110.94101002487,24.921242124212,3661936.0143413,3013.6411612602,2609655.6362427,30.121242124212,0,0
82.586491384722,-110.9585396151,24.925672567257,3661936.0143413,3013.6411612602,2609655.6362427,30.125672567257,0,0
82.586491807429,-110.97606920532,24.930103010301,3661936.0143413,3013.6411612602,2609655.6362427,30.130103010301,0,0
82.586492230136,-110.99359879555,24.934533453345,3661936.0143413,3013.6411612602,2609655.6362427,30.134533453345,0,0
82.586492652842,-111.01112838578,24.93896389639,3661936.0143413,3013.6411612602,2609655.6362427,30.13896389639,0,0
82.586493075549,-111.028657976,24.943394339434,3661936.0143413,3013.6411612602,2609655.6362427,30.143394339434,0,0
82.586493498256,-111.04618756623,24.947824782478,3661936.0143413,3013.6411612602,2609655.6362427,30.147824782478,0,0
82.586493920962,-111.06371715645,24.952255225523,3661936.0143413,3013.6411612602,2609655.6362427,30.152255225523,0,0
82.586494343669,-111.08124674668,24.956685668567,3661936.0143413,3013.6411612602,2609655.6362427,30.156685668567,0,0
82.586494766376,-111.09877633691,24.961116111611,3661936.0143413,3013.6411612602,2609655.6362427,30.161116111611,0,0
82.586495189082,-111.11630592713,24.965546554655,3661936.0143413,3013.6411612602,2609655.6362427,30.165546554655,0,0
82.586495611789,-111.13383551736,24.9699769977,3661936.0143413,3013.6411612602,2609655.6362427,30.1699769977,0,0
82.586496034496,-111.15136510759,24.974407440744,3661936.0143413,3013.6411612602,2609655.6362427,30.174407440744,0,0
82.586496457202,-111.16889469781,24.978837883788,3661936.0143413,3013.6411612602,2609655.6362427,30.178837883788,0,0
82.586496879909,-111.18642428804,24.983268326833,3661936.0143413,3013.6411612602,2609655.6362427,30.183268326833,0,0
82.586497302616,-111.20395387826,24.987698769877,3661936.0143413,3013.6411612602,2609655.6362427,30.187698769877,0,0
82.586497725322,-111.22148346849,24.992129212921,3661936.0143413,3013.6411612602,2609655.6362427,30.192129212921,0,0
82.586498148029,-111.23901305872,24.996559655966,3661936.0143413,3013.6411612602,2609655.6362427,30.196559655966,0,0
82.586498570736,-111.25654264894,25.00099009901,3661936.0143413,3013.6411612602,2609655.6362427,30.20099009901,0,0
82.586498993442,-111.27407223917,25.005420542054,3661936.0143413,3013.6411612602,2609655.6362427,30.205420542054,0,0
82.586499416149,-111.29160182939,25.009850985099,3661936.0143413,3013.6411612602,2609655.6362427,30.209850985099,0,0
82.586499838856,-111.30913141962,25.014281428143,3661936.0143413,3013.6411612602,2609655.6362427,30.214281428143,0,0
82.586500261562,-111.32666100985,25.018711871187,3661936.0143413,3013.6411612602,2609655.6362427,30.218711871187,0,0
82.586500684269,-111.34419060007,25.023142314231,3661936.0143413,3013.6411612602,2609655.6362427,30.223142314231,0,0
82.586501106976,-111.3617201903,25.027572757276,3661936.0143413,3013.6411612602,2609655.6362427,30.227572757276,0,0
82.586501529682,-111.37924978053,25.03200320032,3661936.0143413,3013.6411612602,2609655.6362427,30.23200320032,0,0
82.586501952389,-111.39677937075,25.036433643364,3661936.0143413,3013.6411612602,2609655.6362427,30.236433643364,0,0
82.586502375096,-111.41430896098,25.040864086409,3661936.0143413,3013.6411612602,2609655.6362427,30.240864086409,0,0
82.586502797802,-111.4318385512,25.045294529453,3661936.0143413,3013.6411612602,2609655.6362427,30.245294529453,0,0
82.586503220509,-111.44936814143,25.049724972497,3661936.0143413,3013.6411612602,2609655.6362427,30.249724972497,0,0
82.586503643216,-111.46689773166,25.054155415542,3661936.0143413,3013.6411612602,2609655.6362427,30.254155415542,0,0
82.586504065922,-111.48442732188,25.058585858586,3661936.0143413,3013.6411612602,2609655.6362427,30.258585858586,0,0
82.586504488629,-111.50195691211,25.06301630163,3661936.0143413,3013.6411612602,2609655.6362427,30.26301630163,0,0
82.586504911336,-111.51948650233,25.067446744674,3661936.0143413,3013.6411612602,2609655.6362427,30.267446744674,0,0
82.586505334042,-111.53701609256,25.071877187719,3661936.0143413,3013.6411612602,2609655.6362427,30.271877187719,0,0
82.586505756749,-111.55454568279,25.076307630763,3661936.0143413,3013.6411612602,2609655.6362427,30.276307630763,0,0
82.586506179456,-111.57207527301,25.080738073807,3661936.0143413,3013.6411612602,2609655.6362427,30.280738073807,0,0
82.586506602162,-111.58960486324,25.085168516852,3661936.0143413,3013.6411612602,2609655.6362427,30.285168516852,0,0
82.586507024869,-111.60713445347,25.089598959896,3661936.0143413,3013.6411612602,2609655.6362427,30.289598959896,0,0
82.586507447576,-111.62466404369,25.09402940294,3661936.0143413,3013.6411612602,2609655.6362427,30.29402940294,0,0
82.586507870282,-111.64219363392,25.098459845985,3661936.0143413,3013.6411612602,2609655.6362427,30.298459845985,0,0
82.586508292989,-111.65972322414,25.102890289029,3661936.0143413,3013.6411612602,2609655.6362427,30.302890289029,0,0
82.586508715696,-111.67725281437,25.107320732073,3661936.0143413,3013.6411612602,2609655.6362427,30.307320732073,0,0
82.586509138402,-111.6947824046,25.111751175118,3661936.0143413,3013.6411612602,2609655.6362427,30.311751175118,0,0
82.586509561109,-111.71231199482,25.116181618162,3661936.0143413,3013.6411612602,2609655.6362427,30.316181618162,0,0
82.586509983816,-111.72984158505,25.120612061206,3661936.0143413,3013.6411612602,2609655.6362427,30.320612061206,0,0
82.586510406522,-111.74737117528,25.12504250425,3661936.0143413,3013.6411612602,2609655.6362427,30.32504250425,0,0
82.586510829229,-111.7649007655,25.129472947295,3661936.0143413,3013.6411612602,2609655.6362427,30.329472947295,0,0
82.586511251936,-111.78243035573,25.133903390339,3661936.0143413,3013.6411612602,2609655.6362427,30.333903390339,0,0
82.586511674642,-111.79995994595,25.138333833383,3661936.0143413,3013.6411612602,2609655.6362427,30.338333833383,0,0
82.586512097349,-111.81748953618,25.142764276428,3661936.0143413,3013.6411612602,2609655.6362427,30.342764276428,0,0
82.586512520056,-111.83501912641,25.147194719472,3661936.0143413,3013.6411612602,2609655.6362427,30.347194719472,0,0
82.586512942762,-111.85254871663,25.151625162516,3661936.0143413,3013.6411612602,2609655.6362427,30.351625162516,0,0
82.586513365469,-111.87007830686,25.156055605561,3661936.0143413,3013.6411612602,2609655.6362427,30.356055605561,0,0
82.586513788176,-111.88760789708,25.160486048605,3661936.0143413,3013.6411612602,2609655.6362427,30.360486048605,0,0
82.586514210882,-111.90513748731,25.164916491649,3661936.0143413,3013.6411612602,2609655.6362427,30.364916491649,0,0
82.586514633589,-111.92266707754,25.169346934693,3661936.0143413,3013.6411612602,2609655.6362427,30.369346934693,0,0
82.586515056296,-111.94019666776,25.173777377738,3661936.0143413,3013.6411612602,2609655.6362427,30.373777377738,0,0
82.586515479002,-111.95772625799,25.178207820782,3661936.0143413,3013.6411612602,2609655.6362427,30.378207820782,0,0
82.586515901709,-111.97525584822,25.182638263826,3661936.0143413,3013.6411612602,2609655.6362427,30.382638263826,0,0
82.586516324416,-111.99278543844,25.187068706871,3661936.0143413,3013.6411612602,2609655.6362427,30.387068706871,0,0
82.586516747122,-112.01031502867,25.191499149915,3661936.0143413,3013.6411612602,2609655.6362427,30.391499149915,0,0
82.586517169829,-112.02784461889,25.195929592959,3661936.0143413,3013.6411612602,2609655.6362427,30.395929592959,0,0
82.586517592536,-112.04537420912,25.200360036004,3661936.0143413,3013.6411612602,2609655.6362427,30.400360036004,0,0
82.586518015242,-112.06290379935,25.204790479048,3661936.0143413,3013.6411612602,2609655.6362427,30.404790479048,0,0
82.586518437949,-112.08043338957,25.209220922092,3661936.0143413,3013.6411612602,2609655.6362427,30.409220922092,0,0
82.586518860656,-112.0979629798,25.213651365137,3661936.0143413,3013.6411612602,2609655.6362427,30.413651365137,0,0
82.586519283362,-112.11549257003,25.218081808181,3661936.0143413,3013.6411612602,2609655.6362427,30.418081808181,0,0
82.586519706069,-112.13302216025,25.222512251225,3661936.0143413,3013.6411612602,2609655.6362427,30.422512251225,0,0
82.586520128776,-112.15055175048,25.226942694269,3661936.0143413,3013.6411612602,2609655.6362427,30.426942694269,0,0
82.586520551482,-112.1680813407,25.231373137314,3661936.0143413,3013.6411612602,2609655.6362427,30.431373137314,0,0
82.586520974189,-112.18561093093,25.235803580358,3661936.0143413,3013.6411612602,2609655.6362427,30.435803580358,0,0
82.586521396896,-112.20314052116,25.240234023402,3661936.0143413,3013.6411612602,2609655.6362427,30.440234023402,0,0
82.586521819602,-112.22067011138,25.244664466447,3661936.0143413,3013.6411612602,2609655.6362427,30.444664466447,0,0
82.586522242309,-112.23819970161,25.249094909491,3661936.0143413,3013.6411612602,2609655.6362427,30.449094909491,0,0
82.586522665016,-112.25572929183,25.253525352535,3661936.0143413,3013.6411612602,2609655.6362427,30.453525352535,0,0
82.586523087722,-112.27325888206,25.25795579558,3661936.0143413,3013.6411612602,2609655.6362427,30.45795579558,0,0
82.586523510429,-112.29078847229,25.262386238624,3661936.0143413,3013.6411612602,2609655.6362427,30.462386238624,0,0
82.586523933136,-112.30831806251,25.266816681668,3661936.0143413,3013.6411612602,2609655.6362427,30.466816681668,0,0
82.586524355842,-112.32584765274,25.271247124712,3661936.0143413,3013.6411612602,2609655.6362427,30.471247124712,0,0
82.586524778549,-112.34337724297,25.275677567757,3661936.0143413,3013.6411612602,2609655.6362427,30.475677567757,0,0
82.586525201256,-112.36090683319,25.280108010801,3661936.0143413,3013.6411612602,2609655.6362427,30.480108010801,0,0
82.586525623962,-112.37843642342,25.284538453845,3661936.0143413,3013.6411612602,2609655.6362427,30.484538453845,0,0
82.586526046669,-112.39596601364,25.28896889689,3661936.0143413,3013.6411612602,2609655.6362427,30.48896889689,0,0
82.586526469376,-112.41349560387,25.293399339934,3661936.0143413,3013.6411612602,2609655.6362427,30.493399339934,0,0
82.586526892082,-112.4310251941,25.297829782978,3661936.0143413,3013.6411612602,2609655.6362427,30.497829782978,0,0
82.586527314789,-112.44855478432,25.302260226023,3661936.0143413,3013.6411612602,2609655.6362427,30.502260226023,0,0
82.586527737496,-112.46608437455,25.306690669067,3661936.0143413,3013.6411612602,2609655.6362427,30.506690669067,0,0
82.586528160202,-112.48361396478,25.311121112111,3661936.0143413,3013.6411612602,2609655.6362427,30.511121112111,0,0
82.586528582909,-112.501143555,25.315551555156,3661936.0143413,3013.6411612602,2609655.6362427,30.515551555156,0,0
82.586529005616,-112.51867314523,25.3199819982,3661936.0143413,3013.6411612602,2609655.6362427,30.5199819982,0,0
82.586529428322,-112.53620273545,25.324412441244,3661936.0143413,3013.6411612602,2609655.6362427,30.524412441244,0,0
82.586529851029,-112.55373232568,25.328842884288,3661936.0143413,3013.6411612602,2609655.6362427,30.528842884288,0,0
82.586530273735,-112.57126191591,25.333273327333,3661936.0143413,3013.6411612602,2609655.6362427,30.533273327333,0,0
82.586530696442,-112.58879150613,25.337703770377,3661936.0143413,3013.6411612602,2609655.6362427,30.537703770377,0,0
82.586531119149,-112.60632109636,25.342134213421,3661936.0143413,3013.6411612602,2609655.6362427,30.542134213421,0,0
82.586531541855,-112.62385068658,25.346564656466,3661936.0143413,3013.6411612602,2609655.6362427,30.546564656466,0,0
82.586531964562,-112.64138027681,25.35099509951,3661936.0143413,3013.6411612602,2609655.6362427,30.55099509951,0,0
82.586532387269,-112.65890986704,25.355425542554,3661936.0143413,3013.6411612602,2609655.6362427,30.555425542554,0,0
82.586532809975,-112.67643945726,25.359855985599,3661936.0143413,3013.6411612602,2609655.6362427,30.559855985599,0,0
82.586533232682,-112.69396904749,25.364286428643,3661936.0143413,3013.6411612602,2609655.6362427,30.564286428643,0,0
82.586533655389,-112.71149863772,25.368716871687,3661936.0143413,3013.6411612602,2609655.6362427,30.568716871687,0,0
82.586534078095,-112.72902822794,25.373147314731,3661936.0143413,3013.6411612602,2609655.6362427,30.573147314731,0,0
82.586534500802,-112.74655781817,25.377577757776,3661936.0143413,3013.6411612602,2609655.6362427,30.577577757776,0,0
82.586534923509,-112.76408740839,25.38200820082,3661936.0143413,3013.6411612602,2609655.6362427,30.58200820082,0,0
82.586535346215,-112.78161699862,25.386438643864,3661936.0143413,3013.6411612602,2609655.6362427,30.586438643864,0,0
82.586535768922,-112.79914658885,25.390869086909,3661936.0143413,3013.6411612602,2609655.6362427,30.590869086909,0,0
82.586536191629,-112.81667617907,25.395299529953,3661936.0143413,3013.6411612602,2609655.6362427,30.595299529953,0,0
82.586536614335,-112.8342057693,25.399729972997,3661936.0143413,3013.6411612602,2609655.6362427,30.599729972997,0,0
82.586537037042,-112.85173535952,25.404160416042,3661936.0143413,3013.6411612602,2609655.6362427,30.604160416042,0,0
82.586537459749,-112.86926494975,25.408590859086,3661936.0143413,3013.6411612602,2609655.6362427,30.608590859086,0,0
82.586537882455,-112.88679453998,25.41302130213,3661936.0143413,3013.6411612602,2609655.6362427,30.61302130213,0,0
82.586538305162,-112.9043241302,25.417451745175,3661936.0143413,3013.6411612602,2609655.6362427,30.617451745175,0,0
82.586538727869,-112.92185372043,25.421882188219,3661936.0143413,3013.6411612602,2609655.6362427,30.621882188219,0,0
82.586539150575,-112.93938331066,25.426312631263,3661936.0143413,3013.6411612602,2609655.6362427,30.626312631263,0,0
82.586539573282,-112.95691290088,25.430743074307,3661936.0143413,3013.6411612602,2609655.6362427,30.630743074307,0,0
82.586539995989,-112.97444249111,25.435173517352,3661936.0143413,3013.6411612602,2609655.6362427,30.635173517352,0,0
82.586540418695,-112.99197208133,25.439603960396,3661936.0143413,3013.6411612602,2609655.6362427,30.639603960396,0,0
82.586540841402,-113.00950167156,25.44403440344,3661936.0143413,3013.6411612602,2609655.6362427,30.64403440344,0,0
82.586541264109,-113.02703126179,25.448464846485,3661936.0143413,3013.6411612602,2609655.6362427,30.648464846485,0,0
82.586541686815,-113.04456085201,25.452895289529,3661936.0143413,3013.6411612602,2609655.6362427,30.652895289529,0,0
82.586542109522,-113.06209044224,25.457325732573,3661936.0143413,3013.6411612602,2609655.6362427,30.657325732573,0,0
82.586542532229,-113.07962003247,25.461756175618,3661936.0143413,3013.6411612602,2609655.6362427,30.661756175618,0,0
82.586542954935,-113.09714962269,25.466186618662,3661936.0143413,3013.6411612602,2609655.6362427,30.666186618662,0,0
82.586543377642,-113.11467921292,25.470617061706,3661936.0143413,3013.6411612602,2609655.6362427,30.670617061706,0,0
82.586543800349,-113.13220880314,25.47504750475,3661936.0143413,3013.6411612602,2609655.6362427,30.67504750475,0,0
82.586544223055,-113.14973839337,25.479477947795,3661936.0143413,3013.6411612602,2609655.6362427,30.679477947795,0,0
82.586544645762,-113.1672679836,25.483908390839,3661936.0143413,3013.6411612602,2609655.6362427,30.683908390839,0,0
82.586545068469,-113.18479757382,25.488338833883,3661936.0143413,3013.6411612602,2609655.6362427,30.688338833883,0,0
82.586545491175,-113.20232716405,25.492769276928,3661936.0143413,3013.6411612602,2609655.6362427,30.692769276928,0,0
82.586545913882,-113.21985675427,25.497199719972,3661936.0143413,3013.6411612602,2609655.6362427,30.697199719972,0,0
82.586546336589,-113.2373863445,25.501630163016,3661936.0143413,3013.6411612602,2609655.6362427,30.701630163016,0,0
82.586546759295,-113.25491593473,25.506060606061,3661936.0143413,3013.6411612602,2609655.6362427,30.706060606061,0,0
82.586547182002,-113.27244552495,25.510491049105,3661936.0143413,3013.6411612602,2609655.6362427,30.710491049105,0,0
82.586547604709,-113.28997511518,25.514921492149,3661936.0143413,3013.6411612602,2609655.6362427,30.714921492149,0,0
82.586548027415,-113.30750470541,25.519351935194,3661936.0143413,3013.6411612602,2609655.6362427,30.719351935194,0,0
82.586548450122,-113.32503429563,25.523782378238,3661936.0143413,3013.6411612602,2609655.6362427,30.723782378238,0,0
82.586548872829,-113.34256388586,25.528212821282,3661936.0143413,3013.6411612602,2609655.6362427,30.728212821282,0,0
82.586549295535,-113.36009347608,25.532643264326,3661936.0143413,3013.6411612602,2609655.6362427,30.732643264326,0,0
82.586549718242,-113.37762306631,25.537073707371,3661936.0143413,3013.6411612602,2609655.6362427,30.737073707371,0,0
82.586550140949,-113.39515265654,25.541504150415,3661936.0143413,3013.6411612602,2609655.6362427,30.741504150415,0,0
82.586550563655,-113.41268224676,25.545934593459,3661936.0143413,3013.6411612602,2609655.6362427,30.745934593459,0,0
82.586550986362,-113.43021183699,25.550365036504,3661936.0143413,3013.6411612602,2609655.6362427,30.750365036504,0,0
82.586551409069,-113.44774142722,25.554795479548,3661936.0143413,3013.6411612602,2609655.6362427,30.754795479548,0,0
82.586551831775,-113.46527101744,25.559225922592,3661936.0143413,3013.6411612602,2609655.6362427,30.759225922592,0,0
82.586552254482,-113.48280060767,25.563656365637,3661936.0143413,3013.6411612602,2609655.6362427,30.763656365637,0,0
82.586552677189,-113.50033019789,25.568086808681,3661936.0143413,3013.6411612602,2609655.6362427,30.768086808681,0,0
82.586553099895,-113.51785978812,25.572517251725,3661936.0143413,3013.6411612602,2609655.6362427,30.772517251725,0,0
82.586553522602,-113.53538937835,25.576947694769,3661936.0143413,3013.6411612602,2609655.6362427,30.776947694769,0,0
82.586553945309,-113.55291896857,25.581378137814,3661936.0143413,3013.6411612602,2609655.6362427,30.781378137814,0,0
82.586554368015,-113.5704485588,25.585808580858,3661936.0143413,3013.6411612602,2609655.6362427,30.785808580858,0,0
82.586554790722,-113.58797814902,25.590239023902,3661936.0143413,3013.6411612602,2609655.6362427,30.790239023902,0,0
82.586555213429,-113.60550773925,25.594669466947,3661936.0143413,3013.6411612602,2609655.6362427,30.794669466947,0,0
82.586555636135,-113.62303732948,25.599099909991,3661936.0143413,3013.6411612602,2609655.6362427,30.799099909991,0,0
82.586556058842,-113.6405669197,25.603530353035,3661936.0143413,3013.6411612602,2609655.6362427,30.803530353035,0,0
82.586556481549,-113.65809650993,25.60796079608,3661936.0143413,3013.6411612602,2609655.6362427,30.80796079608,0,0
82.586556904255,-113.67562610016,25.612391239124,3661936.0143413,3013.6411612602,2609655.6362427,30.812391239124,0,0
82.586557326962,-113.69315569038,25.616821682168,3661936.0143413,3013.6411612602,2609655.6362427,30.816821682168,0,0
82.586557749669,-113.71068528061,25.621252125213,3661936.0143413,3013.6411612602,2609655.6362427,30.821252125213,0,0
82.586558172375,-113.72821487083,25.625682568257,3661936.0143413,3013.6411612602,2609655.6362427,30.825682568257,0,0
82.586558595082,-113.74574446106,25.630113011301,3661936.0143413,3013.6411612602,2609655.6362427,30.830113011301,0,0
82.586559017789,-113.76327405129,25.634543454345,3661936.0143413,3013.6411612602,2609655.6362427,30.834543454345,0,0
82.586559440495,-113.78080364151,25.63897389739,3661936.0143413,3013.6411612602,2609655.6362427,30.83897389739,0,0
82.586559863202,-113.79833323174,25.643404340434,3661936.0143413,3013.6411612602,2609655.6362427,30.843404340434,0,0
82.586560285909,-113.81586282197,25.647834783478,3661936.0143413,3013.6411612602,2609655.6362427,30.847834783478,0,0
82.586560708615,-113.83339241219,25.652265226523,3661936.0143413,3013.6411612602,2609655.6362427,30.852265226523,0,0
82.586561131322,-113.85092200242,25.656695669567,3661936.0143413,3013.6411612602,2609655.6362427,30.856695669567,0,0
82.586561554029,-113.86845159264,25.661126112611,3661936.0143413,3013.6411612602,2609655.6362427,30.861126112611,0,0
82.586561976735,-113.88598118287,25.665556555656,3661936.0143413,3013.6411612602,2609655.6362427,30.865556555656,0,0
82.586562399442,-113.9035107731,25.6699869987,3661936.0143413,3013.6411612602,2609655.6362427,30.8699869987,0,0
82.586562822149,-113.92104036332,25.674417441744,3661936.0143413,3013.6411612602,2609655.6362427,30.874417441744,0,0
82.586563244855,-113.93856995355,25.678847884788,3661936.0143413,3013.6411612602,2609655.6362427,30.878847884788,0,0
82.586563667562,-113.95609954377,25.683278327833,3661936.0143413,3013.6411612602,2609655.6362427,30.883278327833,0,0
82.586564090269,-113.973629134,25.687708770877,3661936.0143413,3013.6411612602,2609655.6362427,30.887708770877,0,0
82.586564512975,-113.99115872423,25.692139213921,3661936.0143413,3013.6411612602,2609655.6362427,30.892139213921,0,0
82.586564935682,-114.00868831445,25.696569656966,3661936.0143413,3013.6411612602,2609655.6362427,30.896569656966,0,0
82.586565358389,-114.02621790468,25.70100010001,3661936.0143413,3013.6411612602,2609655.6362427,30.90100010001,0,0
82.586565781095,-114.04374749491,25.705430543054,3661936.0143413,3013.6411612602,2609655.6362427,30.905430543054,0,0
82.586566203802,-114.06127708513,25.709860986099,3661936.0143413,3013.6411612602,2609655.6362427,30.909860986099,0,0
82.586566626509,-114.07880667536,25.714291429143,3661936.0143413,3013.6411612602,2609655.6362427,30.914291429143,0,0
82.586567049215,-114.09633626558,25.718721872187,3661936.0143413,3013.6411612602,2609655.6362427,30.918721872187,0,0
82.586567471922,-114.11386585581,25.723152315232,3661936.0143413,3013.6411612602,2609655.6362427,30.923152315232,0,0
82.586567894629,-114.13139544604,25.727582758276,3661936.0143413,3013.6411612602,2609655.6362427,30.927582758276,0,0
82.586568317335,-114.14892503626,25.73201320132,3661936.0143413,3013.6411612602,2609655.6362427,30.93201320132,0,0
82.586568740042,-114.16645462649,25.736443644364,3661936.0143413,3013.6411612602,2609655.6362427,30.936443644364,0,0
82.586569162749,-114.18398421672,25.740874087409,3661936.0143413,3013.6411612602,2609655.6362427,30.940874087409,0,0
82.586569585455,-114.20151380694,25.745304530453,3661936.0143413,3013.6411612602,2609655.6362427,30.945304530453,0,0
82.586570008162,-114.21904339717,25.749734973497,3661936.0143413,3013.6411612602,2609655.6362427,30.949734973497,0,0
82.586570430869,-114.23657298739,25.754165416542,3661936.0143413,3013.6411612602,2609655.6362427,30.954165416542,0,0
82.586570853575,-114.25410257762,25.758595859586,3661936.0143413,3013.6411612602,2609655.6362427,30.958595859586,0,0
82.586571276282,-114.27163216785,25.76302630263,3661936.0143413,3013.6411612602,2609655.6362427,30.96302630263,0,0
82.586571698989,-114.28916175807,25.767456745675,3661936.0143413,3013.6411612602,2609655.6362427,30.967456745675,0,0
82.586572121695,-114.3066913483,25.771887188719,3661936.0143413,3013.6411612602,2609655.6362427,30.971887188719,0,0
82.586572544402,-114.32422093852,25.776317631763,3661936.0143413,3013.6411612602,2609655.6362427,30.976317631763,0,0
82.586572967109,-114.34175052875,25.780748074807,3661936.0143413,3013.6411612602,2609655.6362427,30.980748074807,0,0
82.586573389815,-114.35928011898,25.785178517852,3661936.0143413,3013.6411612602,2609655.6362427,30.985178517852,0,0
82.586573812522,-114.3768097092,25.789608960896,3661936.0143413,3013.6411612602,2609655.6362427,30.989608960896,0,0
82.586574235229,-114.39433929943,25.79403940394,3661936.0143413,3013.6411612602,2609655.6362427,30.99403940394,0,0
82.586574657935,-114.41186888966,25.798469846985,3661936.0143413,3013.6411612602,2609655.6362427,30.998469846985,0,0
82.586575080642,-114.42939847988,25.802900290029,3661936.0143413,3013.6411612602,2609655.6362427,31.002900290029,0,0
82.586575503349,-114.44692807011,25.807330733073,3661936.0143413,3013.6411612602,2609655.6362427,31.007330733073,0,0
82.586575926055,-114.46445766033,25.811761176118,3661936.0143413,3013.6411612602,2609655.6362427,31.011761176118,0,0
82.586576348762,-114.48198725056,25.816191619162,3661936.0143413,3013.6411612602,2609655.6362427,31.016191619162,0,0
82.586576771469,-114.49951684079,25.820622062206,3661936.0143413,3013.6411612602,2609655.6362427,31.020622062206,0,0
82.586577194175,-114.51704643101,25.825052505251,3661936.0143413,3013.6411612602,2609655.6362427,31.025052505251,0,0
82.586577616882,-114.53457602124,25.829482948295,3661936.0143413,3013.6411612602,2609655.6362427,31.029482948295,0,0
82.586578039589,-114.55210561146,25.833913391339,3661936.0143413,3013.6411612602,2609655.6362427,31.033913391339,0,0
82.586578462295,-114.56963520169,25.838343834383,3661936.0143413,3013.6411612602,2609655.6362427,31.038343834383,0,0
82.586578885002,-114.58716479192,25.842774277428,3661936.0143413,3013.6411612602,2609655.6362427,31.042774277428,0,0
82.586579307709,-114.60469438214,25.847204720472,3661936.0143413,3013.6411612602,2609655.6362427,31.047204720472,0,0
82.586579730415,-114.62222397237,25.851635163516,3661936.0143413,3013.6411612602,2609655.6362427,31.051635163516,0,0
82.586580153122,-114.6397535626,25.856065606561,3661936.0143413,3013.6411612602,2609655.6362427,31.056065606561,0,0
82.586580575829,-114.65728315282,25.860496049605,3661936.0143413,3013.6411612602,2609655.6362427,31.060496049605,0,0
82.586580998535,-114.67481274305,25.864926492649,3661936.0143413,3013.6411612602,2609655.6362427,31.064926492649,0,0
82.586581421242,-114.69234233327,25.869356935694,3661936.0143413,3013.6411612602,2609655.6362427,31.069356935694,0,0
82.586581843949,-114.7098719235,25.873787378738,3661936.0143413,3013.6411612602,2609655.6362427,31.073787378738,0,0
82.586582266655,-114.72740151373,25.878217821782,3661936.0143413,3013.6411612602,2609655.6362427,31.078217821782,0,0
82.586582689362,-114.74493110395,25.882648264826,3661936.0143413,3013.6411612602,2609655.6362427,31.082648264826,0,0
82.586583112069,-114.76246069418,25.887078707871,3661936.0143413,3013.6411612602,2609655.6362427,31.087078707871,0,0
82.586583534775,-114.77999028441,25.891509150915,3661936.0143413,3013.6411612602,2609655.6362427,31.091509150915,0,0
82.586583957482,-114.79751987463,25.895939593959,3661936.0143413,3013.6411612602,2609655.6362427,31.095939593959,0,0
82.586584380189,-114.81504946486,25.900370037004,3661936.0143413,3013.6411612602,2609655.6362427,31.100370037004,0,0
82.586584802895,-114.83257905508,25.904800480048,3661936.0143413,3013.6411612602,2609655.6362427,31.104800480048,0,0
82.586585225602,-114.85010864531,25.909230923092,3661936.0143413,3013.6411612602,2609655.6362427,31.109230923092,0,0
82.586585648309,-114.86763823554,25.913661366137,3661936.0143413,3013.6411612602,2609655.6362427,31.113661366137,0,0
82.586586071015,-114.88516782576,25.918091809181,3661936.0143413,3013.6411612602,2609655.6362427,31.118091809181,0,0
82.586586493722,-114.90269741599,25.922522252225,3661936.0143413,3013.6411612602,2609655.6362427,31.122522252225,0,0
82.586586916429,-114.92022700621,25.92695269527,3661936.0143413,3013.6411612602,2609655.6362427,31.12695269527,0,0
82.586587339135,-114.93775659644,25.931383138314,3661936.0143413,3013.6411612602,2609655.6362427,31.131383138314,0,0
82.586587761842,-114.95528618667,25.935813581358,3661936.0143413,3013.6411612602,2609655.6362427,31.135813581358,0,0
82.586588184549,-114.97281577689,25.940244024402,3661936.0143413,3013.6411612602,2609655.6362427,31.140244024402,0,0
82.586588607255,-114.99034536712,25.944674467447,3661936.0143413,3013.6411612602,2609655.6362427,31.144674467447,0,0
82.586589029962,-115.00787495735,25.949104910491,3661936.0143413,3013.6411612602,2609655.6362427,31.149104910491,0,0
82.586589452669,-115.02540454757,25.953535353535,3661936.0143413,3013.6411612602,2609655.6362427,31.153535353535,0,0
82.586589875375,-115.0429341378,25.95796579658,3661936.0143413,3013.6411612602,2609655.6362427,31.15796579658,0,0
82.586590298082,-115.06046372802,25.962396239624,3661936.0143413,3013.6411612602,2609655.6362427,31.162396239624,0,0
82.586590720789,-115.07799331825,25.966826682668,3661936.0143413,3013.6411612602,2609655.6362427,31.166826682668,0,0
82.586591143495,-115.09552290848,25.971257125713,3661936.0143413,3013.6411612602,2609655.6362427,31.171257125713,0,0
82.586591566202,-115.1130524987,25.975687568757,3661936.0143413,3013.6411612602,2609655.6362427,31.175687568757,0,0
82.586591988909,-115.13058208893,25.980118011801,3661936.0143413,3013.6411612602,2609655.6362427,31.180118011801,0,0
82.586592411615,-115.14811167916,25.984548454845,3661936.0143413,3013.6411612602,2609655.6362427,31.184548454845,0,0
82.586592834322,-115.16564126938,25.98897889789,3661936.0143413,3013.6411612602,2609655.6362427,31.18897889789,0,0
82.586593257029,-115.18317085961,25.993409340934,3661936.0143413,3013.6411612602,2609655.6362427,31.193409340934,0,0
82.586593679735,-115.20070044983,25.997839783978,3661936.0143413,3013.6411612602,2609655.6362427,31.197839783978,0,0
82.586594102442,-115.21823004006,26.002270227023,3661936.0143413,3013.6411612602,2609655.6362427,31.202270227023,0,0
82.586594525149,-115.23575963029,26.006700670067,3661936.0143413,3013.6411612602,2609655.6362427,31.206700670067,0,0
82.586594947855,-115.25328922051,26.011131113111,3661936.0143413,3013.6411612602,2609655.6362427,31.211131113111,0,0
82.586595370562,-115.27081881074,26.015561556156,3661936.0143413,3013.6411612602,2609655.6362427,31.215561556156,0,0
82.586595793269,-115.28834840096,26.0199919992,3661936.0143413,3013.6411612602,2609655.6362427,31.2199919992,0,0
82.586596215975,-115.30587799119,26.024422442244,3661936.0143413,3013.6411612602,2609655.6362427,31.224422442244,0,0
82.586596639366,-115.32340758105,26.028852885289,3674329.6447662,3093.3425040302,2610482.0767864,31.228852885289,0,0
82.586597063041,-115.34093717077,26.033283328333,3674329.6447662,3093.3425040302,2610482.0767864,31.233283328333,0,0
82.586597486716,-115.35846676048,26.037713771377,3674329.6447662,3093.3425040302,2610482.0767864,31.237713771377,0,0
82.58659791039,-115.37599635019,26.042144214421,3674329.6447662,3093.3425040302,2610482.0767864,31.242144214421,0,0
82.586598334065,-115.3935259399,26.046574657466,3674329.6447662,3093.3425040302,2610482.0767864,31.246574657466,0,0
82.586598757739,-115.41105552961,26.05100510051,3674329.6447662,3093.3425040302,2610482.0767864,31.25100510051,0,0
82.586599181414,-115.42858511933,26.055435543554,3674329.6447662,3093.3425040302,2610482.0767864,31.255435543554,0,0
82.586599605089,-115.44611470904,26.059865986599,3674329.6447662,3093.3425040302,2610482.0767864,31.259865986599,0,0
82.586600028763,-115.46364429875,26.064296429643,3674329.6447662,3093.3425040302,2610482.0767864,31.264296429643,0,0
82.586600452438,-115.48117388846,26.068726872687,3674329.6447662,3093.3425040302,2610482.0767864,31.268726872687,0,0
82.586600876112,-115.49870347818,26.073157315732,3674329.6447662,3093.3425040302,2610482.0767864,31.273157315732,0,0
82.586601299787,-115.51623306789,26.077587758776,3674329.6447662,3093.3425040302,2610482.0767864,31.277587758776,0,0
82.586601723462,-115.5337626576,26.08201820182,3674329.6447662,3093.3425040302,2610482.0767864,31.28201820182,0,0
82.586602147136,-115.55129224731,26.086448644864,3674329.6447662,3093.3425040302,2610482.0767864,31.286448644864,0,0
82.586602570811,-115.56882183702,26.090879087909,3674329.6447662,3093.3425040302,2610482.0767864,31.290879087909,0,0
82.586602994486,-115.58635142674,26.095309530953,3674329.6447662,3093.3425040302,2610482.0767864,31.295309530953,0,0
82.58660341816,-115.60388101645,26.099739973997,3674329.6447662,3093.3425040302,2610482.0767864,31.299739973997,0,0
82.586603841835,-115.62141060616,26.104170417042,3674329.6447662,3093.3425040302,2610482.0767864,31.304170417042,0,0
82.586604265509,-115.63894019587,26.108600860086,3674329.6447662,3093.3425040302,2610482.0767864,31.308600860086,0,0
82.586604689184,-115.65646978558,26.11303130313,3674329.6447662,3093.3425040302,2610482.0767864,31.31303130313,0,0
82.586605112859,-115.6739993753,26.117461746175,3674329.6447662,3093.3425040302,2610482.0767864,31.317461746175,0,0
82.586605536533,-115.69152896501,26.121892189219,3674329.6447662,3093.3425040302,2610482.0767864,31.321892189219,0,0
82.586605960208,-115.70905855472,26.126322632263,3674329.6447662,3093.3425040302,2610482.0767864,31.326322632263,0,0
82.586606383882,-115.72658814443,26.130753075308,3674329.6447662,3093.3425040302,2610482.0767864,31.330753075308,0,0
82.586606807557,-115.74411773415,26.135183518352,3674329.6447662,3093.3425040302,2610482.0767864,31.335183518352,0,0
82.586607231232,-115.76164732386,26.139613961396,3674329.6447662,3093.3425040302,2610482.0767864,31.339613961396,0,0
82.586607654906,-115.77917691357,26.14404440444,3674329.6447662,3093.3425040302,2610482.0767864,31.34404440444,0,0
82.586608078581,-115.79670650328,26.148474847485,3674329.6447662,3093.3425040302,2610482.0767864,31.348474847485,0,0
82.586608502255,-115.81423609299,26.152905290529,3674329.6447662,3093.3425040302,2610482.0767864,31.352905290529,0,0
82.58660892593,-115.83176568271,26.157335733573,3674329.6447662,3093.3425040302,2610482.0767864,31.357335733573,0,0
82.586609349605,-115.84929527242,26.161766176618,3674329.6447662,3093.3425040302,2610482.0767864,31.361766176618,0,0
82.586609773279,-115.86682486213,26.166196619662,3674329.6447662,3093.3425040302,2610482.0767864,31.366196619662,0,0
82.586610196954,-115.88435445184,26.170627062706,3674329.6447662,3093.3425040302,2610482.0767864,31.370627062706,0,0
82.586610620629,-115.90188404155,26.175057505751,3674329.6447662,3093.3425040302,2610482.0767864,31.375057505751,0,0
82.586611044303,-115.91941363127,26.179487948795,3674329.6447662,3093.3425040302,2610482.0767864,31.379487948795,0,0
82.586611467978,-115.93694322098,26.183918391839,3674329.6447662,3093.3425040302,2610482.0767864,31.383918391839,0,0
82.586611891652,-115.95447281069,26.188348834883,3674329.6447662,3093.3425040302,2610482.0767864,31.388348834883,0,0
82.586612315327,-115.9720024004,26.192779277928,3674329.6447662,3093.3425040302,2610482.0767864,31.392779277928,0,0
82.586612739002,-115.98953199012,26.197209720972,3674329.6447662,3093.3425040302,2610482.0767864,31.397209720972,0,0
82.586613162676,-116.00706157983,26.201640164016,3674329.6447662,3093.3425040302,2610482.0767864,31.401640164016,0,0
82.586613586351,-116.02459116954,26.206070607061,3674329.6447662,3093.3425040302,2610482.0767864,31.406070607061,0,0
82.586614010025,-116.04212075925,26.210501050105,3674329.6447662,3093.3425040302,2610482.0767864,31.410501050105,0,0
82.5866144337,-116.05965034896,26.214931493149,3674329.6447662,3093.3425040302,2610482.0767864,31.414931493149,0,0
82.586614857375,-116.07717993868,26.219361936194,3674329.6447662,3093.3425040302,2610482.0767864,31.419361936194,0,0
82.586615281049,-116.09470952839,26.223792379238,3674329.6447662,3093.3425040302,2610482.0767864,31.423792379238,0,0
82.586615704724,-116.1122391181,26.228222822282,3674329.6447662,3093.3425040302,2610482.0767864,31.428222822282,0,0
82.586616128398,-116.12976870781,26.232653265327,3674329.6447662,3093.3425040302,2610482.0767864,31.432653265327,0,0
82.586616552073,-116.14729829752,26.237083708371,3674329.6447662,3093.3425040302,2610482.0767864,31.437083708371,0,0
82.586616975748,-116.16482788724,26.241514151415,3674329.6447662,3093.3425040302,2610482.0767864,31.441514151415,0,0
82.586617399422,-116.18235747695,26.245944594459,3674329.6447662,3093.3425040302,2610482.0767864,31.445944594459,0,0
82.586617823034,-116.1998870668,26.250375037504,3668304.2576294,-550.25097481128,2601157.5138648,31.450375037504,0,0
82.586618246475,-116.21741665702,26.254805480548,3668304.2576294,-550.25097481128,2601157.5138648,31.454805480548,0,0
82.586618669917,-116.23494624724,26.259235923592,3668304.2576294,-550.25097481128,2601157.5138648,31.459235923592,0,0
82.586619093359,-116.25247583746,26.263666366637,3668304.2576294,-550.25097481128,2601157.5138648,31.463666366637,0,0
82.5866195168,-116.27000542768,26.268096809681,3668304.2576294,-550.25097481128,2601157.5138648,31.468096809681,0,0
82.586619940242,-116.2875350179,26.272527252725,3668304.2576294,-550.25097481128,2601157.5138648,31.472527252725,0,0
82.586620363683,-116.30506460812,26.27695769577,3668304.2576294,-550.25097481128,2601157.5138648,31.47695769577,0,0
82.586620787125,-116.32259419834,26.281388138814,3668304.2576294,-550.25097481128,2601157.5138648,31.481388138814,0,0
82.586621210567,-116.34012378856,26.285818581858,3668304.2576294,-550.25097481128,2601157.5138648,31.485818581858,0,0
82.586621634008,-116.35765337878,26.290249024902,3668304.2576294,-550.25097481128,2601157.5138648,31.490249024902,0,0
82.58662205745,-116.375182969,26.294679467947,3668304.2576294,-550.25097481128,2601157.5138648,31.494679467947,0,0
82.586622480891,-116.39271255922,26.299109910991,3668304.2576294,-550.25097481128,2601157.5138648,31.499109910991,0,0
82.586622904333,-116.41024214944,26.303540354035,3668304.2576294,-550.25097481128,2601157.5138648,31.503540354035,0,0
82.586623327775,-116.42777173966,26.30797079708,3668304.2576294,-550.25097481128,2601157.5138648,31.50797079708,0,0
82.586623751216,-116.44530132988,26.312401240124,3668304.2576294,-550.25097481128,2601157.5138648,31.512401240124,0,0
82.586624174658,-116.4628309201,26.316831683168,3668304.2576294,-550.25097481128,2601157.5138648,31.516831683168,0,0
82.586624598099,-116.48036051032,26.321262126213,3668304.2576294,-550.25097481128,2601157.5138648,31.521262126213,0,0
82.586625021541,-116.49789010054,26.325692569257,3668304.2576294,-550.25097481128,2601157.5138648,31.525692569257,0,0
82.586625444983,-116.51541969076,26.330123012301,3668304.2576294,-550.25097481128,2601157.5138648,31.530123012301,0,0
82.586625868424,-116.53294928098,26.334553455346,3668304.2576294,-550.25097481128,2601157.5138648,31.534553455346,0,0
82.586626291866,-116.5504788712,26.33898389839,3668304.2576294,-550.25097481128,2601157.5138648,31.53898389839,0,0
82.586626715307,-116.56800846142,26.343414341434,3668304.2576294,-550.25097481128,2601157.5138648,31.543414341434,0,0
82.586627138749,-116.58553805164,26.347844784478,3668304.2576294,-550.25097481128,2601157.5138648,31.547844784478,0,0
82.586627562191,-116.60306764186,26.352275227523,3668304.2576294,-550.25097481128,2601157.5138648,31.552275227523,0,0
82.586627985632,-116.62059723208,26.356705670567,3668304.2576294,-550.25097481128,2601157.5138648,31.556705670567,0,0
82.586628409074,-116.6381268223,26.361136113611,3668304.2576294,-550.25097481128,2601157.5138648,31.561136113611,0,0
82.586628832515,-116.65565641252,26.365566556656,3668304.2576294,-550.25097481128,2601157.5138648,31.565566556656,0,0
82.586629255957,-116.67318600274,26.3699969997,3668304.2576294,-550.25097481128,2601157.5138648,31.5699969997,0,0
82.586629679399,-116.69071559297,26.374427442744,3668304.2576294,-550.25097481128,2601157.5138648,31.574427442744,0,0
82.58663010284,-116.70824518319,26.378857885789,3668304.2576294,-550.25097481128,2601157.5138648,31.578857885789,0,0
82.586630526282,-116.72577477341,26.383288328833,3668304.2576294,-550.25097481128,2601157.5138648,31.583288328833,0,0
82.586630949723,-116.74330436363,26.387718771877,3668304.2576294,-550.25097481128,2601157.5138648,31.587718771877,0,0
82.586631373165,-116.76083395385,26.392149214921,3668304.2576294,-550.25097481128,2601157.5138648,31.592149214921,0,0
82.586631796607,-116.77836354407,26.396579657966,3668304.2576294,-550.25097481128,2601157.5138648,31.596579657966,0,0
82.586632220048,-116.79589313429,26.40101010101,3668304.2576294,-550.25097481128,2601157.5138648,31.60101010101,0,0
82.58663264349,-116.81342272451,26.405440544054,3668304.2576294,-550.25097481128,2601157.5138648,31.605440544054,0,0
82.586633066931,-116.83095231473,26.409870987099,3668304.2576294,-550.25097481128,2601157.5138648,31.609870987099,0,0
82.586633490373,-116.84848190495,26.414301430143,3668304.2576294,-550.25097481128,2601157.5138648,31.614301430143,0,0
82.586633913815,-116.86601149517,26.418731873187,3668304.2576294,-550.25097481128,2601157.5138648,31.618731873187,0,0
82.586634337256,-116.88354108539,26.423162316232,3668304.2576294,-550.25097481128,2601157.5138648,31.623162316232,0,0
82.586634760698,-116.90107067561,26.427592759276,3668304.2576294,-550.25097481128,2601157.5138648,31.627592759276,0,0
82.586635184139,-116.91860026583,26.43202320232,3668304.2576294,-550.25097481128,2601157.5138648,31.63202320232,0,0
82.586635607581,-116.93612985605,26.436453645365,3668304.2576294,-550.25097481128,2601157.5138648,31.636453645365,0,0
82.586636031023,-116.95365944627,26.440884088409,3668304.2576294,-550.25097481128,2601157.5138648,31.640884088409,0,0
82.586636454464,-116.97118903649,26.445314531453,3668304.2576294,-550.25097481128,2601157.5138648,31.645314531453,0,0
82.586636877906,-116.98871862671,26.449744974497,3668304.2576294,-550.25097481128,2601157.5138648,31.649744974497,0,0
82.586637301347,-117.00624821693,26.454175417542,3668304.2576294,-550.25097481128,2601157.5138648,31.654175417542,0,0
82.586637724789,-117.02377780715,26.458605860586,3668304.2576294,-550.25097481128,2601157.5138648,31.658605860586,0,0
82.586638148231,-117.04130739737,26.46303630363,3668304.2576294,-550.25097481128,2601157.5138648,31.66303630363,0,0
82.586638571672,-117.05883698759,26.467466746675,3668304.2576294,-550.25097481128,2601157.5138648,31.667466746675,0,0
82.586638995114,-117.07636657781,26.471897189719,3668304.2576294,-550.25097481128,2601157.5138648,31.671897189719,0,0
82.586639418555,-117.09389616803,26.476327632763,3668304.2576294,-550.25097481128,2601157.5138648,31.676327632763,0,0
82.586639841997,-117.11142575825,26.480758075808,3668304.2576294,-550.25097481128,2601157.5138648,31.680758075808,0,0
82.586640265439,-117.12895534847,26.485188518852,3668304.2576294,-550.25097481128,2601157.5138648,31.685188518852,0,0
82.58664068888,-117.14648493869,26.489618961896,3668304.2576294,-550.25097481128,2601157.5138648,31.689618961896,0,0
82.586641112322,-117.16401452891,26.49404940494,3668304.2576294,-550.25097481128,2601157.5138648,31.69404940494,0,0
82.586641535763,-117.18154411913,26.498479847985,3668304.2576294,-550.25097481128,2601157.5138648,31.698479847985,0,0
82.586641959205,-117.19907370935,26.502910291029,3668304.2576294,-550.25097481128,2601157.5138648,31.702910291029,0,0
82.586642382647,-117.21660329957,26.507340734073,3668304.2576294,-550.25097481128,2601157.5138648,31.707340734073,0,0
82.586642806088,-117.23413288979,26.511771177118,3668304.2576294,-550.25097481128,2601157.5138648,31.711771177118,0,0
82.58664322953,-117.25166248001,26.516201620162,3668304.2576294,-550.25097481128,2601157.5138648,31.716201620162,0,0
82.586643652971,-117.26919207023,26.520632063206,3668304.2576294,-550.25097481128,2601157.5138648,31.720632063206,0,0
82.586644076413,-117.28672166045,26.525062506251,3668304.2576294,-550.25097481128,2601157.5138648,31.725062506251,0,0
82.586644499855,-117.30425125067,26.529492949295,3668304.2576294,-550.25097481128,2601157.5138648,31.729492949295,0,0
82.586644923296,-117.32178084089,26.533923392339,3668304.2576294,-550.25097481128,2601157.5138648,31.733923392339,0,0
82.586645346738,-117.33931043111,26.538353835384,3668304.2576294,-550.25097481128,2601157.5138648,31.738353835384,0,0
82.586645770179,-117.35684002133,26.542784278428,3668304.2576294,-550.25097481128,2601157.5138648,31.742784278428,0,0
82.586646193621,-117.37436961155,26.547214721472,3668304.2576294,-550.25097481128,2601157.5138648,31.747214721472,0,0
82.586646617063,-117.39189920177,26.551645164516,3668304.2576294,-550.25097481128,2601157.5138648,31.751645164516,0,0
82.586647040504,-117.409428792,26.556075607561,3668304.2576294,-550.25097481128,2601157.5138648,31.756075607561,0,0
82.586647463946,-117.42695838222,26.560506050605,3668304.2576294,-550.25097481128,2601157.5138648,31.760506050605,0,0
82.586647887387,-117.44448797244,26.564936493649,3668304.2576294,-550.25097481128,2601157.5138648,31.764936493649,0,0
82.586648310829,-117.46201756266,26.569366936694,3668304.2576294,-550.25097481128,2601157.5138648,31.769366936694,0,0
82.586648734271,-117.47954715288,26.573797379738,3668304.2576294,-550.25097481128,2601157.5138648,31.773797379738,0,0
82.586649157712,-117.4970767431,26.578227822782,3668304.2576294,-550.25097481128,2601157.5138648,31.778227822782,0,0
82.586649581154,-117.51460633332,26.582658265827,3668304.2576294,-550.25097481128,2601157.5138648,31.782658265827,0,0
82.586650004595,-117.53213592354,26.587088708871,3668304.2576294,-550.25097481128,2601157.5138648,31.787088708871,0,0
82.586650428037,-117.54966551376,26.591519151915,3668304.2576294,-550.25097481128,2601157.5138648,31.791519151915,0,0
82.586650851479,-117.56719510398,26.595949594959,3668304.2576294,-550.25097481128,2601157.5138648,31.795949594959,0,0
82.58665127492,-117.5847246942,26.600380038004,3668304.2576294,-550.25097481128,2601157.5138648,31.800380038004,0,0
82.586651698362,-117.60225428442,26.604810481048,3668304.2576294,-550.25097481128,2601157.5138648,31.804810481048,0,0
82.586652121803,-117.61978387464,26.609240924092,3668304.2576294,-550.25097481128,2601157.5138648,31.809240924092,0,0
82.586652545245,-117.63731346486,26.613671367137,3668304.2576294,-550.25097481128,2601157.5138648,31.813671367137,0,0
82.586652968687,-117.65484305508,26.618101810181,3668304.2576294,-550.25097481128,2601157.5138648,31.818101810181,0,0
82.586653392128,-117.6723726453,26.622532253225,3668304.2576294,-550.25097481128,2601157.5138648,31.822532253225,0,0
82.58665381557,-117.68990223552,26.62696269627,3668304.2576294,-550.25097481128,2601157.5138648,31.82696269627,0,0
82.586654239011,-117.70743182574,26.631393139314,3668304.2576294,-550.25097481128,2601157.5138648,31.831393139314,0,0
82.586654662453,-117.72496141596,26.635823582358,3668304.2576294,-550.25097481128,2601157.5138648,31.835823582358,0,0
82.586655085895,-117.74249100618,26.640254025403,3668304.2576294,-550.25097481128,2601157.5138648,31.840254025403,0,0
82.586655509336,-117.7600205964,26.644684468447,3668304.2576294,-550.25097481128,2601157.5138648,31.844684468447,0,0
82.586655932778,-117.77755018662,26.649114911491,3668304.2576294,-550.25097481128,2601157.5138648,31.849114911491,0,0
82.586656356219,-117.79507977684,26.653545354535,3668304.2576294,-550.25097481128,2601157.5138648,31.853545354535,0,0
82.586656779661,-117.81260936706,26.65797579758,3668304.2576294,-550.25097481128,2601157.5138648,31.85797579758,0,0
82.586657203103,-117.83013895728,26.662406240624,3668304.2576294,-550.25097481128,2601157.5138648,31.862406240624,0,0
82.586657626544,-117.8476685475,26.666836683668,3668304.2576294,-550.25097481128,2601157.5138648,31.866836683668,0,0
82.586658049986,-117.86519813772,26.671267126713,3668304.2576294,-550.25097481128,2601157.5138648,31.871267126713,0,0
82.586658473427,-117.88272772794,26.675697569757,3668304.2576294,-550.25097481128,2601157.5138648,31.875697569757,0,0
82.586658896869,-117.90025731816,26.680128012801,3668304.2576294,-550.25097481128,2601157.5138648,31.880128012801,0,0
82.58665932031,-117.91778690838,26.684558455846,3668304.2576294,-550.25097481128,2601157.5138648,31.884558455846,0,0
82.586659743752,-117.9353164986,26.68898889889,3668304.2576294,-550.25097481128,2601157.5138648,31.88898889889,0,0
82.586660167194,-117.95284608882,26.693419341934,3668304.2576294,-550.25097481128,2601157.5138648,31.893419341934,0,0
82.586660590635,-117.97037567904,26.697849784978,3668304.2576294,-550.25097481128,2601157.5138648,31.897849784978,0,0
82.586661014077,-117.98790526926,26.702280228023,3668304.2576294,-550.25097481128,2601157.5138648,31.902280228023,0,0
82.586661437518,-118.00543485948,26.706710671067,3668304.2576294,-550.25097481128,2601157.5138648,31.906710671067,0,0
82.58666186096,-118.0229644497,26.711141114111,3668304.2576294,-550.25097481128,2601157.5138648,31.911141114111,0,0
82.586662284402,-118.04049403992,26.715571557156,3668304.2576294,-550.25097481128,2601157.5138648,31.915571557156,0,0
82.586662707843,-118.05802363014,26.7200020002,3668304.2576294,-550.25097481128,2601157.5138648,31.9200020002,0,0
82.586663131285,-118.07555322036,26.724432443244,3668304.2576294,-550.25097481128,2601157.5138648,31.924432443244,0,0
82.586663554726,-118.09308281058,26.728862886289,3668304.2576294,-550.25097481128,2601157.5138648,31.928862886289,0,0
82.586663978168,-118.1106124008,26.733293329333,3668304.2576294,-550.25097481128,2601157.5138648,31.933293329333,0,0
82.58666440161,-118.12814199102,26.737723772377,3668304.2576294,-550.25097481128,2601157.5138648,31.937723772377,0,0
82.586664825051,-118.14567158125,26.742154215422,3668304.2576294,-550.25097481128,2601157.5138648,31.942154215422,0,0
82.586665248493,-118.16320117147,26.746584658466,3668304.2576294,-550.25097481128,2601157.5138648,31.946584658466,0,0
82.586665671934,-118.18073076169,26.75101510151,3668304.2576294,-550.25097481128,2601157.5138648,31.95101510151,0,0
82.586666095376,-118.19826035191,26.755445544554,3668304.2576294,-550.25097481128,2601157.5138648,31.955445544554,0,0
82.586666518818,-118.21578994213,26.759875987599,3668304.2576294,-550.25097481128,2601157.5138648,31.959875987599,0,0
82.586666942259,-118.23331953235,26.764306430643,3668304.2576294,-550.25097481128,2601157.5138648,31.964306430643,0,0
82.586667365701,-118.25084912257,26.768736873687,3668304.2576294,-550.25097481128,2601157.5138648,31.968736873687,0,0
82.586667789142,-118.26837871279,26.773167316732,3668304.2576294,-550.25097481128,2601157.5138648,31.973167316732,0,0
82.586668212584,-118.28590830301,26.777597759776,3668304.2576294,-550.25097481128,2601157.5138648,31.977597759776,0,0
82.586668636026,-118.30343789323,26.78202820282,3668304.2576294,-550.25097481128,2601157.5138648,31.98202820282,0,0
82.586669059467,-118.32096748345,26.786458645865,3668304.2576294,-550.25097481128,2601157.5138648,31.986458645865,0,0
82.586669482909,-118.33849707367,26.790889088909,3668304.2576294,-550.25097481128,2601157.5138648,31.990889088909,0,0
82.58666990635,-118.35602666389,26.795319531953,3668304.2576294,-550.25097481128,2601157.5138648,31.995319531953,0,0
82.586670329792,-118.37355625411,26.799749974997,3668304.2576294,-550.25097481128,2601157.5138648,31.999749974997,0,0
82.586670753234,-118.39108584433,26.804180418042,3668304.2576294,-550.25097481128,2601157.5138648,32.004180418042,0,0
82.586671176675,-118.40861543455,26.808610861086,3668304.2576294,-550.25097481128,2601157.5138648,32.008610861086,0,0
82.586671600117,-118.42614502477,26.81304130413,3668304.2576294,-550.25097481128,2601157.5138648,32.01304130413,0,0
82.586672023558,-118.44367461499,26.817471747175,3668304.2576294,-550.25097481128,2601157.5138648,32.017471747175,0,0
82.586672447,-118.46120420521,26.821902190219,3668304.2576294,-550.25097481128,2601157.5138648,32.021902190219,0,0
82.586672870442,-118.47873379543,26.826332633263,3668304.2576294,-550.25097481128,2601157.5138648,32.026332633263,0,0
82.586673293883,-118.49626338565,26.830763076308,3668304.2576294,-550.25097481128,2601157.5138648,32.030763076308,0,0
82.586673717325,-118.51379297587,26.835193519352,3668304.2576294,-550.25097481128,2601157.5138648,32.035193519352,0,0
82.586674140766,-118.53132256609,26.839623962396,3668304.2576294,-550.25097481128,2601157.5138648,32.039623962396,0,0
82.586674564208,-118.54885215631,26.844054405441,3668304.2576294,-550.25097481128,2601157.5138648,32.044054405441,0,0
82.58667498765,-118.56638174653,26.848484848485,3668304.2576294,-550.25097481128,2601157.5138648,32.048484848485,0,0
82.586675411091,-118.58391133675,26.852915291529,3668304.2576294,-550.25097481128,2601157.5138648,32.052915291529,0,0
82.586675834533,-118.60144092697,26.857345734573,3668304.2576294,-550.25097481128,2601157.5138648,32.057345734573,0,0
82.586676257974,-118.61897051719,26.861776177618,3668304.2576294,-550.25097481128,2601157.5138648,32.061776177618,0,0
82.586676681416,-118.63650010741,26.866206620662,3668304.2576294,-550.25097481128,2601157.5138648,32.066206620662,0,0
82.586677104858,-118.65402969763,26.870637063706,3668304.2576294,-550.25097481128,2601157.5138648,32.070637063706,0,0
82.586677528299,-118.67155928785,26.875067506751,3668304.2576294,-550.25097481128,2601157.5138648,32.075067506751,0,0
82.586677951741,-118.68908887807,26.879497949795,3668304.2576294,-550.25097481128,2601157.5138648,32.079497949795,0,0
82.586678375182,-118.70661846829,26.883928392839,3668304.2576294,-550.25097481128,2601157.5138648,32.083928392839,0,0
82.586678798624,-118.72414805851,26.888358835884,3668304.2576294,-550.25097481128,2601157.5138648,32.088358835884,0,0
82.586679222066,-118.74167764873,26.892789278928,3668304.2576294,-550.25097481128,2601157.5138648,32.092789278928,0,0
82.586679645507,-118.75920723895,26.897219721972,3668304.2576294,-550.25097481128,2601157.5138648,32.097219721972,0,0
82.586680068949,-118.77673682917,26.901650165017,3668304.2576294,-550.25097481128,2601157.5138648,32.101650165017,0,0
82.58668049239,-118.79426641939,26.906080608061,3668304.2576294,-550.25097481128,2601157.5138648,32.106080608061,0,0
82.586680915832,-118.81179600961,26.910511051105,3668304.2576294,-550.25097481128,2601157.5138648,32.110511051105,0,0
82.586681339274,-118.82932559983,26.914941494149,3668304.2576294,-550.25097481128,2601157.5138648,32.114941494149,0,0
82.586681762715,-118.84685519005,26.919371937194,3668304.2576294,-550.25097481128,2601157.5138648,32.119371937194,0,0
82.586682186157,-118.86438478028,26.923802380238,3668304.2576294,-550.25097481128,2601157.5138648,32.123802380238,0,0
82.586682609598,-118.8819143705,26.928232823282,3668304.2576294,-550.25097481128,2601157.5138648,32.128232823282,0,0
82.58668303304,-118.89944396072,26.932663266327,3668304.2576294,-550.25097481128,2601157.5138648,32.132663266327,0,0
82.586683456482,-118.91697355094,26.937093709371,3668304.2576294,-550.25097481128,2601157.5138648,32.137093709371,0,0
82.586683879923,-118.93450314116,26.941524152415,3668304.2576294,-550.25097481128,2601157.5138648,32.141524152415,0,0
82.586684303365,-118.95203273138,26.94595459546,3668304.2576294,-550.25097481128,2601157.5138648,32.14595459546,0,0
82.586684726806,-118.9695623216,26.950385038504,3668304.2576294,-550.25097481128,2601157.5138648,32.150385038504,0,0
82.586685150248,-118.98709191182,26.954815481548,3668304.2576294,-550.25097481128,2601157.5138648,32.154815481548,0,0
82.58668557369,-119.00462150204,26.959245924592,3668304.2576294,-550.25097481128,2601157.5138648,32.159245924592,0,0
82.586685997131,-119.02215109226,26.963676367637,3668304.2576294,-550.25097481128,2601157.5138648,32.163676367637,0,0
82.586686420573,-119.03968068248,26.968106810681,3668304.2576294,-550.25097481128,2601157.5138648,32.168106810681,0,0
82.586686844014,-119.0572102727,26.972537253725,3668304.2576294,-550.25097481128,2601157.5138648,32.172537253725,0,0
82.586687267456,-119.07473986292,26.97696769677,3668304.2576294,-550.25097481128,2601157.5138648,32.17696769677,0,0
82.586687690898,-119.09226945314,26.981398139814,3668304.2576294,-550.25097481128,2601157.5138648,32.181398139814,0,0
82.586688114339,-119.10979904336,26.985828582858,3668304.2576294,-550.25097481128,2601157.5138648,32.185828582858,0,0
82.586688537781,-119.12732863358,26.990259025903,3668304.2576294,-550.25097481128,2601157.5138648,32.190259025903,0,0
82.586688961222,-119.1448582238,26.994689468947,3668304.2576294,-550.25097481128,2601157.5138648,32.194689468947,0,0
82.586689384664,-119.16238781402,26.999119911991,3668304.2576294,-550.25097481128,2601157.5138648,32.199119911991,0,0
82.586689808106,-119.17991740424,27.003550355036,3668304.2576294,-550.25097481128,2601157.5138648,32.203550355036,0,0
82.586690231547,-119.19744699446,27.00798079808,3668304.2576294,-550.25097481128,2601157.5138648,32.20798079808,0,0
82.586690654989,-119.21497658468,27.012411241124,3668304.2576294,-550.25097481128,2601157.5138648,32.212411241124,0,0
82.58669107843,-119.2325061749,27.016841684168,3668304.2576294,-550.25097481128,2601157.5138648,32.216841684168,0,0
82.586691501872,-119.25003576512,27.021272127213,3668304.2576294,-550.25097481128,2601157.5138648,32.221272127213,0,0
82.586691925314,-119.26756535534,27.025702570257,3668304.2576294,-550.25097481128,2601157.5138648,32.225702570257,0,0
82.586692348755,-119.28509494556,27.030133013301,3668304.2576294,-550.25097481128,2601157.5138648,32.230133013301,0,0
82.586692772197,-119.30262453578,27.034563456346,3668304.2576294,-550.25097481128,2601157.5138648,32.234563456346,0,0
82.586693195638,-119.320154126,27.03899389939,3668304.2576294,-550.25097481128,2601157.5138648,32.23899389939,0,0
82.58669361908,-119.33768371622,27.043424342434,3668304.2576294,-550.25097481128,2601157.5138648,32.243424342434,0,0
82.586694042521,-119.35521330644,27.047854785479,3668304.2576294,-550.25097481128,2601157.5138648,32.247854785479,0,0
82.586694465963,-119.37274289666,27.052285228523,3668304.2576294,-550.25097481128,2601157.5138648,32.252285228523,0,0
82.586694889405,-119.39027248688,27.056715671567,3668304.2576294,-550.25097481128,2601157.5138648,32.256715671567,0,0
82.586695312846,-119.4078020771,27.061146114611,3668304.2576294,-550.25097481128,2601157.5138648,32.261146114611,0,0
82.586695736288,-119.42533166732,27.065576557656,3668304.2576294,-550.25097481128,2601157.5138648,32.265576557656,0,0
82.586696159729,-119.44286125754,27.0700070007,3668304.2576294,-550.25097481128,2601157.5138648,32.2700070007,0,0
82.586696583171,-119.46039084776,27.074437443744,3668304.2576294,-550.25097481128,2601157.5138648,32.274437443744,0,0
82.586697006613,-119.47792043798,27.078867886789,3668304.2576294,-550.25097481128,2601157.5138648,32.278867886789,0,0
82.586697430054,-119.4954500282,27.083298329833,3668304.2576294,-550.25097481128,2601157.5138648,32.283298329833,0,0
82.586697853496,-119.51297961842,27.087728772877,3668304.2576294,-550.25097481128,2601157.5138648,32.287728772877,0,0
82.586698276937,-119.53050920864,27.092159215922,3668304.2576294,-550.25097481128,2601157.5138648,32.292159215922,0,0
82.586698700379,-119.54803879886,27.096589658966,3668304.2576294,-550.25097481128,2601157.5138648,32.296589658966,0,0
82.586699123821,-119.56556838908,27.10102010201,3668304.2576294,-550.25097481128,2601157.5138648,32.30102010201,0,0
82.586699547262,-119.58309797931,27.105450545055,3668304.2576294,-550.25097481128,2601157.5138648,32.305450545055,0,0
82.586699970704,-119.60062756953,27.109880988099,3668304.2576294,-550.25097481128,2601157.5138648,32.309880988099,0,0
82.586700394145,-119.61815715975,27.114311431143,3668304.2576294,-550.25097481128,2601157.5138648,32.314311431143,0,0
82.586700817587,-119.63568674997,27.118741874187,3668304.2576294,-550.25097481128,2601157.5138648,32.318741874187,0,0
82.586701241029,-119.65321634019,27.123172317232,3668304.2576294,-550.25097481128,2601157.5138648,32.323172317232,0,0
82.58670166447,-119.67074593041,27.127602760276,3668304.2576294,-550.25097481128,2601157.5138648,32.327602760276,0,0
82.586702087912,-119.68827552063,27.13203320332,3668304.2576294,-550.25097481128,2601157.5138648,32.33203320332,0,0
82.586702511353,-119.70580511085,27.136463646365,3668304.2576294,-550.25097481128,2601157.5138648,32.336463646365,0,0
82.586702934795,-119.72333470107,27.140894089409,3668304.2576294,-550.25097481128,2601157.5138648,32.340894089409,0,0
82.586703358237,-119.74086429129,27.145324532453,3668304.2576294,-550.25097481128,2601157.5138648,32.345324532453,0,0
82.586703781678,-119.75839388151,27.149754975498,3668304.2576294,-550.25097481128,2601157.5138648,32.349754975498,0,0
82.58670420512,-119.77592347173,27.154185418542,3668304.2576294,-550.25097481128,2601157.5138648,32.354185418542,0,0
82.586704628561,-119.79345306195,27.158615861586,3668304.2576294,-550.25097481128,2601157.5138648,32.358615861586,0,0
82.586705052003,-119.81098265217,27.16304630463,3668304.2576294,-550.25097481128,2601157.5138648,32.36304630463,0,0
82.586705475445,-119.82851224239,27.167476747675,3668304.2576294,-550.25097481128,2601157.5138648,32.367476747675,0,0
82.586705898886,-119.84604183261,27.171907190719,3668304.2576294,-550.25097481128,2601157.5138648,32.371907190719,0,0
82.586706322328,-119.86357142283,27.176337633763,3668304.2576294,-550.25097481128,2601157.5138648,32.376337633763,0,0
82.586706745769,-119.88110101305,27.180768076808,3668304.2576294,-550.25097481128,2601157.5138648,32.380768076808,0,0
82.586707169211,-119.89863060327,27.185198519852,3668304.2576294,-550.25097481128,2601157.5138648,32.385198519852,0,0
82.586707592653,-119.91616019349,27.189628962896,3668304.2576294,-550.25097481128,2601157.5138648,32.389628962896,0,0
82.586708016094,-119.93368978371,27.194059405941,3668304.2576294,-550.25097481128,2601157.5138648,32.394059405941,0,0
82.586708439536,-119.95121937393,27.198489848985,3668304.2576294,-550.25097481128,2601157.5138648,32.398489848985,0,0
82.586708862977,-119.96874896415,27.202920292029,3668304.2576294,-550.25097481128,2601157.5138648,32.402920292029,0,0
82.586709286419,-119.98627855437,27.207350735074,3668304.2576294,-550.25097481128,2601157.5138648,32.407350735074,0,0
82.586709709861,-120.00380814459,27.211781178118,3668304.2576294,-550.25097481128,2601157.5138648,32.411781178118,0,0
82.586710133302,-120.02133773481,27.216211621162,3668304.2576294,-550.25097481128,2601157.5138648,32.416211621162,0,0
82.586710556744,-120.03886732503,27.220642064206,3668304.2576294,-550.25097481128,2601157.5138648,32.420642064206,0,0
82.586710980185,-120.05639691525,27.225072507251,3668304.2576294,-550.25097481128,2601157.5138648,32.425072507251,0,0
82.586711403627,-120.07392650547,27.229502950295,3668304.2576294,-550.25097481128,2601157.5138648,32.429502950295,0,0
82.586711827069,-120.09145609569,27.233933393339,3668304.2576294,-550.25097481128,2601157.5138648,32.433933393339,0,0
82.58671225051,-120.10898568591,27.238363836384,3668304.2576294,-550.25097481128,2601157.5138648,32.438363836384,0,0
82.586712673952,-120.12651527613,27.242794279428,3668304.2576294,-550.25097481128,2601157.5138648,32.442794279428,0,0
82.586713097393,-120.14404486635,27.247224722472,3668304.2576294,-550.25097481128,2601157.5138648,32.447224722472,0,0
82.586713520835,-120.16157445657,27.251655165517,3668304.2576294,-550.25097481128,2601157.5138648,32.451655165517,0,0
82.586713944277,-120.17910404679,27.256085608561,3668304.2576294,-550.25097481128,2601157.5138648,32.456085608561,0,0
82.586714367718,-120.19663363701,27.260516051605,3668304.2576294,-550.25097481128,2601157.5138648,32.460516051605,0,0
82.58671479116,-120.21416322723,27.264946494649,3668304.2576294,-550.25097481128,2601157.5138648,32.464946494649,0,0
82.586715214601,-120.23169281745,27.269376937694,3668304.2576294,-550.25097481128,2601157.5138648,32.469376937694,0,0
82.586715638043,-120.24922240767,27.273807380738,3668304.2576294,-550.25097481128,2601157.5138648,32.473807380738,0,0
82.586716061485,-120.26675199789,27.278237823782,3668304.2576294,-550.25097481128,2601157.5138648,32.478237823782,0,0
82.586716484926,-120.28428158811,27.282668266827,3668304.2576294,-550.25097481128,2601157.5138648,32.482668266827,0,0
82.586716908368,-120.30181117833,27.287098709871,3668304.2576294,-550.25097481128,2601157.5138648,32.487098709871,0,0
82.586717331809,-120.31934076856,27.291529152915,3668304.2576294,-550.25097481128,2601157.5138648,32.491529152915,0,0
82.586717755251,-120.33687035878,27.29595959596,3668304.2576294,-550.25097481128,2601157.5138648,32.49595959596,0,0
82.586718178693,-120.354399949,27.300390039004,3668304.2576294,-550.25097481128,2601157.5138648,32.500390039004,0,0
82.586718602134,-120.37192953922,27.304820482048,3668304.2576294,-550.25097481128,2601157.5138648,32.504820482048,0,0
82.586719025576,-120.38945912944,27.309250925093,3668304.2576294,-550.25097481128,2601157.5138648,32.509250925093,0,0
82.586719449017,-120.40698871966,27.313681368137,3668304.2576294,-550.25097481128,2601157.5138648,32.513681368137,0,0
82.586719872459,-120.42451830988,27.318111811181,3668304.2576294,-550.25097481128,2601157.5138648,32.518111811181,0,0
82.586720295901,-120.4420479001,27.322542254225,3668304.2576294,-550.25097481128,2601157.5138648,32.522542254225,0,0
82.586720719342,-120.45957749032,27.32697269727,3668304.2576294,-550.25097481128,2601157.5138648,32.52697269727,0,0
82.586721142784,-120.47710708054,27.331403140314,3668304.2576294,-550.25097481128,2601157.5138648,32.531403140314,0,0
82.586721566225,-120.49463667076,27.335833583358,3668304.2576294,-550.25097481128,2601157.5138648,32.535833583358,0,0
82.586721989667,-120.51216626098,27.340264026403,3668304.2576294,-550.25097481128,2601157.5138648,32.540264026403,0,0
82.586722413109,-120.5296958512,27.344694469447,3668304.2576294,-550.25097481128,2601157.5138648,32.544694469447,0,0
82.58672283655,-120.54722544142,27.349124912491,3668304.2576294,-550.25097481128,2601157.5138648,32.549124912491,0,0
82.586723259992,-120.56475503164,27.353555355536,3668304.2576294,-550.25097481128,2601157.5138648,32.553555355536,0,0
82.586723683433,-120.58228462186,27.35798579858,3668304.2576294,-550.25097481128,2601157.5138648,32.55798579858,0,0
82.586724106875,-120.59981421208,27.362416241624,3668304.2576294,-550.25097481128,2601157.5138648,32.562416241624,0,0
82.586724530317,-120.6173438023,27.366846684668,3668304.2576294,-550.25097481128,2601157.5138648,32.566846684668,0,0
82.586724953758,-120.63487339252,27.371277127713,3668304.2576294,-550.25097481128,2601157.5138648,32.571277127713,0,0
82.5867253772,-120.65240298274,27.375707570757,3668304.2576294,-550.25097481128,2601157.5138648,32.575707570757,0,0
82.586725800641,-120.66993257296,27.380138013801,3668304.2576294,-550.25097481128,2601157.5138648,32.580138013801,0,0
82.586726224083,-120.68746216318,27.384568456846,3668304.2576294,-550.25097481128,2601157.5138648,32.584568456846,0,0
82.586726647525,-120.7049917534,27.38899889989,3668304.2576294,-550.25097481128,2601157.5138648,32.58899889989,0,0
82.586727070966,-120.72252134362,27.393429342934,3668304.2576294,-550.25097481128,2601157.5138648,32.593429342934,0,0
82.586727494408,-120.74005093384,27.397859785979,3668304.2576294,-550.25097481128,2601157.5138648,32.597859785979,0,0
82.586727917849,-120.75758052406,27.402290229023,3668304.2576294,-550.25097481128,2601157.5138648,32.602290229023,0,0
82.586728341291,-120.77511011428,27.406720672067,3668304.2576294,-550.25097481128,2601157.5138648,32.606720672067,0,0
82.586728764733,-120.7926397045,27.411151115112,3668304.2576294,-550.25097481128,2601157.5138648,32.611151115112,0,0
82.586729188174,-120.81016929472,27.415581558156,3668304.2576294,-550.25097481128,2601157.5138648,32.615581558156,0,0
82.586729611616,-120.82769888494,27.4200120012,3668304.2576294,-550.25097481128,2601157.5138648,32.6200120012,0,0
82.586730035057,-120.84522847516,27.424442444244,3668304.2576294,-550.25097481128,2601157.5138648,32.624442444244,0,0
82.586730458499,-120.86275806538,27.428872887289,3668304.2576294,-550.25097481128,2601157.5138648,32.628872887289,0,0
82.58673088194,-120.8802876556,27.433303330333,3668304.2576294,-550.25097481128,2601157.5138648,32.633303330333,0,0
82.586731305382,-120.89781724582,27.437733773377,3668304.2576294,-550.25097481128,2601157.5138648,32.637733773377,0,0
82.586731728824,-120.91534683604,27.442164216422,3668304.2576294,-550.25097481128,2601157.5138648,32.642164216422,0,0
82.586732152265,-120.93287642626,27.446594659466,3668304.2576294,-550.25097481128,2601157.5138648,32.646594659466,0,0
82.586732575707,-120.95040601648,27.45102510251,3668304.2576294,-550.25097481128,2601157.5138648,32.65102510251,0,0
82.586732999148,-120.9679356067,27.455455545555,3668304.2576294,-550.25097481128,2601157.5138648,32.655455545555,0,0
82.58673342259,-120.98546519692,27.459885988599,3668304.2576294,-550.25097481128,2601157.5138648,32.659885988599,0,0
82.586733846032,-121.00299478714,27.464316431643,3668304.2576294,-550.25097481128,2601157.5138648,32.664316431643,0,0
82.586734269473,-121.02052437736,27.468746874687,3668304.2576294,-550.25097481128,2601157.5138648,32.668746874687,0,0
82.586734692915,-121.03805396759,27.473177317732,3668304.2576294,-550.25097481128,2601157.5138648,32.673177317732,0,0
82.586735116356,-121.05558355781,27.477607760776,3668304.2576294,-550.25097481128,2601157.5138648,32.677607760776,0,0
82.586735539798,-121.07311314803,27.48203820382,3668304.2576294,-550.25097481128,2601157.5138648,32.68203820382,0,0
82.58673596324,-121.09064273825,27.486468646865,3668304.2576294,-550.25097481128,2601157.5138648,32.686468646865,0,0
82.586736386681,-121.10817232847,27.490899089909,3668304.2576294,-550.25097481128,2601157.5138648,32.690899089909,0,0
82.586736810123,-121.12570191869,27.495329532953,3668304.2576294,-550.25097481128,2601157.5138648,32.695329532953,0,0
82.586737233564,-121.14323150891,27.499759975998,3668304.2576294,-550.25097481128,2601157.5138648,32.699759975998,0,0
82.586737657006,-121.16076109913,27.504190419042,3668304.2576294,-550.25097481128,2601157.5138648,32.704190419042,0,0
82.586738080448,-121.17829068935,27.508620862086,3668304.2576294,-550.25097481128,2601157.5138648,32.708620862086,0,0
82.586738503889,-121.19582027957,27.513051305131,3668304.2576294,-550.25097481128,2601157.5138648,32.713051305131,0,0
82.586738927331,-121.21334986979,27.517481748175,3668304.2576294,-550.25097481128,2601157.5138648,32.717481748175,0,0
82.586739350772,-121.23087946001,27.521912191219,3668304.2576294,-550.25097481128,2601157.5138648,32.721912191219,0,0
82.586739774214,-121.24840905023,27.526342634263,3668304.2576294,-550.25097481128,2601157.5138648,32.726342634263,0,0
82.586740197656,-121.26593864045,27.530773077308,3668304.2576294,-550.25097481128,2601157.5138648,32.730773077308,0,0
82.586740621097,-121.28346823067,27.535203520352,3668304.2576294,-550.25097481128,2601157.5138648,32.735203520352,0,0
82.586741044539,-121.30099782089,27.539633963396,3668304.2576294,-550.25097481128,2601157.5138648,32.739633963396,0,0
82.58674146798,-121.31852741111,27.544064406441,3668304.2576294,-550.25097481128,2601157.5138648,32.744064406441,0,0
82.586741892177,-121.33605700113,27.548494849485,3688961.6592384,-930.98710863167,2606406.9272957,32.748494849485,0,0
82.586742317129,-121.35358659094,27.552925292529,3688961.6592384,-930.98710863167,2606406.9272957,32.752925292529,0,0
82.586742742081,-121.37111618076,27.557355735574,3688961.6592384,-930.98710863167,2606406.9272957,32.757355735574,0,0
82.586743167033,-121.38864577057,27.561786178618,3688961.6592384,-930.98710863167,2606406.9272957,32.761786178618,0,0
82.586743591984,-121.40617536039,27.566216621662,3688961.6592384,-930.98710863167,2606406.9272957,32.766216621662,0,0
82.586744016936,-121.4237049502,27.570647064706,3688961.6592384,-930.98710863167,2606406.9272957,32.770647064706,0,0
82.586744441888,-121.44123454001,27.575077507751,3688961.6592384,-930.98710863167,2606406.9272957,32.775077507751,0,0
82.58674486684,-121.45876412983,27.579507950795,3688961.6592384,-930.98710863167,2606406.9272957,32.779507950795,0,0
82.586745291792,-121.47629371964,27.583938393839,3688961.6592384,-930.98710863167,2606406.9272957,32.783938393839,0,0
82.586745716744,-121.49382330946,27.588368836884,3688961.6592384,-930.98710863167,2606406.9272957,32.788368836884,0,0
82.586746141696,-121.51135289927,27.592799279928,3688961.6592384,-930.98710863167,2606406.9272957,32.792799279928,0,0
82.586746566647,-121.52888248909,27.597229722972,3688961.6592384,-930.98710863167,2606406.9272957,32.797229722972,0,0
82.586746991599,-121.5464120789,27.601660166017,3688961.6592384,-930.98710863167,2606406.9272957,32.801660166017,0,0
82.586747416551,-121.56394166872,27.606090609061,3688961.6592384,-930.98710863167,2606406.9272957,32.806090609061,0,0
82.586747841503,-121.58147125853,27.610521052105,3688961.6592384,-930.98710863167,2606406.9272957,32.810521052105,0,0
82.586748266455,-121.59900084835,27.61495149515,3688961.6592384,-930.98710863167,2606406.9272957,32.81495149515,0,0
82.586748691407,-121.61653043816,27.619381938194,3688961.6592384,-930.98710863167,2606406.9272957,32.819381938194,0,0
82.586749116359,-121.63406002798,27.623812381238,3688961.6592384,-930.98710863167,2606406.9272957,32.823812381238,0,0
82.58674954131,-121.65158961779,27.628242824282,3688961.6592384,-930.98710863167,2606406.9272957,32.828242824282,0,0
82.586749966262,-121.6691192076,27.632673267327,3688961.6592384,-930.98710863167,2606406.9272957,32.832673267327,0,0
82.586750391214,-121.68664879742,27.637103710371,3688961.6592384,-930.98710863167,2606406.9272957,32.837103710371,0,0
82.586750816166,-121.70417838723,27.641534153415,3688961.6592384,-930.98710863167,2606406.9272957,32.841534153415,0,0
82.586751241118,-121.72170797705,27.64596459646,3688961.6592384,-930.98710863167,2606406.9272957,32.84596459646,0,0
82.58675166607,-121.73923756686,27.650395039504,3688961.6592384,-930.98710863167,2606406.9272957,32.850395039504,0,0
82.586752091022,-121.75676715668,27.654825482548,3688961.6592384,-930.98710863167,2606406.9272957,32.854825482548,0,0
82.586752515973,-121.77429674649,27.659255925593,3688961.6592384,-930.98710863167,2606406.9272957,32.859255925593,0,0
82.586752940925,-121.79182633631,27.663686368637,3688961.6592384,-930.98710863167,2606406.9272957,32.863686368637,0,0
82.586753365877,-121.80935592612,27.668116811681,3688961.6592384,-930.98710863167,2606406.9272957,32.868116811681,0,0
82.586753790829,-121.82688551594,27.672547254725,3688961.6592384,-930.98710863167,2606406.9272957,32.872547254725,0,0
82.586754215781,-121.84441510575,27.67697769777,3688961.6592384,-930.98710863167,2606406.9272957,32.87697769777,0,0
82.586754640733,-121.86194469557,27.681408140814,3688961.6592384,-930.98710863167,2606406.9272957,32.881408140814,0,0
82.586755065685,-121.87947428538,27.685838583858,3688961.6592384,-930.98710863167,2606406.9272957,32.885838583858,0,0
82.586755490636,-121.8970038752,27.690269026903,3688961.6592384,-930.98710863167,2606406.9272957,32.890269026903,0,0
82.586755915588,-121.91453346501,27.694699469947,3688961.6592384,-930.98710863167,2606406.9272957,32.894699469947,0,0
82.58675634054,-121.93206305482,27.699129912991,3688961.6592384,-930.98710863167,2606406.9272957,32.899129912991,0,0
82.586756765492,-121.94959264464,27.703560356036,3688961.6592384,-930.98710863167,2606406.9272957,32.903560356036,0,0
82.586757190444,-121.96712223445,27.70799079908,3688961.6592384,-930.98710863167,2606406.9272957,32.90799079908,0,0
82.586757615396,-121.98465182427,27.712421242124,3688961.6592384,-930.98710863167,2606406.9272957,32.912421242124,0,0
82.586758040348,-122.00218141408,27.716851685169,3688961.6592384,-930.98710863167,2606406.9272957,32.916851685169,0,0
82.586758465299,-122.0197110039,27.721282128213,3688961.6592384,-930.98710863167,2606406.9272957,32.921282128213,0,0
82.586758890251,-122.03724059371,27.725712571257,3688961.6592384,-930.98710863167,2606406.9272957,32.925712571257,0,0
82.586759315203,-122.05477018353,27.730143014301,3688961.6592384,-930.98710863167,2606406.9272957,32.930143014301,0,0
82.586759740155,-122.07229977334,27.734573457346,3688961.6592384,-930.98710863167,2606406.9272957,32.934573457346,0,0
82.586760165107,-122.08982936316,27.73900390039,3688961.6592384,-930.98710863167,2606406.9272957,32.93900390039,0,0
82.586760590059,-122.10735895297,27.743434343434,3688961.6592384,-930.98710863167,2606406.9272957,32.943434343434,0,0
82.586761015011,-122.12488854279,27.747864786479,3688961.6592384,-930.98710863167,2606406.9272957,32.947864786479,0,0
82.586761439962,-122.1424181326,27.752295229523,3688961.6592384,-930.98710863167,2606406.9272957,32.952295229523,0,0
82.586761864914,-122.15994772241,27.756725672567,3688961.6592384,-930.98710863167,2606406.9272957,32.956725672567,0,0
82.586762289866,-122.17747731223,27.761156115612,3688961.6592384,-930.98710863167,2606406.9272957,32.961156115612,0,0
82.586762714818,-122.19500690204,27.765586558656,3688961.6592384,-930.98710863167,2606406.9272957,32.965586558656,0,0
82.58676313977,-122.21253649186,27.7700170017,3688961.6592384,-930.98710863167,2606406.9272957,32.9700170017,0,0
82.586763564722,-122.23006608167,27.774447444744,3688961.6592384,-930.98710863167,2606406.9272957,32.974447444744,0,0
82.586763989674,-122.24759567149,27.778877887789,3688961.6592384,-930.98710863167,2606406.9272957,32.978877887789,0,0
82.586764414625,-122.2651252613,27.783308330833,3688961.6592384,-930.98710863167,2606406.9272957,32.983308330833,0,0
82.586764839577,-122.28265485112,27.787738773877,3688961.6592384,-930.98710863167,2606406.9272957,32.987738773877,0,0
82.586765264529,-122.30018444093,27.792169216922,3688961.6592384,-930.98710863167,2606406.9272957,32.992169216922,0,0
82.586765689481,-122.31771403075,27.796599659966,3688961.6592384,-930.98710863167,2606406.9272957,32.996599659966,0,0
82.586766114433,-122.33524362056,27.80103010301,3688961.6592384,-930.98710863167,2606406.9272957,33.00103010301,0,0
82.586766539385,-122.35277321038,27.805460546055,3688961.6592384,-930.98710863167,2606406.9272957,33.005460546055,0,0
82.586766964337,-122.37030280019,27.809890989099,3688961.6592384,-930.98710863167,2606406.9272957,33.009890989099,0,0
82.586767389288,-122.38783239001,27.814321432143,3688961.6592384,-930.98710863167,2606406.9272957,33.014321432143,0,0
82.58676781424,-122.40536197982,27.818751875188,3688961.6592384,-930.98710863167,2606406.9272957,33.018751875188,0,0
82.586768239192,-122.42289156963,27.823182318232,3688961.6592384,-930.98710863167,2606406.9272957,33.023182318232,0,0
82.586768664144,-122.44042115945,27.827612761276,3688961.6592384,-930.98710863167,2606406.9272957,33.027612761276,0,0
82.586769089096,-122.45795074926,27.83204320432,3688961.6592384,-930.98710863167,2606406.9272957,33.03204320432,0,0
82.586769514048,-122.47548033908,27.836473647365,3688961.6592384,-930.98710863167,2606406.9272957,33.036473647365,0,0
82.586769939,-122.49300992889,27.840904090409,3688961.6592384,-930.98710863167,2606406.9272957,33.040904090409,0,0
82.586770363951,-122.51053951871,27.845334533453,3688961.6592384,-930.98710863167,2606406.9272957,33.045334533453,0,0
82.586770788903,-122.52806910852,27.849764976498,3688961.6592384,-930.98710863167,2606406.9272957,33.049764976498,0,0
82.586771213855,-122.54559869834,27.854195419542,3688961.6592384,-930.98710863167,2606406.9272957,33.054195419542,0,0
82.586771638807,-122.56312828815,27.858625862586,3688961.6592384,-930.98710863167,2606406.9272957,33.058625862586,0,0
82.586772063759,-122.58065787797,27.863056305631,3688961.6592384,-930.98710863167,2606406.9272957,33.063056305631,0,0
82.586772488711,-122.59818746778,27.867486748675,3688961.6592384,-930.98710863167,2606406.9272957,33.067486748675,0,0
82.586772913663,-122.6157170576,27.871917191719,3688961.6592384,-930.98710863167,2606406.9272957,33.071917191719,0,0
82.586773338614,-122.63324664741,27.876347634763,3688961.6592384,-930.98710863167,2606406.9272957,33.076347634763,0,0
82.586773763566,-122.65077623722,27.880778077808,3688961.6592384,-930.98710863167,2606406.9272957,33.080778077808,0,0
82.586774188518,-122.66830582704,27.885208520852,3688961.6592384,-930.98710863167,2606406.9272957,33.085208520852,0,0
82.58677461347,-122.68583541685,27.889638963896,3688961.6592384,-930.98710863167,2606406.9272957,33.089638963896,0,0
82.586775038422,-122.70336500667,27.894069406941,3688961.6592384,-930.98710863167,2606406.9272957,33.094069406941,0,0
82.586775463374,-122.72089459648,27.898499849985,3688961.6592384,-930.98710863167,2606406.9272957,33.098499849985,0,0
82.586775888326,-122.7384241863,27.902930293029,3688961.6592384,-930.98710863167,2606406.9272957,33.102930293029,0,0
82.586776313277,-122.75595377611,27.907360736074,3688961.6592384,-930.98710863167,2606406.9272957,33.107360736074,0,0
82.586776738229,-122.77348336593,27.911791179118,3688961.6592384,-930.98710863167,2606406.9272957,33.111791179118,0,0
82.586777163181,-122.79101295574,27.916221622162,3688961.6592384,-930.98710863167,2606406.9272957,33.116221622162,0,0
82.586777588133,-122.80854254556,27.920652065207,3688961.6592384,-930.98710863167,2606406.9272957,33.120652065207,0,0
82.586778013085,-122.82607213537,27.925082508251,3688961.6592384,-930.98710863167,2606406.9272957,33.125082508251,0,0
82.586778438037,-122.84360172519,27.929512951295,3688961.6592384,-930.98710863167,2606406.9272957,33.129512951295,0,0
82.586778862988,-122.861131315,27.933943394339,3688961.6592384,-930.98710863167,2606406.9272957,33.133943394339,0,0
82.58677928794,-122.87866090482,27.938373837384,3688961.6592384,-930.98710863167,2606406.9272957,33.138373837384,0,0
82.586779712892,-122.89619049463,27.942804280428,3688961.6592384,-930.98710863167,2606406.9272957,33.142804280428,0,0
82.586780137844,-122.91372008444,27.947234723472,3688961.6592384,-930.98710863167,2606406.9272957,33.147234723472,0,0
82.586780562796,-122.93124967426,27.951665166517,3688961.6592384,-930.98710863167,2606406.9272957,33.151665166517,0,0
82.586780987748,-122.94877926407,27.956095609561,3688961.6592384,-930.98710863167,2606406.9272957,33.156095609561,0,0
82.5867814127,-122.96630885389,27.960526052605,3688961.6592384,-930.98710863167,2606406.9272957,33.160526052605,0,0
82.586781837652,-122.9838384437,27.96495649565,3688961.6592384,-930.98710863167,2606406.9272957,33.16495649565,0,0
82.586782262603,-123.00136803352,27.969386938694,3688961.6592384,-930.98710863167,2606406.9272957,33.169386938694,0,0
82.586782687555,-123.01889762333,27.973817381738,3688961.6592384,-930.98710863167,2606406.9272957,33.173817381738,0,0
82.586783112507,-123.03642721315,27.978247824782,3688961.6592384,-930.98710863167,2606406.9272957,33.178247824782,0,0
82.586783537459,-123.05395680296,27.982678267827,3688961.6592384,-930.98710863167,2606406.9272957,33.182678267827,0,0
82.586783962411,-123.07148639278,27.987108710871,3688961.6592384,-930.98710863167,2606406.9272957,33.187108710871,0,0
82.586784387363,-123.08901598259,27.991539153915,3688961.6592384,-930.98710863167,2606406.9272957,33.191539153915,0,0
82.586784812314,-123.10654557241,27.99596959696,3688961.6592384,-930.98710863167,2606406.9272957,33.19596959696,0,0
82.586785237266,-123.12407516222,28.000400040004,3688961.6592384,-930.98710863167,2606406.9272957,33.200400040004,0,0
82.586785662218,-123.14160475203,28.004830483048,3688961.6592384,-930.98710863167,2606406.9272957,33.204830483048,0,0
82.58678608717,-123.15913434185,28.009260926093,3688961.6592384,-930.98710863167,2606406.9272957,33.209260926093,0,0
82.586786512122,-123.17666393166,28.013691369137,3688961.6592384,-930.98710863167,2606406.9272957,33.213691369137,0,0
82.586786937074,-123.19419352148,28.018121812181,3688961.6592384,-930.98710863167,2606406.9272957,33.218121812181,0,0
82.586787362026,-123.21172311129,28.022552255226,3688961.6592384,-930.98710863167,2606406.9272957,33.222552255226,0,0
82.586787786977,-123.22925270111,28.02698269827,3688961.6592384,-930.98710863167,2606406.9272957,33.22698269827,0,0
82.586788211929,-123.24678229092,28.031413141314,3688961.6592384,-930.98710863167,2606406.9272957,33.231413141314,0,0
82.586788636881,-123.26431188074,28.035843584358,3688961.6592384,-930.98710863167,2606406.9272957,33.235843584358,0,0
82.586789061833,-123.28184147055,28.040274027403,3688961.6592384,-930.98710863167,2606406.9272957,33.240274027403,0,0
82.586789486785,-123.29937106037,28.044704470447,3688961.6592384,-930.98710863167,2606406.9272957,33.244704470447,0,0
82.586789911737,-123.31690065018,28.049134913491,3688961.6592384,-930.98710863167,2606406.9272957,33.249134913491,0,0
82.586790336689,-123.33443024,28.053565356536,3688961.6592384,-930.98710863167,2606406.9272957,33.253565356536,0,0
82.58679076164,-123.35195982981,28.05799579958,3688961.6592384,-930.98710863167,2606406.9272957,33.25799579958,0,0
82.586791186592,-123.36948941963,28.062426242624,3688961.6592384,-930.98710863167,2606406.9272957,33.262426242624,0,0
82.586791611544,-123.38701900944,28.066856685669,3688961.6592384,-930.98710863167,2606406.9272957,33.266856685669,0,0
82.586792036496,-123.40454859925,28.071287128713,3688961.6592384,-930.98710863167,2606406.9272957,33.271287128713,0,0
82.586792461448,-123.42207818907,28.075717571757,3688961.6592384,-930.98710863167,2606406.9272957,33.275717571757,0,0
82.5867928864,-123.43960777888,28.080148014801,3688961.6592384,-930.98710863167,2606406.9272957,33.280148014801,0,0
82.586793311352,-123.4571373687,28.084578457846,3688961.6592384,-930.98710863167,2606406.9272957,33.284578457846,0,0
82.586793736303,-123.47466695851,28.08900890089,3688961.6592384,-930.98710863167,2606406.9272957,33.28900890089,0,0
82.586794161255,-123.49219654833,28.093439343934,3688961.6592384,-930.98710863167,2606406.9272957,33.293439343934,0,0
82.586794586207,-123.50972613814,28.097869786979,3688961.6592384,-930.98710863167,2606406.9272957,33.297869786979,0,0
82.586795011159,-123.52725572796,28.102300230023,3688961.6592384,-930.98710863167,2606406.9272957,33.302300230023,0,0
82.586795436111,-123.54478531777,28.106730673067,3688961.6592384,-930.98710863167,2606406.9272957,33.306730673067,0,0
82.586795861063,-123.56231490759,28.111161116112,3688961.6592384,-930.98710863167,2606406.9272957,33.311161116112,0,0
82.586796286015,-123.5798444974,28.115591559156,3688961.6592384,-930.98710863167,2606406.9272957,33.315591559156,0,0
82.586796710966,-123.59737408722,28.1200220022,3688961.6592384,-930.98710863167,2606406.9272957,33.3200220022,0,0
82.586797135918,-123.61490367703,28.124452445245,3688961.6592384,-930.98710863167,2606406.9272957,33.324452445245,0,0
82.58679756087,-123.63243326684,28.128882888289,3688961.6592384,-930.98710863167,2606406.9272957,33.328882888289,0,0
82.586797985822,-123.64996285666,28.133313331333,3688961.6592384,-930.98710863167,2606406.9272957,33.333313331333,0,0
82.586798410774,-123.66749244647,28.137743774377,3688961.6592384,-930.98710863167,2606406.9272957,33.337743774377,0,0
82.586798835726,-123.68502203629,28.142174217422,3688961.6592384,-930.98710863167,2606406.9272957,33.342174217422,0,0
82.586799260678,-123.7025516261,28.146604660466,3688961.6592384,-930.98710863167,2606406.9272957,33.346604660466,0,0
82.586799685629,-123.72008121592,28.15103510351,3688961.6592384,-930.98710863167,2606406.9272957,33.35103510351,0,0
82.586800110581,-123.73761080573,28.155465546555,3688961.6592384,-930.98710863167,2606406.9272957,33.355465546555,0,0
82.586800535533,-123.75514039555,28.159895989599,3688961.6592384,-930.98710863167,2606406.9272957,33.359895989599,0,0
82.586800960485,-123.77266998536,28.164326432643,3688961.6592384,-930.98710863167,2606406.9272957,33.364326432643,0,0
82.586801385437,-123.79019957518,28.168756875688,3688961.6592384,-930.98710863167,2606406.9272957,33.368756875688,0,0
82.586801810389,-123.80772916499,28.173187318732,3688961.6592384,-930.98710863167,2606406.9272957,33.373187318732,0,0
82.586802235341,-123.82525875481,28.177617761776,3688961.6592384,-930.98710863167,2606406.9272957,33.377617761776,0,0
82.586802660292,-123.84278834462,28.18204820482,3688961.6592384,-930.98710863167,2606406.9272957,33.38204820482,0,0
82.586803085244,-123.86031793444,28.186478647865,3688961.6592384,-930.98710863167,2606406.9272957,33.386478647865,0,0
82.586803510196,-123.87784752425,28.190909090909,3688961.6592384,-930.98710863167,2606406.9272957,33.390909090909,0,0
82.586803935148,-123.89537711406,28.195339533953,3688961.6592384,-930.98710863167,2606406.9272957,33.395339533953,0,0
82.5868043601,-123.91290670388,28.199769976998,3688961.6592384,-930.98710863167,2606406.9272957,33.399769976998,0,0
82.586804785052,-123.93043629369,28.204200420042,3688961.6592384,-930.98710863167,2606406.9272957,33.404200420042,0,0
82.586805210004,-123.94796588351,28.208630863086,3688961.6592384,-930.98710863167,2606406.9272957,33.408630863086,0,0
82.586805634955,-123.96549547332,28.213061306131,3688961.6592384,-930.98710863167,2606406.9272957,33.413061306131,0,0
82.586806059907,-123.98302506314,28.217491749175,3688961.6592384,-930.98710863167,2606406.9272957,33.417491749175,0,0
82.586806484859,-124.00055465295,28.221922192219,3688961.6592384,-930.98710863167,2606406.9272957,33.421922192219,0,0
82.586806909811,-124.01808424277,28.226352635264,3688961.6592384,-930.98710863167,2606406.9272957,33.426352635264,0,0
82.586807334763,-124.03561383258,28.230783078308,3688961.6592384,-930.98710863167,2606406.9272957,33.430783078308,0,0
82.586807759715,-124.0531434224,28.235213521352,3688961.6592384,-930.98710863167,2606406.9272957,33.435213521352,0,0
82.586808184667,-124.07067301221,28.239643964396,3688961.6592384,-930.98710863167,2606406.9272957,33.439643964396,0,0
82.586808609618,-124.08820260203,28.244074407441,3688961.6592384,-930.98710863167,2606406.9272957,33.444074407441,0,0
82.58680903457,-124.10573219184,28.248504850485,3688961.6592384,-930.98710863167,2606406.9272957,33.448504850485,0,0
82.586809459522,-124.12326178165,28.252935293529,3688961.6592384,-930.98710863167,2606406.9272957,33.452935293529,0,0
82.586809884474,-124.14079137147,28.257365736574,3688961.6592384,-930.98710863167,2606406.9272957,33.457365736574,0,0
82.586810309426,-124.15832096128,28.261796179618,3688961.6592384,-930.98710863167,2606406.9272957,33.461796179618,0,0
82.586810734378,-124.1758505511,28.266226622662,3688961.6592384,-930.98710863167,2606406.9272957,33.466226622662,0,0
82.58681115933,-124.19338014091,28.270657065707,3688961.6592384,-930.98710863167,2606406.9272957,33.470657065707,0,0
82.586811584281,-124.21090973073,28.275087508751,3688961.6592384,-930.98710863167,2606406.9272957,33.475087508751,0,0
82.586812009233,-124.22843932054,28.279517951795,3688961.6592384,-930.98710863167,2606406.9272957,33.479517951795,0,0
82.586812434185,-124.24596891036,28.283948394839,3688961.6592384,-930.98710863167,2606406.9272957,33.483948394839,0,0
82.586812859137,-124.26349850017,28.288378837884,3688961.6592384,-930.98710863167,2606406.9272957,33.488378837884,0,0
82.586813284089,-124.28102808999,28.292809280928,3688961.6592384,-930.98710863167,2606406.9272957,33.492809280928,0,0
82.586813709041,-124.2985576798,28.297239723972,3688961.6592384,-930.98710863167,2606406.9272957,33.497239723972,0,0
82.586814133993,-124.31608726962,28.301670167017,3688961.6592384,-930.98710863167,2606406.9272957,33.501670167017,0,0
82.586814558944,-124.33361685943,28.306100610061,3688961.6592384,-930.98710863167,2606406.9272957,33.506100610061,0,0
82.586814983896,-124.35114644925,28.310531053105,3688961.6592384,-930.98710863167,2606406.9272957,33.510531053105,0,0
82.586815408848,-124.36867603906,28.31496149615,3688961.6592384,-930.98710863167,2606406.9272957,33.51496149615,0,0
82.5868158338,-124.38620562887,28.319391939194,3688961.6592384,-930.98710863167,2606406.9272957,33.519391939194,0,0
82.586816258752,-124.40373521869,28.323822382238,3688961.6592384,-930.98710863167,2606406.9272957,33.523822382238,0,0
82.586816683704,-124.4212648085,28.328252825283,3688961.6592384,-930.98710863167,2606406.9272957,33.528252825283,0,0
82.586817108656,-124.43879439832,28.332683268327,3688961.6592384,-930.98710863167,2606406.9272957,33.532683268327,0,0
82.586817533607,-124.45632398813,28.337113711371,3688961.6592384,-930.98710863167,2606406.9272957,33.537113711371,0,0
82.586817958559,-124.47385357795,28.341544154415,3688961.6592384,-930.98710863167,2606406.9272957,33.541544154415,0,0
82.586818383511,-124.49138316776,28.34597459746,3688961.6592384,-930.98710863167,2606406.9272957,33.54597459746,0,0
82.586818808463,-124.50891275758,28.350405040504,3688961.6592384,-930.98710863167,2606406.9272957,33.550405040504,0,0
82.586819233415,-124.52644234739,28.354835483548,3688961.6592384,-930.98710863167,2606406.9272957,33.554835483548,0,0
82.586819658367,-124.54397193721,28.359265926593,3688961.6592384,-930.98710863167,2606406.9272957,33.559265926593,0,0
82.586820083319,-124.56150152702,28.363696369637,3688961.6592384,-930.98710863167,2606406.9272957,33.563696369637,0,0
82.58682050827,-124.57903111684,28.368126812681,3688961.6592384,-930.98710863167,2606406.9272957,33.568126812681,0,0
82.586820933222,-124.59656070665,28.372557255726,3688961.6592384,-930.98710863167,2606406.9272957,33.572557255726,0,0
82.586821358174,-124.61409029646,28.37698769877,3688961.6592384,-930.98710863167,2606406.9272957,33.57698769877,0,0
82.586821783126,-124.63161988628,28.381418141814,3688961.6592384,-930.98710863167,2606406.9272957,33.581418141814,0,0
82.586822208078,-124.64914947609,28.385848584858,3688961.6592384,-930.98710863167,2606406.9272957,33.585848584858,0,0
82.58682263303,-124.66667906591,28.390279027903,3688961.6592384,-930.98710863167,2606406.9272957,33.590279027903,0,0
82.586823057982,-124.68420865572,28.394709470947,3688961.6592384,-930.98710863167,2606406.9272957,33.594709470947,0,0
82.586823482933,-124.70173824554,28.399139913991,3688961.6592384,-930.98710863167,2606406.9272957,33.599139913991,0,0
82.586823907885,-124.71926783535,28.403570357036,3688961.6592384,-930.98710863167,2606406.9272957,33.603570357036,0,0
82.586824332837,-124.73679742517,28.40800080008,3688961.6592384,-930.98710863167,2606406.9272957,33.60800080008,0,0
82.586824757789,-124.75432701498,28.412431243124,3688961.6592384,-930.98710863167,2606406.9272957,33.612431243124,0,0
82.586825182741,-124.7718566048,28.416861686169,3688961.6592384,-930.98710863167,2606406.9272957,33.616861686169,0,0
82.586825607693,-124.78938619461,28.421292129213,3688961.6592384,-930.98710863167,2606406.9272957,33.621292129213,0,0
82.586826032645,-124.80691578443,28.425722572257,3688961.6592384,-930.98710863167,2606406.9272957,33.625722572257,0,0
82.586826457596,-124.82444537424,28.430153015302,3688961.6592384,-930.98710863167,2606406.9272957,33.630153015302,0,0
82.586826882548,-124.84197496406,28.434583458346,3688961.6592384,-930.98710863167,2606406.9272957,33.634583458346,0,0
82.5868273075,-124.85950455387,28.43901390139,3688961.6592384,-930.98710863167,2606406.9272957,33.63901390139,0,0
82.586827732452,-124.87703414368,28.443444344434,3688961.6592384,-930.98710863167,2606406.9272957,33.643444344434,0,0
82.586828157404,-124.8945637335,28.447874787479,3688961.6592384,-930.98710863167,2606406.9272957,33.647874787479,0,0
82.586828582356,-124.91209332331,28.452305230523,3688961.6592384,-930.98710863167,2606406.9272957,33.652305230523,0,0
82.586829007308,-124.92962291313,28.456735673567,3688961.6592384,-930.98710863167,2606406.9272957,33.656735673567,0,0
82.586829432259,-124.94715250294,28.461166116612,3688961.6592384,-930.98710863167,2606406.9272957,33.661166116612,0,0
82.586829857211,-124.96468209276,28.465596559656,3688961.6592384,-930.98710863167,2606406.9272957,33.665596559656,0,0
82.586830282163,-124.98221168257,28.4700270027,3688961.6592384,-930.98710863167,2606406.9272957,33.6700270027,0,0
82.586830707115,-124.99974127239,28.474457445745,3688961.6592384,-930.98710863167,2606406.9272957,33.674457445745,0,0
82.586831132067,-125.0172708622,28.478887888789,3688961.6592384,-930.98710863167,2606406.9272957,33.678887888789,0,0
82.586831557019,-125.03480045202,28.483318331833,3688961.6592384,-930.98710863167,2606406.9272957,33.683318331833,0,0
82.586831981971,-125.05233004183,28.487748774877,3688961.6592384,-930.98710863167,2606406.9272957,33.687748774877,0,0
82.586832406922,-125.06985963165,28.492179217922,3688961.6592384,-930.98710863167,2606406.9272957,33.692179217922,0,0
82.586832831874,-125.08738922146,28.496609660966,3688961.6592384,-930.98710863167,2606406.9272957,33.696609660966,0,0
82.586833256826,-125.10491881127,28.50104010401,3688961.6592384,-930.98710863167,2606406.9272957,33.70104010401,0,0
82.586833681778,-125.12244840109,28.505470547055,3688961.6592384,-930.98710863167,2606406.9272957,33.705470547055,0,0
82.58683410673,-125.1399779909,28.509900990099,3688961.6592384,-930.98710863167,2606406.9272957,33.709900990099,0,0
82.586834531682,-125.15750758072,28.514331433143,3688961.6592384,-930.98710863167,2606406.9272957,33.714331433143,0,0
82.586834956634,-125.17503717053,28.518761876188,3688961.6592384,-930.98710863167,2606406.9272957,33.718761876188,0,0
82.586835381585,-125.19256676035,28.523192319232,3688961.6592384,-930.98710863167,2606406.9272957,33.723192319232,0,0
82.586835806537,-125.21009635016,28.527622762276,3688961.6592384,-930.98710863167,2606406.9272957,33.727622762276,0,0
82.586836231489,-125.22762593998,28.532053205321,3688961.6592384,-930.98710863167,2606406.9272957,33.732053205321,0,0
82.586836656441,-125.24515552979,28.536483648365,3688961.6592384,-930.98710863167,2606406.9272957,33.736483648365,0,0
82.586837081393,-125.26268511961,28.540914091409,3688961.6592384,-930.98710863167,2606406.9272957,33.740914091409,0,0
82.586837506345,-125.28021470942,28.545344534453,3688961.6592384,-930.98710863167,2606406.9272957,33.745344534453,0,0
82.586837931297,-125.29774429924,28.549774977498,3688961.6592384,-930.98710863167,2606406.9272957,33.749774977498,0,0
82.586838356248,-125.31527388905,28.554205420542,3688961.6592384,-930.98710863167,2606406.9272957,33.754205420542,0,0
82.5868387812,-125.33280347887,28.558635863586,3688961.6592384,-930.98710863167,2606406.9272957,33.758635863586,0,0
82.586839206152,-125.35033306868,28.563066306631,3688961.6592384,-930.98710863167,2606406.9272957,33.763066306631,0,0
82.586839631104,-125.36786265849,28.567496749675,3688961.6592384,-930.98710863167,2606406.9272957,33.767496749675,0,0
82.586840056056,-125.38539224831,28.571927192719,3688961.6592384,-930.98710863167,2606406.9272957,33.771927192719,0,0
82.586840481008,-125.40292183812,28.576357635764,3688961.6592384,-930.98710863167,2606406.9272957,33.776357635764,0,0
82.58684090596,-125.42045142794,28.580788078808,3688961.6592384,-930.98710863167,2606406.9272957,33.780788078808,0,0
82.586841330911,-125.43798101775,28.585218521852,3688961.6592384,-930.98710863167,2606406.9272957,33.785218521852,0,0
82.586841755863,-125.45551060757,28.589648964896,3688961.6592384,-930.98710863167,2606406.9272957,33.789648964896,0,0
82.586842180815,-125.47304019738,28.594079407941,3688961.6592384,-930.98710863167,2606406.9272957,33.794079407941,0,0
82.586842605767,-125.4905697872,28.598509850985,3688961.6592384,-930.98710863167,2606406.9272957,33.798509850985,0,0
82.586843030719,-125.50809937701,28.602940294029,3688961.6592384,-930.98710863167,2606406.9272957,33.802940294029,0,0
82.586843455671,-125.52562896683,28.607370737074,3688961.6592384,-930.98710863167,2606406.9272957,33.807370737074,0,0
82.586843880623,-125.54315855664,28.611801180118,3688961.6592384,-930.98710863167,2606406.9272957,33.811801180118,0,0
82.586844305574,-125.56068814646,28.616231623162,3688961.6592384,-930.98710863167,2606406.9272957,33.816231623162,0,0
82.586844730526,-125.57821773627,28.620662066207,3688961.6592384,-930.98710863167,2606406.9272957,33.820662066207,0,0
82.586845155478,-125.59574732608,28.625092509251,3688961.6592384,-930.98710863167,2606406.9272957,33.825092509251,0,0
82.58684558043,-125.6132769159,28.629522952295,3688961.6592384,-930.98710863167,2606406.9272957,33.829522952295,0,0
82.586846005382,-125.63080650571,28.63395339534,3688961.6592384,-930.98710863167,2606406.9272957,33.83395339534,0,0
82.586846430334,-125.64833609553,28.638383838384,3688961.6592384,-930.98710863167,2606406.9272957,33.838383838384,0,0
82.586846855286,-125.66586568534,28.642814281428,3688961.6592384,-930.98710863167,2606406.9272957,33.842814281428,0,0
82.586847280237,-125.68339527516,28.647244724472,3688961.6592384,-930.98710863167,2606406.9272957,33.847244724472,0,0
82.586847705189,-125.70092486497,28.651675167517,3688961.6592384,-930.98710863167,2606406.9272957,33.851675167517,0,0
82.586848130141,-125.71845445479,28.656105610561,3688961.6592384,-930.98710863167,2606406.9272957,33.856105610561,0,0
82.586848555093,-125.7359840446,28.660536053605,3688961.6592384,-930.98710863167,2606406.9272957,33.860536053605,0,0
82.586848980045,-125.75351363442,28.66496649665,3688961.6592384,-930.98710863167,2606406.9272957,33.86496649665,0,0
82.586849404997,-125.77104322423,28.669396939694,3688961.6592384,-930.98710863167,2606406.9272957,33.869396939694,0,0
82.586849829949,-125.78857281405,28.673827382738,3688961.6592384,-930.98710863167,2606406.9272957,33.873827382738,0,0
82.5868502549,-125.80610240386,28.678257825783,3688961.6592384,-930.98710863167,2606406.9272957,33.878257825783,0,0
82.586850679852,-125.82363199368,28.682688268827,3688961.6592384,-930.98710863167,2606406.9272957,33.882688268827,0,0
82.586851104804,-125.84116158349,28.687118711871,3688961.6592384,-930.98710863167,2606406.9272957,33.887118711871,0,0
82.586851529756,-125.8586911733,28.691549154915,3688961.6592384,-930.98710863167,2606406.9272957,33.891549154915,0,0
82.586851954708,-125.87622076312,28.69597959796,3688961.6592384,-930.98710863167,2606406.9272957,33.89597959796,0,0
82.58685237966,-125.89375035293,28.700410041004,3688961.6592384,-930.98710863167,2606406.9272957,33.900410041004,0,0
82.586852804612,-125.91127994275,28.704840484048,3688961.6592384,-930.98710863167,2606406.9272957,33.904840484048,0,0
82.586853229563,-125.92880953256,28.709270927093,3688961.6592384,-930.98710863167,2606406.9272957,33.909270927093,0,0
82.586853654515,-125.94633912238,28.713701370137,3688961.6592384,-930.98710863167,2606406.9272957,33.913701370137,0,0
82.586854079467,-125.96386871219,28.718131813181,3688961.6592384,-930.98710863167,2606406.9272957,33.918131813181,0,0
82.586854504419,-125.98139830201,28.722562256226,3688961.6592384,-930.98710863167,2606406.9272957,33.922562256226,0,0
82.586854929371,-125.99892789182,28.72699269927,3688961.6592384,-930.98710863167,2606406.9272957,33.92699269927,0,0
82.586855354323,-126.01645748164,28.731423142314,3688961.6592384,-930.98710863167,2606406.9272957,33.931423142314,0,0
82.586855779275,-126.03398707145,28.735853585359,3688961.6592384,-930.98710863167,2606406.9272957,33.935853585359,0,0
82.586856204226,-126.05151666127,28.740284028403,3688961.6592384,-930.98710863167,2606406.9272957,33.940284028403,0,0
82.586856629178,-126.06904625108,28.744714471447,3688961.6592384,-930.98710863167,2606406.9272957,33.944714471447,0,0
82.58685705413,-126.08657584089,28.749144914491,3688961.6592384,-930.98710863167,2606406.9272957,33.949144914491,0,0
82.586857479082,-126.10410543071,28.753575357536,3688961.6592384,-930.98710863167,2606406.9272957,33.953575357536,0,0
82.586857904034,-126.12163502052,28.75800580058,3688961.6592384,-930.98710863167,2606406.9272957,33.95800580058,0,0
82.586858328986,-126.13916461034,28.762436243624,3688961.6592384,-930.98710863167,2606406.9272957,33.962436243624,0,0
82.586858753938,-126.15669420015,28.766866686669,3688961.6592384,-930.98710863167,2606406.9272957,33.966866686669,0,0
82.586859178889,-126.17422378997,28.771297129713,3688961.6592384,-930.98710863167,2606406.9272957,33.971297129713,0,0
82.586859603841,-126.19175337978,28.775727572757,3688961.6592384,-930.98710863167,2606406.9272957,33.975727572757,0,0
82.586860028793,-126.2092829696,28.780158015802,3688961.6592384,-930.98710863167,2606406.9272957,33.980158015802,0,0
82.586860453745,-126.22681255941,28.784588458846,3688961.6592384,-930.98710863167,2606406.9272957,33.984588458846,0,0
82.586860878697,-126.24434214923,28.78901890189,3688961.6592384,-930.98710863167,2606406.9272957,33.98901890189,0,0
82.586861303649,-126.26187173904,28.793449344934,3688961.6592384,-930.98710863167,2606406.9272957,33.993449344934,0,0
82.586861728601,-126.27940132886,28.797879787979,3688961.6592384,-930.98710863167,2606406.9272957,33.997879787979,0,0
82.586862153552,-126.29693091867,28.802310231023,3688961.6592384,-930.98710863167,2606406.9272957,34.002310231023,0,0
82.586862578504,-126.31446050849,28.806740674067,3688961.6592384,-930.98710863167,2606406.9272957,34.006740674067,0,0
82.586863003456,-126.3319900983,28.811171117112,3688961.6592384,-930.98710863167,2606406.9272957,34.011171117112,0,0
82.586863428408,-126.34951968811,28.815601560156,3688961.6592384,-930.98710863167,2606406.9272957,34.015601560156,0,0
82.58686385336,-126.36704927793,28.8200320032,3688961.6592384,-930.98710863167,2606406.9272957,34.0200320032,0,0
82.586864278312,-126.38457886774,28.824462446245,3688961.6592384,-930.98710863167,2606406.9272957,34.024462446245,0,0
82.586864703264,-126.40210845756,28.828892889289,3688961.6592384,-930.98710863167,2606406.9272957,34.028892889289,0,0
82.586865128215,-126.41963804737,28.833323332333,3688961.6592384,-930.98710863167,2606406.9272957,34.033323332333,0,0
82.586865553167,-126.43716763719,28.837753775378,3688961.6592384,-930.98710863167,2606406.9272957,34.037753775378,0,0
82.586865978119,-126.454697227,28.842184218422,3688961.6592384,-930.98710863167,2606406.9272957,34.042184218422,0,0
82.586866403071,-126.47222681682,28.846614661466,3688961.6592384,-930.98710863167,2606406.9272957,34.046614661466,0,0
82.586866828023,-126.48975640663,28.85104510451,3688961.6592384,-930.98710863167,2606406.9272957,34.05104510451,0,0
82.586867252975,-126.50728599645,28.855475547555,3688961.6592384,-930.98710863167,2606406.9272957,34.055475547555,0,0
82.586867677927,-126.52481558626,28.859905990599,3688961.6592384,-930.98710863167,2606406.9272957,34.059905990599,0,0
82.586868102878,-126.54234517608,28.864336433643,3688961.6592384,-930.98710863167,2606406.9272957,34.064336433643,0,0
82.58686852783,-126.55987476589,28.868766876688,3688961.6592384,-930.98710863167,2606406.9272957,34.068766876688,0,0
82.586868952782,-126.57740435571,28.873197319732,3688961.6592384,-930.98710863167,2606406.9272957,34.073197319732,0,0
82.586869377734,-126.59493394552,28.877627762776,3688961.6592384,-930.98710863167,2606406.9272957,34.077627762776,0,0
82.586869802686,-126.61246353533,28.882058205821,3688961.6592384,-930.98710863167,2606406.9272957,34.082058205821,0,0
82.586870227638,-126.62999312515,28.886488648865,3688961.6592384,-930.98710863167,2606406.9272957,34.086488648865,0,0
82.58687065259,-126.64752271496,28.890919091909,3688961.6592384,-930.98710863167,2606406.9272957,34.090919091909,0,0
82.586871077541,-126.66505230478,28.895349534953,3688961.6592384,-930.98710863167,2606406.9272957,34.095349534953,0,0
82.586871502493,-126.68258189459,28.899779977998,3688961.6592384,-930.98710863167,2606406.9272957,34.099779977998,0,0
82.586871927445,-126.70011148441,28.904210421042,3688961.6592384,-930.98710863167,2606406.9272957,34.104210421042,0,0
82.586872352633,-126.71764107466,28.908640864086,3691071.1841068,-2400.3823637032,2601320.2011364,34.108640864086,0,0
82.586872777888,-126.73517066504,28.913071307131,3691071.1841068,-2400.3823637032,2601320.2011364,34.113071307131,0,0
82.586873203144,-126.75270025541,28.917501750175,3691071.1841068,-2400.3823637032,2601320.2011364,34.117501750175,0,0
82.5868736284,-126.77022984579,28.921932193219,3691071.1841068,-2400.3823637032,2601320.2011364,34.121932193219,0,0
82.586874053656,-126.78775943617,28.926362636264,3691071.1841068,-2400.3823637032,2601320.2011364,34.126362636264,0,0
82.586874478912,-126.80528902655,28.930793079308,3691071.1841068,-2400.3823637032,2601320.2011364,34.130793079308,0,0
82.586874904167,-126.82281861692,28.935223522352,3691071.1841068,-2400.3823637032,2601320.2011364,34.135223522352,0,0
82.586875329423,-126.8403482073,28.939653965397,3691071.1841068,-2400.3823637032,2601320.2011364,34.139653965397,0,0
82.586875754679,-126.85787779768,28.944084408441,3691071.1841068,-2400.3823637032,2601320.2011364,34.144084408441,0,0
82.586876179935,-126.87540738806,28.948514851485,3691071.1841068,-2400.3823637032,2601320.2011364,34.148514851485,0,0
82.586876605191,-126.89293697843,28.952945294529,3691071.1841068,-2400.3823637032,2601320.2011364,34.152945294529,0,0
82.586877030446,-126.91046656881,28.957375737574,3691071.1841068,-2400.3823637032,2601320.2011364,34.157375737574,0,0
82.586877455702,-126.92799615919,28.961806180618,3691071.1841068,-2400.3823637032,2601320.2011364,34.161806180618,0,0
82.586877880958,-126.94552574956,28.966236623662,3691071.1841068,-2400.3823637032,2601320.2011364,34.166236623662,0,0
82.586878306214,-126.96305533994,28.970667066707,3691071.1841068,-2400.3823637032,2601320.2011364,34.170667066707,0,0
82.586878731469,-126.98058493032,28.975097509751,3691071.1841068,-2400.3823637032,2601320.2011364,34.175097509751,0,0
82.586879156725,-126.9981145207,28.979527952795,3691071.1841068,-2400.3823637032,2601320.2011364,34.179527952795,0,0
82.586879581981,-127.01564411107,28.98395839584,3691071.1841068,-2400.3823637032,2601320.2011364,34.18395839584,0,0
82.586880007237,-127.03317370145,28.988388838884,3691071.1841068,-2400.3823637032,2601320.2011364,34.188388838884,0,0
82.586880432493,-127.05070329183,28.992819281928,3691071.1841068,-2400.3823637032,2601320.2011364,34.192819281928,0,0
82.586880857748,-127.06823288221,28.997249724972,3691071.1841068,-2400.3823637032,2601320.2011364,34.197249724972,0,0
82.586881283004,-127.08576247258,29.001680168017,3691071.1841068,-2400.3823637032,2601320.2011364,34.201680168017,0,0
82.58688170826,-127.10329206296,29.006110611061,3691071.1841068,-2400.3823637032,2601320.2011364,34.206110611061,0,0
82.586882133516,-127.12082165334,29.010541054105,3691071.1841068,-2400.3823637032,2601320.2011364,34.210541054105,0,0
82.586882558772,-127.13835124372,29.01497149715,3691071.1841068,-2400.3823637032,2601320.2011364,34.21497149715,0,0
82.586882984027,-127.15588083409,29.019401940194,3691071.1841068,-2400.3823637032,2601320.2011364,34.219401940194,0,0
82.586883409283,-127.17341042447,29.023832383238,3691071.1841068,-2400.3823637032,2601320.2011364,34.223832383238,0,0
82.586883834539,-127.19094001485,29.028262826283,3691071.1841068,-2400.3823637032,2601320.2011364,34.228262826283,0,0
82.586884259795,-127.20846960523,29.032693269327,3691071.1841068,-2400.3823637032,2601320.2011364,34.232693269327,0,0
82.586884685051,-127.2259991956,29.037123712371,3691071.1841068,-2400.3823637032,2601320.2011364,34.237123712371,0,0
82.586885110306,-127.24352878598,29.041554155416,3691071.1841068,-2400.3823637032,2601320.2011364,34.241554155416,0,0
82.586885535562,-127.26105837636,29.04598459846,3691071.1841068,-2400.3823637032,2601320.2011364,34.24598459846,0,0
82.586885960818,-127.27858796674,29.050415041504,3691071.1841068,-2400.3823637032,2601320.2011364,34.250415041504,0,0
82.586886386074,-127.29611755711,29.054845484548,3691071.1841068,-2400.3823637032,2601320.2011364,34.254845484548,0,0
82.58688681133,-127.31364714749,29.059275927593,3691071.1841068,-2400.3823637032,2601320.2011364,34.259275927593,0,0
82.586887236585,-127.33117673787,29.063706370637,3691071.1841068,-2400.3823637032,2601320.2011364,34.263706370637,0,0
82.586887661841,-127.34870632824,29.068136813681,3691071.1841068,-2400.3823637032,2601320.2011364,34.268136813681,0,0
82.586888087097,-127.36623591862,29.072567256726,3691071.1841068,-2400.3823637032,2601320.2011364,34.272567256726,0,0
82.586888512353,-127.383765509,29.07699769977,3691071.1841068,-2400.3823637032,2601320.2011364,34.27699769977,0,0
82.586888937609,-127.40129509938,29.081428142814,3691071.1841068,-2400.3823637032,2601320.2011364,34.281428142814,0,0
82.586889362864,-127.41882468975,29.085858585859,3691071.1841068,-2400.3823637032,2601320.2011364,34.285858585859,0,0
82.58688978812,-127.43635428013,29.090289028903,3691071.1841068,-2400.3823637032,2601320.2011364,34.290289028903,0,0
82.586890213376,-127.45388387051,29.094719471947,3691071.1841068,-2400.3823637032,2601320.2011364,34.294719471947,0,0
82.586890638632,-127.47141346089,29.099149914991,3691071.1841068,-2400.3823637032,2601320.2011364,34.299149914991,0,0
82.586891063887,-127.48894305126,29.103580358036,3691071.1841068,-2400.3823637032,2601320.2011364,34.303580358036,0,0
82.586891489143,-127.50647264164,29.10801080108,3691071.1841068,-2400.3823637032,2601320.2011364,34.30801080108,0,0
82.586891914399,-127.52400223202,29.112441244124,3691071.1841068,-2400.3823637032,2601320.2011364,34.312441244124,0,0
82.586892339655,-127.5415318224,29.116871687169,3691071.1841068,-2400.3823637032,2601320.2011364,34.316871687169,0,0
82.586892764911,-127.55906141277,29.121302130213,3691071.1841068,-2400.3823637032,2601320.2011364,34.321302130213,0,0
82.586893190166,-127.57659100315,29.125732573257,3691071.1841068,-2400.3823637032,2601320.2011364,34.325732573257,0,0
82.586893615422,-127.59412059353,29.130163016302,3691071.1841068,-2400.3823637032,2601320.2011364,34.330163016302,0,0
82.586894040678,-127.61165018391,29.134593459346,3691071.1841068,-2400.3823637032,2601320.2011364,34.334593459346,0,0
82.586894465934,-127.62917977428,29.13902390239,3691071.1841068,-2400.3823637032,2601320.2011364,34.33902390239,0,0
82.58689489119,-127.64670936466,29.143454345435,3691071.1841068,-2400.3823637032,2601320.2011364,34.343454345435,0,0
82.586895316445,-127.66423895504,29.147884788479,3691071.1841068,-2400.3823637032,2601320.2011364,34.347884788479,0,0
82.586895741701,-127.68176854542,29.152315231523,3691071.1841068,-2400.3823637032,2601320.2011364,34.352315231523,0,0
82.586896166957,-127.69929813579,29.156745674567,3691071.1841068,-2400.3823637032,2601320.2011364,34.356745674567,0,0
82.586896592213,-127.71682772617,29.161176117612,3691071.1841068,-2400.3823637032,2601320.2011364,34.361176117612,0,0
82.586897017469,-127.73435731655,29.165606560656,3691071.1841068,-2400.3823637032,2601320.2011364,34.365606560656,0,0
82.586897442724,-127.75188690693,29.1700370037,3691071.1841068,-2400.3823637032,2601320.2011364,34.3700370037,0,0
82.58689786798,-127.7694164973,29.174467446745,3691071.1841068,-2400.3823637032,2601320.2011364,34.374467446745,0,0
82.586898293236,-127.78694608768,29.178897889789,3691071.1841068,-2400.3823637032,2601320.2011364,34.378897889789,0,0
82.586898718492,-127.80447567806,29.183328332833,3691071.1841068,-2400.3823637032,2601320.2011364,34.383328332833,0,0
82.586899143748,-127.82200526843,29.187758775878,3691071.1841068,-2400.3823637032,2601320.2011364,34.387758775878,0,0
82.586899569003,-127.83953485881,29.192189218922,3691071.1841068,-2400.3823637032,2601320.2011364,34.392189218922,0,0
82.586899994259,-127.85706444919,29.196619661966,3691071.1841068,-2400.3823637032,2601320.2011364,34.396619661966,0,0
82.586900419515,-127.87459403957,29.20105010501,3691071.1841068,-2400.3823637032,2601320.2011364,34.40105010501,0,0
82.586900844771,-127.89212362994,29.205480548055,3691071.1841068,-2400.3823637032,2601320.2011364,34.405480548055,0,0
82.586901270026,-127.90965322032,29.209910991099,3691071.1841068,-2400.3823637032,2601320.2011364,34.409910991099,0,0
82.586901695282,-127.9271828107,29.214341434143,3691071.1841068,-2400.3823637032,2601320.2011364,34.414341434143,0,0
82.586902120538,-127.94471240108,29.218771877188,3691071.1841068,-2400.3823637032,2601320.2011364,34.418771877188,0,0
82.586902545794,-127.96224199145,29.223202320232,3691071.1841068,-2400.3823637032,2601320.2011364,34.423202320232,0,0
82.58690297105,-127.97977158183,29.227632763276,3691071.1841068,-2400.3823637032,2601320.2011364,34.427632763276,0,0
82.586903396305,-127.99730117221,29.232063206321,3691071.1841068,-2400.3823637032,2601320.2011364,34.432063206321,0,0
82.586903821561,-128.01483076259,29.236493649365,3691071.1841068,-2400.3823637032,2601320.2011364,34.436493649365,0,0
82.586904246817,-128.03236035296,29.240924092409,3691071.1841068,-2400.3823637032,2601320.2011364,34.440924092409,0,0
82.586904672073,-128.04988994334,29.245354535454,3691071.1841068,-2400.3823637032,2601320.2011364,34.445354535454,0,0
82.586905097329,-128.06741953372,29.249784978498,3691071.1841068,-2400.3823637032,2601320.2011364,34.449784978498,0,0
82.586905522584,-128.0849491241,29.254215421542,3691071.1841068,-2400.3823637032,2601320.2011364,34.454215421542,0,0
82.58690594784,-128.10247871447,29.258645864586,3691071.1841068,-2400.3823637032,2601320.2011364,34.458645864586,0,0
82.586906373096,-128.12000830485,29.263076307631,3691071.1841068,-2400.3823637032,2601320.2011364,34.463076307631,0,0
82.586906798352,-128.13753789523,29.267506750675,3691071.1841068,-2400.3823637032,2601320.2011364,34.467506750675,0,0
82.586907223608,-128.15506748561,29.271937193719,3691071.1841068,-2400.3823637032,2601320.2011364,34.471937193719,0,0
82.586907648863,-128.17259707598,29.276367636764,3691071.1841068,-2400.3823637032,2601320.2011364,34.476367636764,0,0
82.586908074119,-128.19012666636,29.280798079808,3691071.1841068,-2400.3823637032,2601320.2011364,34.480798079808,0,0
82.586908499375,-128.20765625674,29.285228522852,3691071.1841068,-2400.3823637032,2601320.2011364,34.485228522852,0,0
82.586908924631,-128.22518584712,29.289658965897,3691071.1841068,-2400.3823637032,2601320.2011364,34.489658965897,0,0
82.586909349887,-128.24271543749,29.294089408941,3691071.1841068,-2400.3823637032,2601320.2011364,34.494089408941,0,0
82.586909775142,-128.26024502787,29.298519851985,3691071.1841068,-2400.3823637032,2601320.2011364,34.498519851985,0,0
82.586910200398,-128.27777461825,29.30295029503,3691071.1841068,-2400.3823637032,2601320.2011364,34.502950295029,0,0
82.586910625654,-128.29530420862,29.307380738074,3691071.1841068,-2400.3823637032,2601320.2011364,34.507380738074,0,0
82.58691105091,-128.312833799,29.311811181118,3691071.1841068,-2400.3823637032,2601320.2011364,34.511811181118,0,0
82.586911476165,-128.33036338938,29.316241624162,3691071.1841068,-2400.3823637032,2601320.2011364,34.516241624162,0,0
82.586911901421,-128.34789297976,29.320672067207,3691071.1841068,-2400.3823637032,2601320.2011364,34.520672067207,0,0
82.586912326677,-128.36542257013,29.325102510251,3691071.1841068,-2400.3823637032,2601320.2011364,34.525102510251,0,0
82.586912751933,-128.38295216051,29.329532953295,3691071.1841068,-2400.3823637032,2601320.2011364,34.529532953295,0,0
82.586913177189,-128.40048175089,29.33396339634,3691071.1841068,-2400.3823637032,2601320.2011364,34.53396339634,0,0
82.586913602444,-128.41801134127,29.338393839384,3691071.1841068,-2400.3823637032,2601320.2011364,34.538393839384,0,0
82.5869140277,-128.43554093164,29.342824282428,3691071.1841068,-2400.3823637032,2601320.2011364,34.542824282428,0,0
82.586914452956,-128.45307052202,29.347254725473,3691071.1841068,-2400.3823637032,2601320.2011364,34.547254725473,0,0
82.586914878212,-128.4706001124,29.351685168517,3691071.1841068,-2400.3823637032,2601320.2011364,34.551685168517,0,0
82.586915303468,-128.48812970278,29.356115611561,3691071.1841068,-2400.3823637032,2601320.2011364,34.556115611561,0,0
82.586915728723,-128.50565929315,29.360546054605,3691071.1841068,-2400.3823637032,2601320.2011364,34.560546054605,0,0
82.586916153979,-128.52318888353,29.36497649765,3691071.1841068,-2400.3823637032,2601320.2011364,34.56497649765,0,0
82.586916579235,-128.54071847391,29.369406940694,3691071.1841068,-2400.3823637032,2601320.2011364,34.569406940694,0,0
82.586917004491,-128.55824806429,29.373837383738,3691071.1841068,-2400.3823637032,2601320.2011364,34.573837383738,0,0
82.586917429747,-128.57577765466,29.378267826783,3691071.1841068,-2400.3823637032,2601320.2011364,34.578267826783,0,0
82.586917855002,-128.59330724504,29.382698269827,3691071.1841068,-2400.3823637032,2601320.2011364,34.582698269827,0,0
82.586918280258,-128.61083683542,29.387128712871,3691071.1841068,-2400.3823637032,2601320.2011364,34.587128712871,0,0
82.586918705514,-128.6283664258,29.391559155916,3691071.1841068,-2400.3823637032,2601320.2011364,34.591559155916,0,0
82.58691913077,-128.64589601617,29.39598959896,3691071.1841068,-2400.3823637032,2601320.2011364,34.59598959896,0,0
82.586919556026,-128.66342560655,29.400420042004,3691071.1841068,-2400.3823637032,2601320.2011364,34.600420042004,0,0
82.586919981281,-128.68095519693,29.404850485049,3691071.1841068,-2400.3823637032,2601320.2011364,34.604850485049,0,0
82.586920406537,-128.6984847873,29.409280928093,3691071.1841068,-2400.3823637032,2601320.2011364,34.609280928093,0,0
82.586920831793,-128.71601437768,29.413711371137,3691071.1841068,-2400.3823637032,2601320.2011364,34.613711371137,0,0
82.586921257049,-128.73354396806,29.418141814181,3691071.1841068,-2400.3823637032,2601320.2011364,34.618141814181,0,0
82.586921682305,-128.75107355844,29.422572257226,3691071.1841068,-2400.3823637032,2601320.2011364,34.622572257226,0,0
82.58692210756,-128.76860314881,29.42700270027,3691071.1841068,-2400.3823637032,2601320.2011364,34.62700270027,0,0
82.586922532816,-128.78613273919,29.431433143314,3691071.1841068,-2400.3823637032,2601320.2011364,34.631433143314,0,0
82.586922958072,-128.80366232957,29.435863586359,3691071.1841068,-2400.3823637032,2601320.2011364,34.635863586359,0,0
82.586923383328,-128.82119191995,29.440294029403,3691071.1841068,-2400.3823637032,2601320.2011364,34.640294029403,0,0
82.586923808583,-128.83872151032,29.444724472447,3691071.1841068,-2400.3823637032,2601320.2011364,34.644724472447,0,0
82.586924233839,-128.8562511007,29.449154915492,3691071.1841068,-2400.3823637032,2601320.2011364,34.649154915492,0,0
82.586924659095,-128.87378069108,29.453585358536,3691071.1841068,-2400.3823637032,2601320.2011364,34.653585358536,0,0
82.586925084351,-128.89131028146,29.45801580158,3691071.1841068,-2400.3823637032,2601320.2011364,34.65801580158,0,0
82.586925509607,-128.90883987183,29.462446244624,3691071.1841068,-2400.3823637032,2601320.2011364,34.662446244624,0,0
82.586925934862,-128.92636946221,29.466876687669,3691071.1841068,-2400.3823637032,2601320.2011364,34.666876687669,0,0
82.586926360118,-128.94389905259,29.471307130713,3691071.1841068,-2400.3823637032,2601320.2011364,34.671307130713,0,0
82.586926785374,-128.96142864297,29.475737573757,3691071.1841068,-2400.3823637032,2601320.2011364,34.675737573757,0,0
82.58692721063,-128.97895823334,29.480168016802,3691071.1841068,-2400.3823637032,2601320.2011364,34.680168016802,0,0
82.586927635886,-128.99648782372,29.484598459846,3691071.1841068,-2400.3823637032,2601320.2011364,34.684598459846,0,0
82.586928061141,-129.0140174141,29.48902890289,3691071.1841068,-2400.3823637032,2601320.2011364,34.68902890289,0,0
82.586928486397,-129.03154700448,29.493459345935,3691071.1841068,-2400.3823637032,2601320.2011364,34.693459345935,0,0
82.586928911653,-129.04907659485,29.497889788979,3691071.1841068,-2400.3823637032,2601320.2011364,34.697889788979,0,0
82.586929336909,-129.06660618523,29.502320232023,3691071.1841068,-2400.3823637032,2601320.2011364,34.702320232023,0,0
82.586929762165,-129.08413577561,29.506750675068,3691071.1841068,-2400.3823637032,2601320.2011364,34.706750675068,0,0
82.58693018742,-129.10166536599,29.511181118112,3691071.1841068,-2400.3823637032,2601320.2011364,34.711181118112,0,0
82.586930612676,-129.11919495636,29.515611561156,3691071.1841068,-2400.3823637032,2601320.2011364,34.715611561156,0,0
82.586931037932,-129.13672454674,29.5200420042,3691071.1841068,-2400.3823637032,2601320.2011364,34.7200420042,0,0
82.586931463188,-129.15425413712,29.524472447245,3691071.1841068,-2400.3823637032,2601320.2011364,34.724472447245,0,0
82.586931888444,-129.17178372749,29.528902890289,3691071.1841068,-2400.3823637032,2601320.2011364,34.728902890289,0,0
82.586932313699,-129.18931331787,29.533333333333,3691071.1841068,-2400.3823637032,2601320.2011364,34.733333333333,0,0
82.586932738955,-129.20684290825,29.537763776378,3691071.1841068,-2400.3823637032,2601320.2011364,34.737763776378,0,0
82.586933164211,-129.22437249863,29.542194219422,3691071.1841068,-2400.3823637032,2601320.2011364,34.742194219422,0,0
82.586933589467,-129.241902089,29.546624662466,3691071.1841068,-2400.3823637032,2601320.2011364,34.746624662466,0,0
82.586934014722,-129.25943167938,29.551055105511,3691071.1841068,-2400.3823637032,2601320.2011364,34.751055105511,0,0
82.586934439978,-129.27696126976,29.555485548555,3691071.1841068,-2400.3823637032,2601320.2011364,34.755485548555,0,0
82.586934865234,-129.29449086014,29.559915991599,3691071.1841068,-2400.3823637032,2601320.2011364,34.759915991599,0,0
82.58693529049,-129.31202045051,29.564346434643,3691071.1841068,-2400.3823637032,2601320.2011364,34.764346434643,0,0
82.586935715746,-129.32955004089,29.568776877688,3691071.1841068,-2400.3823637032,2601320.2011364,34.768776877688,0,0
82.586936141001,-129.34707963127,29.573207320732,3691071.1841068,-2400.3823637032,2601320.2011364,34.773207320732,0,0
82.586936566257,-129.36460922165,29.577637763776,3691071.1841068,-2400.3823637032,2601320.2011364,34.777637763776,0,0
82.586936991513,-129.38213881202,29.582068206821,3691071.1841068,-2400.3823637032,2601320.2011364,34.782068206821,0,0
82.586937416769,-129.3996684024,29.586498649865,3691071.1841068,-2400.3823637032,2601320.2011364,34.786498649865,0,0
82.586937842025,-129.41719799278,29.590929092909,3691071.1841068,-2400.3823637032,2601320.2011364,34.790929092909,0,0
82.58693826728,-129.43472758316,29.595359535954,3691071.1841068,-2400.3823637032,2601320.2011364,34.795359535954,0,0
82.586938692536,-129.45225717353,29.599789978998,3691071.1841068,-2400.3823637032,2601320.2011364,34.799789978998,0,0
82.586939117792,-129.46978676391,29.604220422042,3691071.1841068,-2400.3823637032,2601320.2011364,34.804220422042,0,0
82.586939543048,-129.48731635429,29.608650865087,3691071.1841068,-2400.3823637032,2601320.2011364,34.808650865087,0,0
82.586939968304,-129.50484594467,29.613081308131,3691071.1841068,-2400.3823637032,2601320.2011364,34.813081308131,0,0
82.586940393559,-129.52237553504,29.617511751175,3691071.1841068,-2400.3823637032,2601320.2011364,34.817511751175,0,0
82.586940818815,-129.53990512542,29.621942194219,3691071.1841068,-2400.3823637032,2601320.2011364,34.821942194219,0,0
82.586941244071,-129.5574347158,29.626372637264,3691071.1841068,-2400.3823637032,2601320.2011364,34.826372637264,0,0
82.586941669327,-129.57496430617,29.630803080308,3691071.1841068,-2400.3823637032,2601320.2011364,34.830803080308,0,0
82.586942094583,-129.59249389655,29.635233523352,3691071.1841068,-2400.3823637032,2601320.2011364,34.835233523352,0,0
82.586942519838,-129.61002348693,29.639663966397,3691071.1841068,-2400.3823637032,2601320.2011364,34.839663966397,0,0
82.586942945094,-129.62755307731,29.644094409441,3691071.1841068,-2400.3823637032,2601320.2011364,34.844094409441,0,0
82.58694337035,-129.64508266768,29.648524852485,3691071.1841068,-2400.3823637032,2601320.2011364,34.848524852485,0,0
82.586943795606,-129.66261225806,29.65295529553,3691071.1841068,-2400.3823637032,2601320.2011364,34.85295529553,0,0
82.586944220861,-129.68014184844,29.657385738574,3691071.1841068,-2400.3823637032,2601320.2011364,34.857385738574,0,0
82.586944646117,-129.69767143882,29.661816181618,3691071.1841068,-2400.3823637032,2601320.2011364,34.861816181618,0,0
82.586945071373,-129.71520102919,29.666246624662,3691071.1841068,-2400.3823637032,2601320.2011364,34.866246624662,0,0
82.586945496704,-129.73273061953,29.670677067707,3701727.7014365,-2396.7210165666,2601600.9184696,34.870677067707,0,0
82.586945922803,-129.75026020944,29.675107510751,3701727.7014365,-2396.7210165666,2601600.9184696,34.875107510751,0,0
82.586946348903,-129.76778979934,29.679537953795,3701727.7014365,-2396.7210165666,2601600.9184696,34.879537953795,0,0
82.586946775002,-129.78531938925,29.68396839684,3701727.7014365,-2396.7210165666,2601600.9184696,34.88396839684,0,0
82.586947201102,-129.80284897916,29.688398839884,3701727.7014365,-2396.7210165666,2601600.9184696,34.888398839884,0,0
82.586947627201,-129.82037856907,29.692829282928,3701727.7014365,-2396.7210165666,2601600.9184696,34.892829282928,0,0
82.586948053301,-129.83790815897,29.697259725973,3701727.7014365,-2396.7210165666,2601600.9184696,34.897259725973,0,0
82.5869484794,-129.85543774888,29.701690169017,3701727.7014365,-2396.7210165666,2601600.9184696,34.901690169017,0,0
82.5869489055,-129.87296733879,29.706120612061,3701727.7014365,-2396.7210165666,2601600.9184696,34.906120612061,0,0
82.586949331599,-129.8904969287,29.710551055106,3701727.7014365,-2396.7210165666,2601600.9184696,34.910551055106,0,0
82.586949757699,-129.9080265186,29.71498149815,3701727.7014365,-2396.7210165666,2601600.9184696,34.91498149815,0,0
82.586950183798,-129.92555610851,29.719411941194,3701727.7014365,-2396.7210165666,2601600.9184696,34.919411941194,0,0
82.586950609898,-129.94308569842,29.723842384238,3701727.7014365,-2396.7210165666,2601600.9184696,34.923842384238,0,0
82.586951035997,-129.96061528833,29.728272827283,3701727.7014365,-2396.7210165666,2601600.9184696,34.928272827283,0,0
82.586951462097,-129.97814487823,29.732703270327,3701727.7014365,-2396.7210165666,2601600.9184696,34.932703270327,0,0
82.586951888196,-129.99567446814,29.737133713371,3701727.7014365,-2396.7210165666,2601600.9184696,34.937133713371,0,0
82.586952314296,-130.01320405805,29.741564156416,3701727.7014365,-2396.7210165666,2601600.9184696,34.941564156416,0,0
82.586952740395,-130.03073364796,29.74599459946,3701727.7014365,-2396.7210165666,2601600.9184696,34.94599459946,0,0
82.586953166495,-130.04826323786,29.750425042504,3701727.7014365,-2396.7210165666,2601600.9184696,34.950425042504,0,0
82.586953592594,-130.06579282777,29.754855485549,3701727.7014365,-2396.7210165666,2601600.9184696,34.954855485549,0,0
82.586954018694,-130.08332241768,29.759285928593,3701727.7014365,-2396.7210165666,2601600.9184696,34.959285928593,0,0
82.586954444793,-130.10085200759,29.763716371637,3701727.7014365,-2396.7210165666,2601600.9184696,34.963716371637,0,0
82.586954870893,-130.11838159749,29.768146814681,3701727.7014365,-2396.7210165666,2601600.9184696,34.968146814681,0,0
82.586955296992,-130.1359111874,29.772577257726,3701727.7014365,-2396.7210165666,2601600.9184696,34.972577257726,0,0
82.586955723092,-130.15344077731,29.77700770077,3701727.7014365,-2396.7210165666,2601600.9184696,34.97700770077,0,0
82.586956149191,-130.17097036722,29.781438143814,3701727.7014365,-2396.7210165666,2601600.9184696,34.981438143814,0,0
82.586956575291,-130.18849995712,29.785868586859,3701727.7014365,-2396.7210165666,2601600.9184696,34.985868586859,0,0
82.58695700139,-130.20602954703,29.790299029903,3701727.7014365,-2396.7210165666,2601600.9184696,34.990299029903,0,0
82.58695742749,-130.22355913694,29.794729472947,3701727.7014365,-2396.7210165666,2601600.9184696,34.994729472947,0,0
82.586957853589,-130.24108872685,29.799159915992,3701727.7014365,-2396.7210165666,2601600.9184696,34.999159915992,0,0
82.586958279689,-130.25861831675,29.803590359036,3701727.7014365,-2396.7210165666,2601600.9184696,35.003590359036,0,0
82.586958705789,-130.27614790666,29.80802080208,3701727.7014365,-2396.7210165666,2601600.9184696,35.00802080208,0,0
82.586959131888,-130.29367749657,29.812451245125,3701727.7014365,-2396.7210165666,2601600.9184696,35.012451245125,0,0
82.586959557988,-130.31120708648,29.816881688169,3701727.7014365,-2396.7210165666,2601600.9184696,35.016881688169,0,0
82.586959984087,-130.32873667638,29.821312131213,3701727.7014365,-2396.7210165666,2601600.9184696,35.021312131213,0,0
82.586960410187,-130.34626626629,29.825742574257,3701727.7014365,-2396.7210165666,2601600.9184696,35.025742574257,0,0
82.586960836286,-130.3637958562,29.830173017302,3701727.7014365,-2396.7210165666,2601600.9184696,35.030173017302,0,0
82.586961262386,-130.38132544611,29.834603460346,3701727.7014365,-2396.7210165666,2601600.9184696,35.034603460346,0,0
82.586961688485,-130.39885503601,29.83903390339,3701727.7014365,-2396.7210165666,2601600.9184696,35.03903390339,0,0
82.586962114585,-130.41638462592,29.843464346435,3701727.7014365,-2396.7210165666,2601600.9184696,35.043464346435,0,0
82.586962540684,-130.43391421583,29.847894789479,3701727.7014365,-2396.7210165666,2601600.9184696,35.047894789479,0,0
82.586962966784,-130.45144380574,29.852325232523,3701727.7014365,-2396.7210165666,2601600.9184696,35.052325232523,0,0
82.586963392883,-130.46897339564,29.856755675568,3701727.7014365,-2396.7210165666,2601600.9184696,35.056755675568,0,0
82.586963818983,-130.48650298555,29.861186118612,3701727.7014365,-2396.7210165666,2601600.9184696,35.061186118612,0,0
82.586964245082,-130.50403257546,29.865616561656,3701727.7014365,-2396.7210165666,2601600.9184696,35.065616561656,0,0
82.586964671182,-130.52156216537,29.8700470047,3701727.7014365,-2396.7210165666,2601600.9184696,35.0700470047,0,0
82.586965097281,-130.53909175527,29.874477447745,3701727.7014365,-2396.7210165666,2601600.9184696,35.074477447745,0,0
82.586965523381,-130.55662134518,29.878907890789,3701727.7014365,-2396.7210165666,2601600.9184696,35.078907890789,0,0
82.58696594948,-130.57415093509,29.883338333833,3701727.7014365,-2396.7210165666,2601600.9184696,35.083338333833,0,0
82.58696637558,-130.591680525,29.887768776878,3701727.7014365,-2396.7210165666,2601600.9184696,35.087768776878,0,0
82.586966801679,-130.6092101149,29.892199219922,3701727.7014365,-2396.7210165666,2601600.9184696,35.092199219922,0,0
82.586967227779,-130.62673970481,29.896629662966,3701727.7014365,-2396.7210165666,2601600.9184696,35.096629662966,0,0
82.586967653878,-130.64426929472,29.901060106011,3701727.7014365,-2396.7210165666,2601600.9184696,35.101060106011,0,0
82.586968079978,-130.66179888463,29.905490549055,3701727.7014365,-2396.7210165666,2601600.9184696,35.105490549055,0,0
82.586968506077,-130.67932847453,29.909920992099,3701727.7014365,-2396.7210165666,2601600.9184696,35.109920992099,0,0
82.586968932177,-130.69685806444,29.914351435144,3701727.7014365,-2396.7210165666,2601600.9184696,35.114351435144,0,0
82.586969358276,-130.71438765435,29.918781878188,3701727.7014365,-2396.7210165666,2601600.9184696,35.118781878188,0,0
82.586969784376,-130.73191724426,29.923212321232,3701727.7014365,-2396.7210165666,2601600.9184696,35.123212321232,0,0
82.586970210475,-130.74944683416,29.927642764276,3701727.7014365,-2396.7210165666,2601600.9184696,35.127642764276,0,0
82.586970636575,-130.76697642407,29.932073207321,3701727.7014365,-2396.7210165666,2601600.9184696,35.132073207321,0,0
82.586971062674,-130.78450601398,29.936503650365,3701727.7014365,-2396.7210165666,2601600.9184696,35.136503650365,0,0
82.586971488774,-130.80203560389,29.940934093409,3701727.7014365,-2396.7210165666,2601600.9184696,35.140934093409,0,0
82.586971914874,-130.81956519379,29.945364536454,3701727.7014365,-2396.7210165666,2601600.9184696,35.145364536454,0,0
82.586972340973,-130.8370947837,29.949794979498,3701727.7014365,-2396.7210165666,2601600.9184696,35.149794979498,0,0
82.586972767073,-130.85462437361,29.954225422542,3701727.7014365,-2396.7210165666,2601600.9184696,35.154225422542,0,0
82.586973193172,-130.87215396352,29.958655865587,3701727.7014365,-2396.7210165666,2601600.9184696,35.158655865587,0,0
82.586973619272,-130.88968355342,29.963086308631,3701727.7014365,-2396.7210165666,2601600.9184696,35.163086308631,0,0
82.586974045371,-130.90721314333,29.967516751675,3701727.7014365,-2396.7210165666,2601600.9184696,35.167516751675,0,0
82.586974471471,-130.92474273324,29.971947194719,3701727.7014365,-2396.7210165666,2601600.9184696,35.171947194719,0,0
82.58697489757,-130.94227232315,29.976377637764,3701727.7014365,-2396.7210165666,2601600.9184696,35.176377637764,0,0
82.58697532367,-130.95980191305,29.980808080808,3701727.7014365,-2396.7210165666,2601600.9184696,35.180808080808,0,0
82.586975749769,-130.97733150296,29.985238523852,3701727.7014365,-2396.7210165666,2601600.9184696,35.185238523852,0,0
82.586976175869,-130.99486109287,29.989668966897,3701727.7014365,-2396.7210165666,2601600.9184696,35.189668966897,0,0
82.586976601968,-131.01239068277,29.994099409941,3701727.7014365,-2396.7210165666,2601600.9184696,35.194099409941,0,0
82.586977028068,-131.02992027268,29.998529852985,3701727.7014365,-2396.7210165666,2601600.9184696,35.198529852985,0,0
82.586977454167,-131.04744986259,30.00296029603,3701727.7014365,-2396.7210165666,2601600.9184696,35.20296029603,0,0
82.586977880267,-131.0649794525,30.007390739074,3701727.7014365,-2396.7210165666,2601600.9184696,35.207390739074,0,0
82.586978306366,-131.0825090424,30.011821182118,3701727.7014365,-2396.7210165666,2601600.9184696,35.211821182118,0,0
82.586978732466,-131.10003863231,30.016251625163,3701727.7014365,-2396.7210165666,2601600.9184696,35.216251625163,0,0
82.586979158565,-131.11756822222,30.020682068207,3701727.7014365,-2396.7210165666,2601600.9184696,35.220682068207,0,0
82.586979584665,-131.13509781213,30.025112511251,3701727.7014365,-2396.7210165666,2601600.9184696,35.225112511251,0,0
82.586980010764,-131.15262740203,30.029542954295,3701727.7014365,-2396.7210165666,2601600.9184696,35.229542954295,0,0
82.586980436864,-131.17015699194,30.03397339734,3701727.7014365,-2396.7210165666,2601600.9184696,35.23397339734,0,0
82.586980862963,-131.18768658185,30.038403840384,3701727.7014365,-2396.7210165666,2601600.9184696,35.238403840384,0,0
82.586981289063,-131.20521617176,30.042834283428,3701727.7014365,-2396.7210165666,2601600.9184696,35.242834283428,0,0
82.586981715162,-131.22274576166,30.047264726473,3701727.7014365,-2396.7210165666,2601600.9184696,35.247264726473,0,0
82.586982141262,-131.24027535157,30.051695169517,3701727.7014365,-2396.7210165666,2601600.9184696,35.251695169517,0,0
82.586982567361,-131.25780494148,30.056125612561,3701727.7014365,-2396.7210165666,2601600.9184696,35.256125612561,0,0
82.586982993461,-131.27533453139,30.060556055606,3701727.7014365,-2396.7210165666,2601600.9184696,35.260556055606,0,0
82.58698341956,-131.29286412129,30.06498649865,3701727.7014365,-2396.7210165666,2601600.9184696,35.26498649865,0,0
82.58698384566,-131.3103937112,30.069416941694,3701727.7014365,-2396.7210165666,2601600.9184696,35.269416941694,0,0
82.586984271759,-131.32792330111,30.073847384738,3701727.7014365,-2396.7210165666,2601600.9184696,35.273847384738,0,0
82.586984697859,-131.34545289102,30.078277827783,3701727.7014365,-2396.7210165666,2601600.9184696,35.278277827783,0,0
82.586985123958,-131.36298248092,30.082708270827,3701727.7014365,-2396.7210165666,2601600.9184696,35.282708270827,0,0
82.586985550058,-131.38051207083,30.087138713871,3701727.7014365,-2396.7210165666,2601600.9184696,35.287138713871,0,0
82.586985976158,-131.39804166074,30.091569156916,3701727.7014365,-2396.7210165666,2601600.9184696,35.291569156916,0,0
82.586986402257,-131.41557125065,30.09599959996,3701727.7014365,-2396.7210165666,2601600.9184696,35.29599959996,0,0
82.586986828357,-131.43310084055,30.100430043004,3701727.7014365,-2396.7210165666,2601600.9184696,35.300430043004,0,0
82.586987254456,-131.45063043046,30.104860486049,3701727.7014365,-2396.7210165666,2601600.9184696,35.304860486049,0,0
82.586987680556,-131.46816002037,30.109290929093,3701727.7014365,-2396.7210165666,2601600.9184696,35.309290929093,0,0
82.586988106655,-131.48568961028,30.113721372137,3701727.7014365,-2396.7210165666,2601600.9184696,35.313721372137,0,0
82.586988532755,-131.50321920018,30.118151815182,3701727.7014365,-2396.7210165666,2601600.9184696,35.318151815182,0,0
82.586988958854,-131.52074879009,30.122582258226,3701727.7014365,-2396.7210165666,2601600.9184696,35.322582258226,0,0
82.586989384954,-131.53827838,30.12701270127,3701727.7014365,-2396.7210165666,2601600.9184696,35.32701270127,0,0
82.586989811053,-131.55580796991,30.131443144314,3701727.7014365,-2396.7210165666,2601600.9184696,35.331443144314,0,0
82.586990237153,-131.57333755981,30.135873587359,3701727.7014365,-2396.7210165666,2601600.9184696,35.335873587359,0,0
82.586990663252,-131.59086714972,30.140304030403,3701727.7014365,-2396.7210165666,2601600.9184696,35.340304030403,0,0
82.586991089352,-131.60839673963,30.144734473447,3701727.7014365,-2396.7210165666,2601600.9184696,35.344734473447,0,0
82.586991515451,-131.62592632954,30.149164916492,3701727.7014365,-2396.7210165666,2601600.9184696,35.349164916492,0,0
82.586991941551,-131.64345591944,30.153595359536,3701727.7014365,-2396.7210165666,2601600.9184696,35.353595359536,0,0
82.58699236765,-131.66098550935,30.15802580258,3701727.7014365,-2396.7210165666,2601600.9184696,35.35802580258,0,0
82.58699279375,-131.67851509926,30.162456245625,3701727.7014365,-2396.7210165666,2601600.9184696,35.362456245625,0,0
82.586993219849,-131.69604468917,30.166886688669,3701727.7014365,-2396.7210165666,2601600.9184696,35.366886688669,0,0
82.586993645949,-131.71357427907,30.171317131713,3701727.7014365,-2396.7210165666,2601600.9184696,35.371317131713,0,0
82.586994072048,-131.73110386898,30.175747574757,3701727.7014365,-2396.7210165666,2601600.9184696,35.375747574757,0,0
82.586994498148,-131.74863345889,30.180178017802,3701727.7014365,-2396.7210165666,2601600.9184696,35.380178017802,0,0
82.586994924247,-131.7661630488,30.184608460846,3701727.7014365,-2396.7210165666,2601600.9184696,35.384608460846,0,0
82.586995350347,-131.7836926387,30.18903890389,3701727.7014365,-2396.7210165666,2601600.9184696,35.38903890389,0,0
82.586995776446,-131.80122222861,30.193469346935,3701727.7014365,-2396.7210165666,2601600.9184696,35.393469346935,0,0
82.586996202546,-131.81875181852,30.197899789979,3701727.7014365,-2396.7210165666,2601600.9184696,35.397899789979,0,0
82.586996628645,-131.83628140843,30.202330233023,3701727.7014365,-2396.7210165666,2601600.9184696,35.402330233023,0,0
82.586997054745,-131.85381099833,30.206760676068,3701727.7014365,-2396.7210165666,2601600.9184696,35.406760676068,0,0
82.586997480844,-131.87134058824,30.211191119112,3701727.7014365,-2396.7210165666,2601600.9184696,35.411191119112,0,0
82.586997906944,-131.88887017815,30.215621562156,3701727.7014365,-2396.7210165666,2601600.9184696,35.415621562156,0,0
82.586998333043,-131.90639976806,30.220052005201,3701727.7014365,-2396.7210165666,2601600.9184696,35.420052005201,0,0
82.586998759143,-131.92392935796,30.224482448245,3701727.7014365,-2396.7210165666,2601600.9184696,35.424482448245,0,0
82.586999185243,-131.94145894787,30.228912891289,3701727.7014365,-2396.7210165666,2601600.9184696,35.428912891289,0,0
82.586999611342,-131.95898853778,30.233343334333,3701727.7014365,-2396.7210165666,2601600.9184696,35.433343334333,0,0
82.587000037442,-131.97651812769,30.237773777378,3701727.7014365,-2396.7210165666,2601600.9184696,35.437773777378,0,0
82.587000463541,-131.99404771759,30.242204220422,3701727.7014365,-2396.7210165666,2601600.9184696,35.442204220422,0,0
82.587000889641,-132.0115773075,30.246634663466,3701727.7014365,-2396.7210165666,2601600.9184696,35.446634663466,0,0
82.58700131574,-132.02910689741,30.251065106511,3701727.7014365,-2396.7210165666,2601600.9184696,35.451065106511,0,0
82.58700174184,-132.04663648732,30.255495549555,3701727.7014365,-2396.7210165666,2601600.9184696,35.455495549555,0,0
82.587002167939,-132.06416607722,30.259925992599,3701727.7014365,-2396.7210165666,2601600.9184696,35.459925992599,0,0
82.587002594039,-132.08169566713,30.264356435644,3701727.7014365,-2396.7210165666,2601600.9184696,35.464356435644,0,0
82.587003020138,-132.09922525704,30.268786878688,3701727.7014365,-2396.7210165666,2601600.9184696,35.468786878688,0,0
82.587003446238,-132.11675484695,30.273217321732,3701727.7014365,-2396.7210165666,2601600.9184696,35.473217321732,0,0
82.587003872337,-132.13428443685,30.277647764776,3701727.7014365,-2396.7210165666,2601600.9184696,35.477647764776,0,0
82.587004298437,-132.15181402676,30.282078207821,3701727.7014365,-2396.7210165666,2601600.9184696,35.482078207821,0,0
82.587004724536,-132.16934361667,30.286508650865,3701727.7014365,-2396.7210165666,2601600.9184696,35.486508650865,0,0
82.587005150636,-132.18687320658,30.290939093909,3701727.7014365,-2396.7210165666,2601600.9184696,35.490939093909,0,0
82.587005576735,-132.20440279648,30.295369536954,3701727.7014365,-2396.7210165666,2601600.9184696,35.495369536954,0,0
82.587006002835,-132.22193238639,30.299799979998,3701727.7014365,-2396.7210165666,2601600.9184696,35.499799979998,0,0
82.587006428934,-132.2394619763,30.304230423042,3701727.7014365,-2396.7210165666,2601600.9184696,35.504230423042,0,0
82.587006855034,-132.25699156621,30.308660866087,3701727.7014365,-2396.7210165666,2601600.9184696,35.508660866087,0,0
82.587007281133,-132.27452115611,30.313091309131,3701727.7014365,-2396.7210165666,2601600.9184696,35.513091309131,0,0
82.587007707233,-132.29205074602,30.317521752175,3701727.7014365,-2396.7210165666,2601600.9184696,35.517521752175,0,0
82.587008133332,-132.30958033593,30.32195219522,3701727.7014365,-2396.7210165666,2601600.9184696,35.52195219522,0,0
82.587008559432,-132.32710992583,30.326382638264,3701727.7014365,-2396.7210165666,2601600.9184696,35.526382638264,0,0
82.587008985531,-132.34463951574,30.330813081308,3701727.7014365,-2396.7210165666,2601600.9184696,35.530813081308,0,0
82.587009411631,-132.36216910565,30.335243524352,3701727.7014365,-2396.7210165666,2601600.9184696,35.535243524352,0,0
82.58700983773,-132.37969869556,30.339673967397,3701727.7014365,-2396.7210165666,2601600.9184696,35.539673967397,0,0
82.58701026383,-132.39722828546,30.344104410441,3701727.7014365,-2396.7210165666,2601600.9184696,35.544104410441,0,0
82.587010689929,-132.41475787537,30.348534853485,3701727.7014365,-2396.7210165666,2601600.9184696,35.548534853485,0,0
82.587011116029,-132.43228746528,30.35296529653,3701727.7014365,-2396.7210165666,2601600.9184696,35.55296529653,0,0
82.587011542128,-132.44981705519,30.357395739574,3701727.7014365,-2396.7210165666,2601600.9184696,35.557395739574,0,0
82.587011968228,-132.46734664509,30.361826182618,3701727.7014365,-2396.7210165666,2601600.9184696,35.561826182618,0,0
82.587012394327,-132.484876235,30.366256625663,3701727.7014365,-2396.7210165666,2601600.9184696,35.566256625663,0,0
82.587012820427,-132.50240582491,30.370687068707,3701727.7014365,-2396.7210165666,2601600.9184696,35.570687068707,0,0
82.587013246527,-132.51993541482,30.375117511751,3701727.7014365,-2396.7210165666,2601600.9184696,35.575117511751,0,0
82.587013672626,-132.53746500472,30.379547954795,3701727.7014365,-2396.7210165666,2601600.9184696,35.579547954795,0,0
82.587014098726,-132.55499459463,30.38397839784,3701727.7014365,-2396.7210165666,2601600.9184696,35.58397839784,0,0
82.587014524825,-132.57252418454,30.388408840884,3701727.7014365,-2396.7210165666,2601600.9184696,35.588408840884,0,0
82.587014950925,-132.59005377445,30.392839283928,3701727.7014365,-2396.7210165666,2601600.9184696,35.592839283928,0,0
82.587015377024,-132.60758336435,30.397269726973,3701727.7014365,-2396.7210165666,2601600.9184696,35.597269726973,0,0
82.587015803124,-132.62511295426,30.401700170017,3701727.7014365,-2396.7210165666,2601600.9184696,35.601700170017,0,0
82.587016229223,-132.64264254417,30.406130613061,3701727.7014365,-2396.7210165666,2601600.9184696,35.606130613061,0,0
82.587016655323,-132.66017213408,30.410561056106,3701727.7014365,-2396.7210165666,2601600.9184696,35.610561056106,0,0
82.587017081422,-132.67770172398,30.41499149915,3701727.7014365,-2396.7210165666,2601600.9184696,35.61499149915,0,0
82.587017507522,-132.69523131389,30.419421942194,3701727.7014365,-2396.7210165666,2601600.9184696,35.619421942194,0,0
82.587017933621,-132.7127609038,30.423852385239,3701727.7014365,-2396.7210165666,2601600.9184696,35.623852385239,0,0
82.587018359721,-132.73029049371,30.428282828283,3701727.7014365,-2396.7210165666,2601600.9184696,35.628282828283,0,0
82.58701878582,-132.74782008361,30.432713271327,3701727.7014365,-2396.7210165666,2601600.9184696,35.632713271327,0,0
82.58701921192,-132.76534967352,30.437143714371,3701727.7014365,-2396.7210165666,2601600.9184696,35.637143714371,0,0
82.587019638019,-132.78287926343,30.441574157416,3701727.7014365,-2396.7210165666,2601600.9184696,35.641574157416,0,0
82.587020064119,-132.80040885334,30.44600460046,3701727.7014365,-2396.7210165666,2601600.9184696,35.64600460046,0,0
82.587020490218,-132.81793844324,30.450435043504,3701727.7014365,-2396.7210165666,2601600.9184696,35.650435043504,0,0
82.587020916318,-132.83546803315,30.454865486549,3701727.7014365,-2396.7210165666,2601600.9184696,35.654865486549,0,0
82.587021342417,-132.85299762306,30.459295929593,3701727.7014365,-2396.7210165666,2601600.9184696,35.659295929593,0,0
82.587021768517,-132.87052721297,30.463726372637,3701727.7014365,-2396.7210165666,2601600.9184696,35.663726372637,0,0
82.587022194616,-132.88805680287,30.468156815682,3701727.7014365,-2396.7210165666,2601600.9184696,35.668156815682,0,0
82.587022620716,-132.90558639278,30.472587258726,3701727.7014365,-2396.7210165666,2601600.9184696,35.672587258726,0,0
82.587023046815,-132.92311598269,30.47701770177,3701727.7014365,-2396.7210165666,2601600.9184696,35.67701770177,0,0
82.587023472915,-132.9406455726,30.481448144814,3701727.7014365,-2396.7210165666,2601600.9184696,35.681448144814,0,0
82.587023899014,-132.9581751625,30.485878587859,3701727.7014365,-2396.7210165666,2601600.9184696,35.685878587859,0,0
82.587024325114,-132.97570475241,30.490309030903,3701727.7014365,-2396.7210165666,2601600.9184696,35.690309030903,0,0
82.587024751213,-132.99323434232,30.494739473947,3701727.7014365,-2396.7210165666,2601600.9184696,35.694739473947,0,0
82.587025177313,-133.01076393223,30.499169916992,3701727.7014365,-2396.7210165666,2601600.9184696,35.699169916992,0,0
82.587025603412,-133.02829352213,30.503600360036,3701727.7014365,-2396.7210165666,2601600.9184696,35.703600360036,0,0
82.587026029512,-133.04582311204,30.50803080308,3701727.7014365,-2396.7210165666,2601600.9184696,35.70803080308,0,0
82.587026455611,-133.06335270195,30.512461246125,3701727.7014365,-2396.7210165666,2601600.9184696,35.712461246125,0,0
82.587026881711,-133.08088229186,30.516891689169,3701727.7014365,-2396.7210165666,2601600.9184696,35.716891689169,0,0
82.587027307811,-133.09841188176,30.521322132213,3701727.7014365,-2396.7210165666,2601600.9184696,35.721322132213,0,0
82.58702773391,-133.11594147167,30.525752575258,3701727.7014365,-2396.7210165666,2601600.9184696,35.725752575258,0,0
82.58702816001,-133.13347106158,30.530183018302,3701727.7014365,-2396.7210165666,2601600.9184696,35.730183018302,0,0
82.587028586109,-133.15100065149,30.534613461346,3701727.7014365,-2396.7210165666,2601600.9184696,35.734613461346,0,0
82.587029012209,-133.16853024139,30.53904390439,3701727.7014365,-2396.7210165666,2601600.9184696,35.73904390439,0,0
82.587029438308,-133.1860598313,30.543474347435,3701727.7014365,-2396.7210165666,2601600.9184696,35.743474347435,0,0
82.587029864408,-133.20358942121,30.547904790479,3701727.7014365,-2396.7210165666,2601600.9184696,35.747904790479,0,0
82.587030290507,-133.22111901112,30.552335233523,3701727.7014365,-2396.7210165666,2601600.9184696,35.752335233523,0,0
82.587030716607,-133.23864860102,30.556765676568,3701727.7014365,-2396.7210165666,2601600.9184696,35.756765676568,0,0
82.587031142706,-133.25617819093,30.561196119612,3701727.7014365,-2396.7210165666,2601600.9184696,35.761196119612,0,0
82.587031568806,-133.27370778084,30.565626562656,3701727.7014365,-2396.7210165666,2601600.9184696,35.765626562656,0,0
82.587031994905,-133.29123737075,30.570057005701,3701727.7014365,-2396.7210165666,2601600.9184696,35.770057005701,0,0
82.587032421005,-133.30876696065,30.574487448745,3701727.7014365,-2396.7210165666,2601600.9184696,35.774487448745,0,0
82.587032847104,-133.32629655056,30.578917891789,3701727.7014365,-2396.7210165666,2601600.9184696,35.778917891789,0,0
82.587033273204,-133.34382614047,30.583348334833,3701727.7014365,-2396.7210165666,2601600.9184696,35.783348334833,0,0
82.587033699303,-133.36135573038,30.587778777878,3701727.7014365,-2396.7210165666,2601600.9184696,35.787778777878,0,0
82.587034125403,-133.37888532028,30.592209220922,3701727.7014365,-2396.7210165666,2601600.9184696,35.792209220922,0,0
82.587034551502,-133.39641491019,30.596639663966,3701727.7014365,-2396.7210165666,2601600.9184696,35.796639663966,0,0
82.587034977602,-133.4139445001,30.601070107011,3701727.7014365,-2396.7210165666,2601600.9184696,35.801070107011,0,0
82.587035403701,-133.43147409001,30.605500550055,3701727.7014365,-2396.7210165666,2601600.9184696,35.805500550055,0,0
82.587035829801,-133.44900367991,30.609930993099,3701727.7014365,-2396.7210165666,2601600.9184696,35.809930993099,0,0
82.5870362559,-133.46653326982,30.614361436144,3701727.7014365,-2396.7210165666,2601600.9184696,35.814361436144,0,0
82.587036682,-133.48406285973,30.618791879188,3701727.7014365,-2396.7210165666,2601600.9184696,35.818791879188,0,0
82.587037108099,-133.50159244964,30.623222322232,3701727.7014365,-2396.7210165666,2601600.9184696,35.823222322232,0,0
82.587037534199,-133.51912203954,30.627652765277,3701727.7014365,-2396.7210165666,2601600.9184696,35.827652765277,0,0
82.587037960298,-133.53665162945,30.632083208321,3701727.7014365,-2396.7210165666,2601600.9184696,35.832083208321,0,0
82.587038386398,-133.55418121936,30.636513651365,3701727.7014365,-2396.7210165666,2601600.9184696,35.836513651365,0,0
82.587038812497,-133.57171080926,30.640944094409,3701727.7014365,-2396.7210165666,2601600.9184696,35.840944094409,0,0
82.587039238597,-133.58924039917,30.645374537454,3701727.7014365,-2396.7210165666,2601600.9184696,35.845374537454,0,0
82.587039664696,-133.60676998908,30.649804980498,3701727.7014365,-2396.7210165666,2601600.9184696,35.849804980498,0,0
82.587040090796,-133.62429957899,30.654235423542,3701727.7014365,-2396.7210165666,2601600.9184696,35.854235423542,0,0
82.587040516896,-133.64182916889,30.658665866587,3701727.7014365,-2396.7210165666,2601600.9184696,35.858665866587,0,0
82.587040942995,-133.6593587588,30.663096309631,3701727.7014365,-2396.7210165666,2601600.9184696,35.863096309631,0,0
82.587041369095,-133.67688834871,30.667526752675,3701727.7014365,-2396.7210165666,2601600.9184696,35.867526752675,0,0
82.587041795194,-133.69441793862,30.67195719572,3701727.7014365,-2396.7210165666,2601600.9184696,35.87195719572,0,0
82.587042221294,-133.71194752852,30.676387638764,3701727.7014365,-2396.7210165666,2601600.9184696,35.876387638764,0,0
82.587042647393,-133.72947711843,30.680818081808,3701727.7014365,-2396.7210165666,2601600.9184696,35.880818081808,0,0
82.587043073493,-133.74700670834,30.685248524852,3701727.7014365,-2396.7210165666,2601600.9184696,35.885248524852,0,0
82.587043499592,-133.76453629825,30.689678967897,3701727.7014365,-2396.7210165666,2601600.9184696,35.889678967897,0,0
82.587043925692,-133.78206588815,30.694109410941,3701727.7014365,-2396.7210165666,2601600.9184696,35.894109410941,0,0
82.587044351791,-133.79959547806,30.698539853985,3701727.7014365,-2396.7210165666,2601600.9184696,35.898539853985,0,0
82.587044777891,-133.81712506797,30.70297029703,3701727.7014365,-2396.7210165666,2601600.9184696,35.90297029703,0,0
82.58704520399,-133.83465465788,30.707400740074,3701727.7014365,-2396.7210165666,2601600.9184696,35.907400740074,0,0
82.58704563009,-133.85218424778,30.711831183118,3701727.7014365,-2396.7210165666,2601600.9184696,35.911831183118,0,0
82.587046056189,-133.86971383769,30.716261626163,3701727.7014365,-2396.7210165666,2601600.9184696,35.916261626163,0,0
82.587046482289,-133.8872434276,30.720692069207,3701727.7014365,-2396.7210165666,2601600.9184696,35.920692069207,0,0
82.587046908388,-133.90477301751,30.725122512251,3701727.7014365,-2396.7210165666,2601600.9184696,35.925122512251,0,0
82.587047334488,-133.92230260741,30.729552955296,3701727.7014365,-2396.7210165666,2601600.9184696,35.929552955296,0,0
82.587047760587,-133.93983219732,30.73398339834,3701727.7014365,-2396.7210165666,2601600.9184696,35.93398339834,0,0
82.587048186687,-133.95736178723,30.738413841384,3701727.7014365,-2396.7210165666,2601600.9184696,35.938413841384,0,0
82.587048612786,-133.97489137714,30.742844284428,3701727.7014365,-2396.7210165666,2601600.9184696,35.942844284428,0,0
82.587049038886,-133.99242096704,30.747274727473,3701727.7014365,-2396.7210165666,2601600.9184696,35.947274727473,0,0
82.587049464985,-134.00995055695,30.751705170517,3701727.7014365,-2396.7210165666,2601600.9184696,35.951705170517,0,0
82.587049891085,-134.02748014686,30.756135613561,3701727.7014365,-2396.7210165666,2601600.9184696,35.956135613561,0,0
82.587050317184,-134.04500973677,30.760566056606,3701727.7014365,-2396.7210165666,2601600.9184696,35.960566056606,0,0
82.587050743284,-134.06253932667,30.76499649965,3701727.7014365,-2396.7210165666,2601600.9184696,35.96499649965,0,0
82.587051169383,-134.08006891658,30.769426942694,3701727.7014365,-2396.7210165666,2601600.9184696,35.969426942694,0,0
82.587051595483,-134.09759850649,30.773857385739,3701727.7014365,-2396.7210165666,2601600.9184696,35.973857385739,0,0
82.587052021582,-134.1151280964,30.778287828783,3701727.7014365,-2396.7210165666,2601600.9184696,35.978287828783,0,0
82.587052447682,-134.1326576863,30.782718271827,3701727.7014365,-2396.7210165666,2601600.9184696,35.982718271827,0,0
82.587052873781,-134.15018727621,30.787148714871,3701727.7014365,-2396.7210165666,2601600.9184696,35.987148714871,0,0
82.587053299881,-134.16771686612,30.791579157916,3701727.7014365,-2396.7210165666,2601600.9184696,35.991579157916,0,0
82.58705372598,-134.18524645603,30.79600960096,3701727.7014365,-2396.7210165666,2601600.9184696,35.99600960096,0,0
82.58705415208,-134.20277604593,30.800440044004,3701727.7014365,-2396.7210165666,2601600.9184696,36.000440044004,0,0
82.58705457818,-134.22030563584,30.804870487049,3701727.7014365,-2396.7210165666,2601600.9184696,36.004870487049,0,0
82.587055004279,-134.23783522575,30.809300930093,3701727.7014365,-2396.7210165666,2601600.9184696,36.009300930093,0,0
82.587055430379,-134.25536481566,30.813731373137,3701727.7014365,-2396.7210165666,2601600.9184696,36.013731373137,0,0
82.587055856478,-134.27289440556,30.818161816182,3701727.7014365,-2396.7210165666,2601600.9184696,36.018161816182,0,0
82.587056282578,-134.29042399547,30.822592259226,3701727.7014365,-2396.7210165666,2601600.9184696,36.022592259226,0,0
82.587056708677,-134.30795358538,30.82702270227,3701727.7014365,-2396.7210165666,2601600.9184696,36.02702270227,0,0
82.587057134777,-134.32548317529,30.831453145315,3701727.7014365,-2396.7210165666,2601600.9184696,36.031453145315,0,0
82.587057560876,-134.34301276519,30.835883588359,3701727.7014365,-2396.7210165666,2601600.9184696,36.035883588359,0,0
82.587057986976,-134.3605423551,30.840314031403,3701727.7014365,-2396.7210165666,2601600.9184696,36.040314031403,0,0
82.587058413075,-134.37807194501,30.844744474447,3701727.7014365,-2396.7210165666,2601600.9184696,36.044744474447,0,0
82.587058839175,-134.39560153492,30.849174917492,3701727.7014365,-2396.7210165666,2601600.9184696,36.049174917492,0,0
82.587059265274,-134.41313112482,30.853605360536,3701727.7014365,-2396.7210165666,2601600.9184696,36.053605360536,0,0
82.587059691374,-134.43066071473,30.85803580358,3701727.7014365,-2396.7210165666,2601600.9184696,36.05803580358,0,0
82.587060117473,-134.44819030464,30.862466246625,3701727.7014365,-2396.7210165666,2601600.9184696,36.062466246625,0,0
82.587060543573,-134.46571989455,30.866896689669,3701727.7014365,-2396.7210165666,2601600.9184696,36.066896689669,0,0
82.587060969672,-134.48324948445,30.871327132713,3701727.7014365,-2396.7210165666,2601600.9184696,36.071327132713,0,0
82.587061395772,-134.50077907436,30.875757575758,3701727.7014365,-2396.7210165666,2601600.9184696,36.075757575758,0,0
82.587061821871,-134.51830866427,30.880188018802,3701727.7014365,-2396.7210165666,2601600.9184696,36.080188018802,0,0
82.587062247971,-134.53583825418,30.884618461846,3701727.7014365,-2396.7210165666,2601600.9184696,36.084618461846,0,0
82.58706267407,-134.55336784408,30.88904890489,3701727.7014365,-2396.7210165666,2601600.9184696,36.08904890489,0,0
82.58706310017,-134.57089743399,30.893479347935,3701727.7014365,-2396.7210165666,2601600.9184696,36.093479347935,0,0
82.587063526269,-134.5884270239,30.897909790979,3701727.7014365,-2396.7210165666,2601600.9184696,36.097909790979,0,0
82.587063952369,-134.60595661381,30.902340234023,3701727.7014365,-2396.7210165666,2601600.9184696,36.102340234023,0,0
82.587064378468,-134.62348620371,30.906770677068,3701727.7014365,-2396.7210165666,2601600.9184696,36.106770677068,0,0
82.587064804568,-134.64101579362,30.911201120112,3701727.7014365,-2396.7210165666,2601600.9184696,36.111201120112,0,0
82.587065230667,-134.65854538353,30.915631563156,3701727.7014365,-2396.7210165666,2601600.9184696,36.115631563156,0,0
82.587065656767,-134.67607497344,30.920062006201,3701727.7014365,-2396.7210165666,2601600.9184696,36.120062006201,0,0
82.587066082866,-134.69360456334,30.924492449245,3701727.7014365,-2396.7210165666,2601600.9184696,36.124492449245,0,0
82.587066508966,-134.71113415325,30.928922892289,3701727.7014365,-2396.7210165666,2601600.9184696,36.128922892289,0,0
82.587066935065,-134.72866374316,30.933353335334,3701727.7014365,-2396.7210165666,2601600.9184696,36.133353335334,0,0
82.587067361165,-134.74619333307,30.937783778378,3701727.7014365,-2396.7210165666,2601600.9184696,36.137783778378,0,0
82.587067787265,-134.76372292297,30.942214221422,3701727.7014365,-2396.7210165666,2601600.9184696,36.142214221422,0,0
82.587068213364,-134.78125251288,30.946644664466,3701727.7014365,-2396.7210165666,2601600.9184696,36.146644664466,0,0
82.587068639464,-134.79878210279,30.951075107511,3701727.7014365,-2396.7210165666,2601600.9184696,36.151075107511,0,0
82.587069065563,-134.8163116927,30.955505550555,3701727.7014365,-2396.7210165666,2601600.9184696,36.155505550555,0,0
82.587069491663,-134.8338412826,30.959935993599,3701727.7014365,-2396.7210165666,2601600.9184696,36.159935993599,0,0
82.587069917762,-134.85137087251,30.964366436644,3701727.7014365,-2396.7210165666,2601600.9184696,36.164366436644,0,0
82.587070343862,-134.86890046242,30.968796879688,3701727.7014365,-2396.7210165666,2601600.9184696,36.168796879688,0,0
82.587070769961,-134.88643005232,30.973227322732,3701727.7014365,-2396.7210165666,2601600.9184696,36.173227322732,0,0
82.587071196061,-134.90395964223,30.977657765777,3701727.7014365,-2396.7210165666,2601600.9184696,36.177657765777,0,0
82.58707162216,-134.92148923214,30.982088208821,3701727.7014365,-2396.7210165666,2601600.9184696,36.182088208821,0,0
82.58707204826,-134.93901882205,30.986518651865,3701727.7014365,-2396.7210165666,2601600.9184696,36.186518651865,0,0
82.587072474359,-134.95654841195,30.990949094909,3701727.7014365,-2396.7210165666,2601600.9184696,36.190949094909,0,0
82.587072900459,-134.97407800186,30.995379537954,3701727.7014365,-2396.7210165666,2601600.9184696,36.195379537954,0,0
82.587073326558,-134.99160759177,30.999809980998,3701727.7014365,-2396.7210165666,2601600.9184696,36.199809980998,0,0
82.587073752658,-135.00913718168,31.004240424042,3701727.7014365,-2396.7210165666,2601600.9184696,36.204240424042,0,0
82.587074178757,-135.02666677158,31.008670867087,3701727.7014365,-2396.7210165666,2601600.9184696,36.208670867087,0,0
82.587074604857,-135.04419636149,31.013101310131,3701727.7014365,-2396.7210165666,2601600.9184696,36.213101310131,0,0
82.587075030956,-135.0617259514,31.017531753175,3701727.7014365,-2396.7210165666,2601600.9184696,36.217531753175,0,0
82.587075457056,-135.07925554131,31.02196219622,3701727.7014365,-2396.7210165666,2601600.9184696,36.22196219622,0,0
82.587075883155,-135.09678513121,31.026392639264,3701727.7014365,-2396.7210165666,2601600.9184696,36.226392639264,0,0
82.587076309255,-135.11431472112,31.030823082308,3701727.7014365,-2396.7210165666,2601600.9184696,36.230823082308,0,0
82.587076735354,-135.13184431103,31.035253525353,3701727.7014365,-2396.7210165666,2601600.9184696,36.235253525353,0,0
82.587077161454,-135.14937390094,31.039683968397,3701727.7014365,-2396.7210165666,2601600.9184696,36.239683968397,0,0
82.587077587553,-135.16690349084,31.044114411441,3701727.7014365,-2396.7210165666,2601600.9184696,36.244114411441,0,0
82.587078013653,-135.18443308075,31.048544854485,3701727.7014365,-2396.7210165666,2601600.9184696,36.248544854485,0,0
82.587078439752,-135.20196267066,31.05297529753,3701727.7014365,-2396.7210165666,2601600.9184696,36.25297529753,0,0
82.587078865852,-135.21949226057,31.057405740574,3701727.7014365,-2396.7210165666,2601600.9184696,36.257405740574,0,0
82.587079291951,-135.23702185047,31.061836183618,3701727.7014365,-2396.7210165666,2601600.9184696,36.261836183618,0,0
82.587079718051,-135.25455144038,31.066266626663,3701727.7014365,-2396.7210165666,2601600.9184696,36.266266626663,0,0
82.58708014415,-135.27208103029,31.070697069707,3701727.7014365,-2396.7210165666,2601600.9184696,36.270697069707,0,0
82.58708057025,-135.2896106202,31.075127512751,3701727.7014365,-2396.7210165666,2601600.9184696,36.275127512751,0,0
82.587080996349,-135.3071402101,31.079557955796,3701727.7014365,-2396.7210165666,2601600.9184696,36.279557955796,0,0
82.587081422449,-135.32466980001,31.08398839884,3701727.7014365,-2396.7210165666,2601600.9184696,36.28398839884,0,0
82.587081848549,-135.34219938992,31.088418841884,3701727.7014365,-2396.7210165666,2601600.9184696,36.288418841884,0,0
82.587082274648,-135.35972897983,31.092849284928,3701727.7014365,-2396.7210165666,2601600.9184696,36.292849284928,0,0
82.587082700748,-135.37725856973,31.097279727973,3701727.7014365,-2396.7210165666,2601600.9184696,36.297279727973,0,0
82.587083126847,-135.39478815964,31.101710171017,3701727.7014365,-2396.7210165666,2601600.9184696,36.301710171017,0,0
82.587083552947,-135.41231774955,31.106140614061,3701727.7014365,-2396.7210165666,2601600.9184696,36.306140614061,0,0
82.587083979046,-135.42984733946,31.110571057106,3701727.7014365,-2396.7210165666,2601600.9184696,36.310571057106,0,0
82.587084405146,-135.44737692936,31.11500150015,3701727.7014365,-2396.7210165666,2601600.9184696,36.31500150015,0,0
82.587084831245,-135.46490651927,31.119431943194,3701727.7014365,-2396.7210165666,2601600.9184696,36.319431943194,0,0
82.587085257345,-135.48243610918,31.123862386239,3701727.7014365,-2396.7210165666,2601600.9184696,36.323862386239,0,0
82.587085683444,-135.49996569909,31.128292829283,3701727.7014365,-2396.7210165666,2601600.9184696,36.328292829283,0,0
82.587086109544,-135.51749528899,31.132723272327,3701727.7014365,-2396.7210165666,2601600.9184696,36.332723272327,0,0
82.587086535643,-135.5350248789,31.137153715372,3701727.7014365,-2396.7210165666,2601600.9184696,36.337153715372,0,0
82.587086961743,-135.55255446881,31.141584158416,3701727.7014365,-2396.7210165666,2601600.9184696,36.341584158416,0,0
82.587087387842,-135.57008405872,31.14601460146,3701727.7014365,-2396.7210165666,2601600.9184696,36.34601460146,0,0
82.587087813942,-135.58761364862,31.150445044504,3701727.7014365,-2396.7210165666,2601600.9184696,36.350445044504,0,0
82.587088240041,-135.60514323853,31.154875487549,3701727.7014365,-2396.7210165666,2601600.9184696,36.354875487549,0,0
82.587088666141,-135.62267282844,31.159305930593,3701727.7014365,-2396.7210165666,2601600.9184696,36.359305930593,0,0
82.58708909224,-135.64020241835,31.163736373637,3701727.7014365,-2396.7210165666,2601600.9184696,36.363736373637,0,0
82.58708951834,-135.65773200825,31.168166816682,3701727.7014365,-2396.7210165666,2601600.9184696,36.368166816682,0,0
82.587089944439,-135.67526159816,31.172597259726,3701727.7014365,-2396.7210165666,2601600.9184696,36.372597259726,0,0
82.587090370539,-135.69279118807,31.17702770277,3701727.7014365,-2396.7210165666,2601600.9184696,36.37702770277,0,0
82.587090796638,-135.71032077798,31.181458145815,3701727.7014365,-2396.7210165666,2601600.9184696,36.381458145815,0,0
82.587091222738,-135.72785036788,31.185888588859,3701727.7014365,-2396.7210165666,2601600.9184696,36.385888588859,0,0
82.587091648837,-135.74537995779,31.190319031903,3701727.7014365,-2396.7210165666,2601600.9184696,36.390319031903,0,0
82.587092074937,-135.7629095477,31.194749474947,3701727.7014365,-2396.7210165666,2601600.9184696,36.394749474947,0,0
82.587092501036,-135.78043913761,31.199179917992,3701727.7014365,-2396.7210165666,2601600.9184696,36.399179917992,0,0
82.587092927136,-135.79796872751,31.203610361036,3701727.7014365,-2396.7210165666,2601600.9184696,36.403610361036,0,0
82.587093353235,-135.81549831742,31.20804080408,3701727.7014365,-2396.7210165666,2601600.9184696,36.40804080408,0,0
82.587093779335,-135.83302790733,31.212471247125,3701727.7014365,-2396.7210165666,2601600.9184696,36.412471247125,0,0
82.587094205434,-135.85055749724,31.216901690169,3701727.7014365,-2396.7210165666,2601600.9184696,36.416901690169,0,0
82.587094631534,-135.86808708714,31.221332133213,3701727.7014365,-2396.7210165666,2601600.9184696,36.421332133213,0,0
82.587095057633,-135.88561667705,31.225762576258,3701727.7014365,-2396.7210165666,2601600.9184696,36.425762576258,0,0
82.587095483733,-135.90314626696,31.230193019302,3701727.7014365,-2396.7210165666,2601600.9184696,36.430193019302,0,0
82.587095909833,-135.92067585687,31.234623462346,3701727.7014365,-2396.7210165666,2601600.9184696,36.434623462346,0,0
82.587096335932,-135.93820544677,31.239053905391,3701727.7014365,-2396.7210165666,2601600.9184696,36.439053905391,0,0
82.587096762032,-135.95573503668,31.243484348435,3701727.7014365,-2396.7210165666,2601600.9184696,36.443484348435,0,0
82.587097188131,-135.97326462659,31.247914791479,3701727.7014365,-2396.7210165666,2601600.9184696,36.447914791479,0,0
82.587097614231,-135.9907942165,31.252345234523,3701727.7014365,-2396.7210165666,2601600.9184696,36.452345234523,0,0
82.58709804033,-136.0083238064,31.256775677568,3701727.7014365,-2396.7210165666,2601600.9184696,36.456775677568,0,0
82.58709846643,-136.02585339631,31.261206120612,3701727.7014365,-2396.7210165666,2601600.9184696,36.461206120612,0,0
82.587098892529,-136.04338298622,31.265636563656,3701727.7014365,-2396.7210165666,2601600.9184696,36.465636563656,0,0
82.587099318629,-136.06091257613,31.270067006701,3701727.7014365,-2396.7210165666,2601600.9184696,36.470067006701,0,0
82.587099744728,-136.07844216603,31.274497449745,3701727.7014365,-2396.7210165666,2601600.9184696,36.474497449745,0,0
82.587100170828,-136.09597175594,31.278927892789,3701727.7014365,-2396.7210165666,2601600.9184696,36.478927892789,0,0
82.587100596927,-136.11350134585,31.283358335834,3701727.7014365,-2396.7210165666,2601600.9184696,36.483358335834,0,0
82.587101023027,-136.13103093575,31.287788778878,3701727.7014365,-2396.7210165666,2601600.9184696,36.487788778878,0,0
82.587101449126,-136.14856052566,31.292219221922,3701727.7014365,-2396.7210165666,2601600.9184696,36.492219221922,0,0
82.587101875586,-136.16609011581,31.296649664966,3708346.804772,-2508.9639149201,2600955.4904257,36.496649664966,0,0
82.587102302231,-136.18361970608,31.301080108011,3708346.804772,-2508.9639149201,2600955.4904257,36.501080108011,0,0
82.587102728877,-136.20114929635,31.305510551055,3708346.804772,-2508.9639149201,2600955.4904257,36.505510551055,0,0
82.587103155522,-136.21867888663,31.309940994099,3708346.804772,-2508.9639149201,2600955.4904257,36.509940994099,0,0
82.587103582167,-136.2362084769,31.314371437144,3708346.804772,-2508.9639149201,2600955.4904257,36.514371437144,0,0
82.587104008813,-136.25373806717,31.318801880188,3708346.804772,-2508.9639149201,2600955.4904257,36.518801880188,0,0
82.587104435458,-136.27126765744,31.323232323232,3708346.804772,-2508.9639149201,2600955.4904257,36.523232323232,0,0
82.587104862104,-136.28879724772,31.327662766277,3708346.804772,-2508.9639149201,2600955.4904257,36.527662766277,0,0
82.587105288749,-136.30632683799,31.332093209321,3708346.804772,-2508.9639149201,2600955.4904257,36.532093209321,0,0
82.587105715394,-136.32385642826,31.336523652365,3708346.804772,-2508.9639149201,2600955.4904257,36.536523652365,0,0
82.58710614204,-136.34138601853,31.34095409541,3708346.804772,-2508.9639149201,2600955.4904257,36.54095409541,0,0
82.587106568685,-136.35891560881,31.345384538454,3708346.804772,-2508.9639149201,2600955.4904257,36.545384538454,0,0
82.587106995331,-136.37644519908,31.349814981498,3708346.804772,-2508.9639149201,2600955.4904257,36.549814981498,0,0
82.587107421976,-136.39397478935,31.354245424542,3708346.804772,-2508.9639149201,2600955.4904257,36.554245424542,0,0
82.587107848622,-136.41150437962,31.358675867587,3708346.804772,-2508.9639149201,2600955.4904257,36.558675867587,0,0
82.587108275267,-136.42903396989,31.363106310631,3708346.804772,-2508.9639149201,2600955.4904257,36.563106310631,0,0
82.587108701912,-136.44656356017,31.367536753675,3708346.804772,-2508.9639149201,2600955.4904257,36.567536753675,0,0
82.587109128558,-136.46409315044,31.37196719672,3708346.804772,-2508.9639149201,2600955.4904257,36.57196719672,0,0
82.587109555203,-136.48162274071,31.376397639764,3708346.804772,-2508.9639149201,2600955.4904257,36.576397639764,0,0
82.587109981849,-136.49915233098,31.380828082808,3708346.804772,-2508.9639149201,2600955.4904257,36.580828082808,0,0
82.587110408494,-136.51668192126,31.385258525853,3708346.804772,-2508.9639149201,2600955.4904257,36.585258525853,0,0
82.587110835139,-136.53421151153,31.389688968897,3708346.804772,-2508.9639149201,2600955.4904257,36.589688968897,0,0
82.587111261785,-136.5517411018,31.394119411941,3708346.804772,-2508.9639149201,2600955.4904257,36.594119411941,0,0
82.58711168843,-136.56927069207,31.398549854986,3708346.804772,-2508.9639149201,2600955.4904257,36.598549854985,0,0
82.587112115076,-136.58680028234,31.40298029803,3708346.804772,-2508.9639149201,2600955.4904257,36.60298029803,0,0
82.587112541721,-136.60432987262,31.407410741074,3708346.804772,-2508.9639149201,2600955.4904257,36.607410741074,0,0
82.587112968366,-136.62185946289,31.411841184118,3708346.804772,-2508.9639149201,2600955.4904257,36.611841184118,0,0
82.587113395012,-136.63938905316,31.416271627163,3708346.804772,-2508.9639149201,2600955.4904257,36.616271627163,0,0
82.587113821657,-136.65691864343,31.420702070207,3708346.804772,-2508.9639149201,2600955.4904257,36.620702070207,0,0
82.587114248303,-136.67444823371,31.425132513251,3708346.804772,-2508.9639149201,2600955.4904257,36.625132513251,0,0
82.587114674948,-136.69197782398,31.429562956296,3708346.804772,-2508.9639149201,2600955.4904257,36.629562956296,0,0
82.587115101593,-136.70950741425,31.43399339934,3708346.804772,-2508.9639149201,2600955.4904257,36.63399339934,0,0
82.587115528239,-136.72703700452,31.438423842384,3708346.804772,-2508.9639149201,2600955.4904257,36.638423842384,0,0
82.587115954884,-136.74456659479,31.442854285429,3708346.804772,-2508.9639149201,2600955.4904257,36.642854285429,0,0
82.58711638153,-136.76209618507,31.447284728473,3708346.804772,-2508.9639149201,2600955.4904257,36.647284728473,0,0
82.587116808175,-136.77962577534,31.451715171517,3708346.804772,-2508.9639149201,2600955.4904257,36.651715171517,0,0
82.58711723482,-136.79715536561,31.456145614561,3708346.804772,-2508.9639149201,2600955.4904257,36.656145614561,0,0
82.587117661466,-136.81468495588,31.460576057606,3708346.804772,-2508.9639149201,2600955.4904257,36.660576057606,0,0
82.587118088111,-136.83221454616,31.46500650065,3708346.804772,-2508.9639149201,2600955.4904257,36.66500650065,0,0
82.587118514757,-136.84974413643,31.469436943694,3708346.804772,-2508.9639149201,2600955.4904257,36.669436943694,0,0
82.587118941402,-136.8672737267,31.473867386739,3708346.804772,-2508.9639149201,2600955.4904257,36.673867386739,0,0
82.587119368047,-136.88480331697,31.478297829783,3708346.804772,-2508.9639149201,2600955.4904257,36.678297829783,0,0
82.587119794693,-136.90233290725,31.482728272827,3708346.804772,-2508.9639149201,2600955.4904257,36.682728272827,0,0
82.587120221338,-136.91986249752,31.487158715872,3708346.804772,-2508.9639149201,2600955.4904257,36.687158715872,0,0
82.587120647984,-136.93739208779,31.491589158916,3708346.804772,-2508.9639149201,2600955.4904257,36.691589158916,0,0
82.587121074629,-136.95492167806,31.49601960196,3708346.804772,-2508.9639149201,2600955.4904257,36.69601960196,0,0
82.587121501275,-136.97245126833,31.500450045005,3708346.804772,-2508.9639149201,2600955.4904257,36.700450045005,0,0
82.58712192792,-136.98998085861,31.504880488049,3708346.804772,-2508.9639149201,2600955.4904257,36.704880488049,0,0
82.587122354565,-137.00751044888,31.509310931093,3708346.804772,-2508.9639149201,2600955.4904257,36.709310931093,0,0
82.587122781211,-137.02504003915,31.513741374137,3708346.804772,-2508.9639149201,2600955.4904257,36.713741374137,0,0
82.587123207856,-137.04256962942,31.518171817182,3708346.804772,-2508.9639149201,2600955.4904257,36.718171817182,0,0
82.587123634502,-137.0600992197,31.522602260226,3708346.804772,-2508.9639149201,2600955.4904257,36.722602260226,0,0
82.587124061147,-137.07762880997,31.52703270327,3708346.804772,-2508.9639149201,2600955.4904257,36.72703270327,0,0
82.587124487792,-137.09515840024,31.531463146315,3708346.804772,-2508.9639149201,2600955.4904257,36.731463146315,0,0
82.587124914438,-137.11268799051,31.535893589359,3708346.804772,-2508.9639149201,2600955.4904257,36.735893589359,0,0
82.587125341083,-137.13021758078,31.540324032403,3708346.804772,-2508.9639149201,2600955.4904257,36.740324032403,0,0
82.587125767729,-137.14774717106,31.544754475448,3708346.804772,-2508.9639149201,2600955.4904257,36.744754475448,0,0
82.587126194374,-137.16527676133,31.549184918492,3708346.804772,-2508.9639149201,2600955.4904257,36.749184918492,0,0
82.587126621019,-137.1828063516,31.553615361536,3708346.804772,-2508.9639149201,2600955.4904257,36.753615361536,0,0
82.587127047665,-137.20033594187,31.55804580458,3708346.804772,-2508.9639149201,2600955.4904257,36.75804580458,0,0
82.58712747431,-137.21786553215,31.562476247625,3708346.804772,-2508.9639149201,2600955.4904257,36.762476247625,0,0
82.587127900956,-137.23539512242,31.566906690669,3708346.804772,-2508.9639149201,2600955.4904257,36.766906690669,0,0
82.587128327601,-137.25292471269,31.571337133713,3708346.804772,-2508.9639149201,2600955.4904257,36.771337133713,0,0
82.587128754246,-137.27045430296,31.575767576758,3708346.804772,-2508.9639149201,2600955.4904257,36.775767576758,0,0
82.587129180892,-137.28798389323,31.580198019802,3708346.804772,-2508.9639149201,2600955.4904257,36.780198019802,0,0
82.587129607537,-137.30551348351,31.584628462846,3708346.804772,-2508.9639149201,2600955.4904257,36.784628462846,0,0
82.587130034183,-137.32304307378,31.589058905891,3708346.804772,-2508.9639149201,2600955.4904257,36.789058905891,0,0
82.587130460828,-137.34057266405,31.593489348935,3708346.804772,-2508.9639149201,2600955.4904257,36.793489348935,0,0
82.587130887473,-137.35810225432,31.597919791979,3708346.804772,-2508.9639149201,2600955.4904257,36.797919791979,0,0
82.587131314119,-137.3756318446,31.602350235024,3708346.804772,-2508.9639149201,2600955.4904257,36.802350235024,0,0
82.587131740764,-137.39316143487,31.606780678068,3708346.804772,-2508.9639149201,2600955.4904257,36.806780678068,0,0
82.58713216741,-137.41069102514,31.611211121112,3708346.804772,-2508.9639149201,2600955.4904257,36.811211121112,0,0
82.587132594055,-137.42822061541,31.615641564156,3708346.804772,-2508.9639149201,2600955.4904257,36.815641564156,0,0
82.5871330207,-137.44575020568,31.620072007201,3708346.804772,-2508.9639149201,2600955.4904257,36.820072007201,0,0
82.587133447346,-137.46327979596,31.624502450245,3708346.804772,-2508.9639149201,2600955.4904257,36.824502450245,0,0
82.587133873991,-137.48080938623,31.628932893289,3708346.804772,-2508.9639149201,2600955.4904257,36.828932893289,0,0
82.587134300637,-137.4983389765,31.633363336334,3708346.804772,-2508.9639149201,2600955.4904257,36.833363336334,0,0
82.587134727282,-137.51586856677,31.637793779378,3708346.804772,-2508.9639149201,2600955.4904257,36.837793779378,0,0
82.587135153928,-137.53339815705,31.642224222422,3708346.804772,-2508.9639149201,2600955.4904257,36.842224222422,0,0
82.587135580573,-137.55092774732,31.646654665467,3708346.804772,-2508.9639149201,2600955.4904257,36.846654665467,0,0
82.587136007218,-137.56845733759,31.651085108511,3708346.804772,-2508.9639149201,2600955.4904257,36.851085108511,0,0
82.587136433864,-137.58598692786,31.655515551555,3708346.804772,-2508.9639149201,2600955.4904257,36.855515551555,0,0
82.587136860509,-137.60351651814,31.659945994599,3708346.804772,-2508.9639149201,2600955.4904257,36.859945994599,0,0
82.587137287155,-137.62104610841,31.664376437644,3708346.804772,-2508.9639149201,2600955.4904257,36.864376437644,0,0
82.5871377138,-137.63857569868,31.668806880688,3708346.804772,-2508.9639149201,2600955.4904257,36.868806880688,0,0
82.587138140445,-137.65610528895,31.673237323732,3708346.804772,-2508.9639149201,2600955.4904257,36.873237323732,0,0
82.587138567091,-137.67363487922,31.677667766777,3708346.804772,-2508.9639149201,2600955.4904257,36.877667766777,0,0
82.587138993736,-137.6911644695,31.682098209821,3708346.804772,-2508.9639149201,2600955.4904257,36.882098209821,0,0
82.587139420382,-137.70869405977,31.686528652865,3708346.804772,-2508.9639149201,2600955.4904257,36.886528652865,0,0
82.587139847027,-137.72622365004,31.69095909591,3708346.804772,-2508.9639149201,2600955.4904257,36.89095909591,0,0
82.587140273672,-137.74375324031,31.695389538954,3708346.804772,-2508.9639149201,2600955.4904257,36.895389538954,0,0
82.587140700318,-137.76128283059,31.699819981998,3708346.804772,-2508.9639149201,2600955.4904257,36.899819981998,0,0
82.587141126963,-137.77881242086,31.704250425043,3708346.804772,-2508.9639149201,2600955.4904257,36.904250425043,0,0
82.587141553609,-137.79634201113,31.708680868087,3708346.804772,-2508.9639149201,2600955.4904257,36.908680868087,0,0
82.587141980254,-137.8138716014,31.713111311131,3708346.804772,-2508.9639149201,2600955.4904257,36.913111311131,0,0
82.587142406899,-137.83140119167,31.717541754175,3708346.804772,-2508.9639149201,2600955.4904257,36.917541754175,0,0
82.587142833545,-137.84893078195,31.72197219722,3708346.804772,-2508.9639149201,2600955.4904257,36.92197219722,0,0
82.58714326019,-137.86646037222,31.726402640264,3708346.804772,-2508.9639149201,2600955.4904257,36.926402640264,0,0
82.587143686836,-137.88398996249,31.730833083308,3708346.804772,-2508.9639149201,2600955.4904257,36.930833083308,0,0
82.587144113481,-137.90151955276,31.735263526353,3708346.804772,-2508.9639149201,2600955.4904257,36.935263526353,0,0
82.587144540126,-137.91904914304,31.739693969397,3708346.804772,-2508.9639149201,2600955.4904257,36.939693969397,0,0
82.587144966772,-137.93657873331,31.744124412441,3708346.804772,-2508.9639149201,2600955.4904257,36.944124412441,0,0
82.587145393417,-137.95410832358,31.748554855486,3708346.804772,-2508.9639149201,2600955.4904257,36.948554855486,0,0
82.587145820063,-137.97163791385,31.75298529853,3708346.804772,-2508.9639149201,2600955.4904257,36.95298529853,0,0
82.587146246708,-137.98916750412,31.757415741574,3708346.804772,-2508.9639149201,2600955.4904257,36.957415741574,0,0
82.587146673353,-138.0066970944,31.761846184618,3708346.804772,-2508.9639149201,2600955.4904257,36.961846184618,0,0
82.587147099999,-138.02422668467,31.766276627663,3708346.804772,-2508.9639149201,2600955.4904257,36.966276627663,0,0
82.587147526644,-138.04175627494,31.770707070707,3708346.804772,-2508.9639149201,2600955.4904257,36.970707070707,0,0
82.58714795329,-138.05928586521,31.775137513751,3708346.804772,-2508.9639149201,2600955.4904257,36.975137513751,0,0
82.587148379935,-138.07681545549,31.779567956796,3708346.804772,-2508.9639149201,2600955.4904257,36.979567956796,0,0
82.587148806581,-138.09434504576,31.78399839984,3708346.804772,-2508.9639149201,2600955.4904257,36.98399839984,0,0
82.587149233226,-138.11187463603,31.788428842884,3708346.804772,-2508.9639149201,2600955.4904257,36.988428842884,0,0
82.587149659871,-138.1294042263,31.792859285929,3708346.804772,-2508.9639149201,2600955.4904257,36.992859285929,0,0
82.587150086517,-138.14693381657,31.797289728973,3708346.804772,-2508.9639149201,2600955.4904257,36.997289728973,0,0
82.587150513162,-138.16446340685,31.801720172017,3708346.804772,-2508.9639149201,2600955.4904257,37.001720172017,0,0
82.587150939808,-138.18199299712,31.806150615062,3708346.804772,-2508.9639149201,2600955.4904257,37.006150615062,0,0
82.587151366453,-138.19952258739,31.810581058106,3708346.804772,-2508.9639149201,2600955.4904257,37.010581058106,0,0
82.587151793098,-138.21705217766,31.81501150115,3708346.804772,-2508.9639149201,2600955.4904257,37.01501150115,0,0
82.587152219744,-138.23458176794,31.819441944194,3708346.804772,-2508.9639149201,2600955.4904257,37.019441944194,0,0
82.587152646389,-138.25211135821,31.823872387239,3708346.804772,-2508.9639149201,2600955.4904257,37.023872387239,0,0
82.587153073035,-138.26964094848,31.828302830283,3708346.804772,-2508.9639149201,2600955.4904257,37.028302830283,0,0
82.58715349968,-138.28717053875,31.832733273327,3708346.804772,-2508.9639149201,2600955.4904257,37.032733273327,0,0
82.587153926325,-138.30470012903,31.837163716372,3708346.804772,-2508.9639149201,2600955.4904257,37.037163716372,0,0
82.587154352971,-138.3222297193,31.841594159416,3708346.804772,-2508.9639149201,2600955.4904257,37.041594159416,0,0
82.587154779616,-138.33975930957,31.84602460246,3708346.804772,-2508.9639149201,2600955.4904257,37.04602460246,0,0
82.587155206262,-138.35728889984,31.850455045505,3708346.804772,-2508.9639149201,2600955.4904257,37.050455045505,0,0
82.587155632907,-138.37481849011,31.854885488549,3708346.804772,-2508.9639149201,2600955.4904257,37.054885488549,0,0
82.587156059552,-138.39234808039,31.859315931593,3708346.804772,-2508.9639149201,2600955.4904257,37.059315931593,0,0
82.587156486198,-138.40987767066,31.863746374637,3708346.804772,-2508.9639149201,2600955.4904257,37.063746374637,0,0
82.587156912843,-138.42740726093,31.868176817682,3708346.804772,-2508.9639149201,2600955.4904257,37.068176817682,0,0
82.587157339489,-138.4449368512,31.872607260726,3708346.804772,-2508.9639149201,2600955.4904257,37.072607260726,0,0
82.587157766134,-138.46246644148,31.87703770377,3708346.804772,-2508.9639149201,2600955.4904257,37.07703770377,0,0
82.587158192779,-138.47999603175,31.881468146815,3708346.804772,-2508.9639149201,2600955.4904257,37.081468146815,0,0
82.587158619425,-138.49752562202,31.885898589859,3708346.804772,-2508.9639149201,2600955.4904257,37.085898589859,0,0
82.58715904607,-138.51505521229,31.890329032903,3708346.804772,-2508.9639149201,2600955.4904257,37.090329032903,0,0
82.587159472716,-138.53258480256,31.894759475948,3708346.804772,-2508.9639149201,2600955.4904257,37.094759475948,0,0
82.587159899361,-138.55011439284,31.899189918992,3708346.804772,-2508.9639149201,2600955.4904257,37.099189918992,0,0
82.587160326006,-138.56764398311,31.903620362036,3708346.804772,-2508.9639149201,2600955.4904257,37.103620362036,0,0
82.587160752652,-138.58517357338,31.908050805081,3708346.804772,-2508.9639149201,2600955.4904257,37.108050805081,0,0
82.587161179297,-138.60270316365,31.912481248125,3708346.804772,-2508.9639149201,2600955.4904257,37.112481248125,0,0
82.587161605943,-138.62023275393,31.916911691169,3708346.804772,-2508.9639149201,2600955.4904257,37.116911691169,0,0
82.587162032588,-138.6377623442,31.921342134213,3708346.804772,-2508.9639149201,2600955.4904257,37.121342134213,0,0
82.587162459234,-138.65529193447,31.925772577258,3708346.804772,-2508.9639149201,2600955.4904257,37.125772577258,0,0
82.587162885879,-138.67282152474,31.930203020302,3708346.804772,-2508.9639149201,2600955.4904257,37.130203020302,0,0
82.587163312524,-138.69035111501,31.934633463346,3708346.804772,-2508.9639149201,2600955.4904257,37.134633463346,0,0
82.58716373917,-138.70788070529,31.939063906391,3708346.804772,-2508.9639149201,2600955.4904257,37.139063906391,0,0
82.587164165815,-138.72541029556,31.943494349435,3708346.804772,-2508.9639149201,2600955.4904257,37.143494349435,0,0
82.587164592799,-138.74293988571,31.947924792479,3716376.2370847,-2992.6503952993,2602237.9628694,37.147924792479,0,0
82.587165020052,-138.76046947577,31.952355235524,3716376.2370847,-2992.6503952993,2602237.9628694,37.152355235524,0,0
82.587165447304,-138.77799906583,31.956785678568,3716376.2370847,-2992.6503952993,2602237.9628694,37.156785678568,0,0
82.587165874557,-138.79552865589,31.961216121612,3716376.2370847,-2992.6503952993,2602237.9628694,37.161216121612,0,0
82.587166301809,-138.81305824595,31.965646564656,3716376.2370847,-2992.6503952993,2602237.9628694,37.165646564656,0,0
82.587166729062,-138.83058783601,31.970077007701,3716376.2370847,-2992.6503952993,2602237.9628694,37.170077007701,0,0
82.587167156315,-138.84811742606,31.974507450745,3716376.2370847,-2992.6503952993,2602237.9628694,37.174507450745,0,0
82.587167583567,-138.86564701612,31.978937893789,3716376.2370847,-2992.6503952993,2602237.9628694,37.178937893789,0,0
82.58716801082,-138.88317660618,31.983368336834,3716376.2370847,-2992.6503952993,2602237.9628694,37.183368336834,0,0
82.587168438072,-138.90070619624,31.987798779878,3716376.2370847,-2992.6503952993,2602237.9628694,37.187798779878,0,0
82.587168865325,-138.9182357863,31.992229222922,3716376.2370847,-2992.6503952993,2602237.9628694,37.192229222922,0,0
82.587169292578,-138.93576537636,31.996659665967,3716376.2370847,-2992.6503952993,2602237.9628694,37.196659665967,0,0
82.58716971983,-138.95329496642,32.001090109011,3716376.2370847,-2992.6503952993,2602237.9628694,37.201090109011,0,0
82.587170147083,-138.97082455648,32.005520552055,3716376.2370847,-2992.6503952993,2602237.9628694,37.205520552055,0,0
82.587170574336,-138.98835414653,32.0099509951,3716376.2370847,-2992.6503952993,2602237.9628694,37.2099509951,0,0
82.587171001588,-139.00588373659,32.014381438144,3716376.2370847,-2992.6503952993,2602237.9628694,37.214381438144,0,0
82.587171428841,-139.02341332665,32.018811881188,3716376.2370847,-2992.6503952993,2602237.9628694,37.218811881188,0,0
82.587171856093,-139.04094291671,32.023242324232,3716376.2370847,-2992.6503952993,2602237.9628694,37.223242324232,0,0
82.587172283346,-139.05847250677,32.027672767277,3716376.2370847,-2992.6503952993,2602237.9628694,37.227672767277,0,0
82.587172710599,-139.07600209683,32.032103210321,3716376.2370847,-2992.6503952993,2602237.9628694,37.232103210321,0,0
82.587173137851,-139.09353168689,32.036533653365,3716376.2370847,-2992.6503952993,2602237.9628694,37.236533653365,0,0
82.587173565104,-139.11106127695,32.04096409641,3716376.2370847,-2992.6503952993,2602237.9628694,37.24096409641,0,0
82.587173992356,-139.128590867,32.045394539454,3716376.2370847,-2992.6503952993,2602237.9628694,37.245394539454,0,0
82.587174419609,-139.14612045706,32.049824982498,3716376.2370847,-2992.6503952993,2602237.9628694,37.249824982498,0,0
82.587174846862,-139.16365004712,32.054255425543,3716376.2370847,-2992.6503952993,2602237.9628694,37.254255425543,0,0
82.587175274114,-139.18117963718,32.058685868587,3716376.2370847,-2992.6503952993,2602237.9628694,37.258685868587,0,0
82.587175701367,-139.19870922724,32.063116311631,3716376.2370847,-2992.6503952993,2602237.9628694,37.263116311631,0,0
82.58717612862,-139.2162388173,32.067546754675,3716376.2370847,-2992.6503952993,2602237.9628694,37.267546754675,0,0
82.587176555872,-139.23376840736,32.07197719772,3716376.2370847,-2992.6503952993,2602237.9628694,37.27197719772,0,0
82.587176983125,-139.25129799741,32.076407640764,3716376.2370847,-2992.6503952993,2602237.9628694,37.276407640764,0,0
82.587177410377,-139.26882758747,32.080838083808,3716376.2370847,-2992.6503952993,2602237.9628694,37.280838083808,0,0
82.58717783763,-139.28635717753,32.085268526853,3716376.2370847,-2992.6503952993,2602237.9628694,37.285268526853,0,0
82.587178264883,-139.30388676759,32.089698969897,3716376.2370847,-2992.6503952993,2602237.9628694,37.289698969897,0,0
82.587178692135,-139.32141635765,32.094129412941,3716376.2370847,-2992.6503952993,2602237.9628694,37.294129412941,0,0
82.587179119388,-139.33894594771,32.098559855986,3716376.2370847,-2992.6503952993,2602237.9628694,37.298559855986,0,0
82.587179546641,-139.35647553777,32.10299029903,3716376.2370847,-2992.6503952993,2602237.9628694,37.30299029903,0,0
82.587179973893,-139.37400512783,32.107420742074,3716376.2370847,-2992.6503952993,2602237.9628694,37.307420742074,0,0
82.587180401146,-139.39153471788,32.111851185119,3716376.2370847,-2992.6503952993,2602237.9628694,37.311851185119,0,0
82.587180828398,-139.40906430794,32.116281628163,3716376.2370847,-2992.6503952993,2602237.9628694,37.316281628163,0,0
82.587181255651,-139.426593898,32.120712071207,3716376.2370847,-2992.6503952993,2602237.9628694,37.320712071207,0,0
82.587181682904,-139.44412348806,32.125142514251,3716376.2370847,-2992.6503952993,2602237.9628694,37.325142514251,0,0
82.587182110156,-139.46165307812,32.129572957296,3716376.2370847,-2992.6503952993,2602237.9628694,37.329572957296,0,0
82.587182537409,-139.47918266818,32.13400340034,3716376.2370847,-2992.6503952993,2602237.9628694,37.33400340034,0,0
82.587182964661,-139.49671225824,32.138433843384,3716376.2370847,-2992.6503952993,2602237.9628694,37.338433843384,0,0
82.587183391914,-139.51424184829,32.142864286429,3716376.2370847,-2992.6503952993,2602237.9628694,37.342864286429,0,0
82.587183819167,-139.53177143835,32.147294729473,3716376.2370847,-2992.6503952993,2602237.9628694,37.347294729473,0,0
82.587184246419,-139.54930102841,32.151725172517,3716376.2370847,-2992.6503952993,2602237.9628694,37.351725172517,0,0
82.587184673672,-139.56683061847,32.156155615562,3716376.2370847,-2992.6503952993,2602237.9628694,37.356155615562,0,0
82.587185100925,-139.58436020853,32.160586058606,3716376.2370847,-2992.6503952993,2602237.9628694,37.360586058606,0,0
82.587185528177,-139.60188979859,32.16501650165,3716376.2370847,-2992.6503952993,2602237.9628694,37.36501650165,0,0
82.58718595543,-139.61941938865,32.169446944694,3716376.2370847,-2992.6503952993,2602237.9628694,37.369446944694,0,0
82.587186382682,-139.63694897871,32.173877387739,3716376.2370847,-2992.6503952993,2602237.9628694,37.373877387739,0,0
82.587186809935,-139.65447856876,32.178307830783,3716376.2370847,-2992.6503952993,2602237.9628694,37.378307830783,0,0
82.587187237188,-139.67200815882,32.182738273827,3716376.2370847,-2992.6503952993,2602237.9628694,37.382738273827,0,0
82.58718766444,-139.68953774888,32.187168716872,3716376.2370847,-2992.6503952993,2602237.9628694,37.387168716872,0,0
82.587188091693,-139.70706733894,32.191599159916,3716376.2370847,-2992.6503952993,2602237.9628694,37.391599159916,0,0
82.587188518945,-139.724596929,32.19602960296,3716376.2370847,-2992.6503952993,2602237.9628694,37.39602960296,0,0
82.587188946198,-139.74212651906,32.200460046005,3716376.2370847,-2992.6503952993,2602237.9628694,37.400460046005,0,0
82.587189373451,-139.75965610912,32.204890489049,3716376.2370847,-2992.6503952993,2602237.9628694,37.404890489049,0,0
82.587189800703,-139.77718569918,32.209320932093,3716376.2370847,-2992.6503952993,2602237.9628694,37.409320932093,0,0
82.587190227956,-139.79471528923,32.213751375138,3716376.2370847,-2992.6503952993,2602237.9628694,37.413751375138,0,0
82.587190655209,-139.81224487929,32.218181818182,3716376.2370847,-2992.6503952993,2602237.9628694,37.418181818182,0,0
82.587191082461,-139.82977446935,32.222612261226,3716376.2370847,-2992.6503952993,2602237.9628694,37.422612261226,0,0
82.587191509714,-139.84730405941,32.22704270427,3716376.2370847,-2992.6503952993,2602237.9628694,37.42704270427,0,0
82.587191936966,-139.86483364947,32.231473147315,3716376.2370847,-2992.6503952993,2602237.9628694,37.431473147315,0,0
82.587192364219,-139.88236323953,32.235903590359,3716376.2370847,-2992.6503952993,2602237.9628694,37.435903590359,0,0
82.587192791472,-139.89989282959,32.240334033403,3716376.2370847,-2992.6503952993,2602237.9628694,37.440334033403,0,0
82.587193218724,-139.91742241964,32.244764476448,3716376.2370847,-2992.6503952993,2602237.9628694,37.444764476448,0,0
82.587193645977,-139.9349520097,32.249194919492,3716376.2370847,-2992.6503952993,2602237.9628694,37.449194919492,0,0
82.58719407323,-139.95248159976,32.253625362536,3716376.2370847,-2992.6503952993,2602237.9628694,37.453625362536,0,0
82.587194500482,-139.97001118982,32.258055805581,3716376.2370847,-2992.6503952993,2602237.9628694,37.458055805581,0,0
82.587194927735,-139.98754077988,32.262486248625,3716376.2370847,-2992.6503952993,2602237.9628694,37.462486248625,0,0
82.587195354987,-140.00507036994,32.266916691669,3716376.2370847,-2992.6503952993,2602237.9628694,37.466916691669,0,0
82.58719578224,-140.02259996,32.271347134713,3716376.2370847,-2992.6503952993,2602237.9628694,37.471347134713,0,0
82.587196209493,-140.04012955006,32.275777577758,3716376.2370847,-2992.6503952993,2602237.9628694,37.475777577758,0,0
82.587196636745,-140.05765914011,32.280208020802,3716376.2370847,-2992.6503952993,2602237.9628694,37.480208020802,0,0
82.587197063998,-140.07518873017,32.284638463846,3716376.2370847,-2992.6503952993,2602237.9628694,37.484638463846,0,0
82.58719749125,-140.09271832023,32.289068906891,3716376.2370847,-2992.6503952993,2602237.9628694,37.489068906891,0,0
82.587197918503,-140.11024791029,32.293499349935,3716376.2370847,-2992.6503952993,2602237.9628694,37.493499349935,0,0
82.587198345756,-140.12777750035,32.297929792979,3716376.2370847,-2992.6503952993,2602237.9628694,37.497929792979,0,0
82.587198773008,-140.14530709041,32.302360236024,3716376.2370847,-2992.6503952993,2602237.9628694,37.502360236024,0,0
82.587199200261,-140.16283668047,32.306790679068,3716376.2370847,-2992.6503952993,2602237.9628694,37.506790679068,0,0
82.587199627514,-140.18036627053,32.311221122112,3716376.2370847,-2992.6503952993,2602237.9628694,37.511221122112,0,0
82.587200054766,-140.19789586058,32.315651565157,3716376.2370847,-2992.6503952993,2602237.9628694,37.515651565157,0,0
82.587200482019,-140.21542545064,32.320082008201,3716376.2370847,-2992.6503952993,2602237.9628694,37.520082008201,0,0
82.587200909271,-140.2329550407,32.324512451245,3716376.2370847,-2992.6503952993,2602237.9628694,37.524512451245,0,0
82.587201336524,-140.25048463076,32.328942894289,3716376.2370847,-2992.6503952993,2602237.9628694,37.528942894289,0,0
82.587201763777,-140.26801422082,32.333373337334,3716376.2370847,-2992.6503952993,2602237.9628694,37.533373337334,0,0
82.587202191029,-140.28554381088,32.337803780378,3716376.2370847,-2992.6503952993,2602237.9628694,37.537803780378,0,0
82.587202618282,-140.30307340094,32.342234223422,3716376.2370847,-2992.6503952993,2602237.9628694,37.542234223422,0,0
82.587203045534,-140.32060299099,32.346664666467,3716376.2370847,-2992.6503952993,2602237.9628694,37.546664666467,0,0
82.587203472787,-140.33813258105,32.351095109511,3716376.2370847,-2992.6503952993,2602237.9628694,37.551095109511,0,0
82.58720390004,-140.35566217111,32.355525552555,3716376.2370847,-2992.6503952993,2602237.9628694,37.555525552555,0,0
82.587204327292,-140.37319176117,32.3599559956,3716376.2370847,-2992.6503952993,2602237.9628694,37.5599559956,0,0
82.587204754545,-140.39072135123,32.364386438644,3716376.2370847,-2992.6503952993,2602237.9628694,37.564386438644,0,0
82.587205181798,-140.40825094129,32.368816881688,3716376.2370847,-2992.6503952993,2602237.9628694,37.568816881688,0,0
82.58720560905,-140.42578053135,32.373247324732,3716376.2370847,-2992.6503952993,2602237.9628694,37.573247324732,0,0
82.587206036303,-140.44331012141,32.377677767777,3716376.2370847,-2992.6503952993,2602237.9628694,37.577677767777,0,0
82.587206463555,-140.46083971146,32.382108210821,3716376.2370847,-2992.6503952993,2602237.9628694,37.582108210821,0,0
82.587206890808,-140.47836930152,32.386538653865,3716376.2370847,-2992.6503952993,2602237.9628694,37.586538653865,0,0
82.587207318061,-140.49589889158,32.39096909691,3716376.2370847,-2992.6503952993,2602237.9628694,37.59096909691,0,0
82.587207745313,-140.51342848164,32.395399539954,3716376.2370847,-2992.6503952993,2602237.9628694,37.595399539954,0,0
82.587208172566,-140.5309580717,32.399829982998,3716376.2370847,-2992.6503952993,2602237.9628694,37.599829982998,0,0
82.587208599818,-140.54848766176,32.404260426043,3716376.2370847,-2992.6503952993,2602237.9628694,37.604260426043,0,0
82.587209027071,-140.56601725182,32.408690869087,3716376.2370847,-2992.6503952993,2602237.9628694,37.608690869087,0,0
82.587209454324,-140.58354684188,32.413121312131,3716376.2370847,-2992.6503952993,2602237.9628694,37.613121312131,0,0
82.587209881576,-140.60107643193,32.417551755176,3716376.2370847,-2992.6503952993,2602237.9628694,37.617551755176,0,0
82.587210308829,-140.61860602199,32.42198219822,3716376.2370847,-2992.6503952993,2602237.9628694,37.62198219822,0,0
82.587210736082,-140.63613561205,32.426412641264,3716376.2370847,-2992.6503952993,2602237.9628694,37.626412641264,0,0
82.587211163334,-140.65366520211,32.430843084308,3716376.2370847,-2992.6503952993,2602237.9628694,37.630843084308,0,0
82.587211590587,-140.67119479217,32.435273527353,3716376.2370847,-2992.6503952993,2602237.9628694,37.635273527353,0,0
82.587212017839,-140.68872438223,32.439703970397,3716376.2370847,-2992.6503952993,2602237.9628694,37.639703970397,0,0
82.587212445092,-140.70625397229,32.444134413441,3716376.2370847,-2992.6503952993,2602237.9628694,37.644134413441,0,0
82.587212872345,-140.72378356234,32.448564856486,3716376.2370847,-2992.6503952993,2602237.9628694,37.648564856486,0,0
82.587213299597,-140.7413131524,32.45299529953,3716376.2370847,-2992.6503952993,2602237.9628694,37.65299529953,0,0
82.58721372685,-140.75884274246,32.457425742574,3716376.2370847,-2992.6503952993,2602237.9628694,37.657425742574,0,0
82.587214154102,-140.77637233252,32.461856185619,3716376.2370847,-2992.6503952993,2602237.9628694,37.661856185619,0,0
82.587214581355,-140.79390192258,32.466286628663,3716376.2370847,-2992.6503952993,2602237.9628694,37.666286628663,0,0
82.587215008608,-140.81143151264,32.470717071707,3716376.2370847,-2992.6503952993,2602237.9628694,37.670717071707,0,0
82.58721543586,-140.8289611027,32.475147514751,3716376.2370847,-2992.6503952993,2602237.9628694,37.675147514751,0,0
82.587215863113,-140.84649069276,32.479577957796,3716376.2370847,-2992.6503952993,2602237.9628694,37.679577957796,0,0
82.587216290366,-140.86402028281,32.48400840084,3716376.2370847,-2992.6503952993,2602237.9628694,37.68400840084,0,0
82.587216717618,-140.88154987287,32.488438843884,3716376.2370847,-2992.6503952993,2602237.9628694,37.688438843884,0,0
82.587217144871,-140.89907946293,32.492869286929,3716376.2370847,-2992.6503952993,2602237.9628694,37.692869286929,0,0
82.587217572123,-140.91660905299,32.497299729973,3716376.2370847,-2992.6503952993,2602237.9628694,37.697299729973,0,0
82.587217999376,-140.93413864305,32.501730173017,3716376.2370847,-2992.6503952993,2602237.9628694,37.701730173017,0,0
82.587218426629,-140.95166823311,32.506160616062,3716376.2370847,-2992.6503952993,2602237.9628694,37.706160616062,0,0
82.587218853881,-140.96919782317,32.510591059106,3716376.2370847,-2992.6503952993,2602237.9628694,37.710591059106,0,0
82.587219281134,-140.98672741322,32.51502150215,3716376.2370847,-2992.6503952993,2602237.9628694,37.71502150215,0,0
82.587219708387,-141.00425700328,32.519451945195,3716376.2370847,-2992.6503952993,2602237.9628694,37.719451945195,0,0
82.587220135639,-141.02178659334,32.523882388239,3716376.2370847,-2992.6503952993,2602237.9628694,37.723882388239,0,0
82.587220562892,-141.0393161834,32.528312831283,3716376.2370847,-2992.6503952993,2602237.9628694,37.728312831283,0,0
82.587220990144,-141.05684577346,32.532743274327,3716376.2370847,-2992.6503952993,2602237.9628694,37.732743274327,0,0
82.587221417397,-141.07437536352,32.537173717372,3716376.2370847,-2992.6503952993,2602237.9628694,37.737173717372,0,0
82.58722184465,-141.09190495358,32.541604160416,3716376.2370847,-2992.6503952993,2602237.9628694,37.741604160416,0,0
82.587222271902,-141.10943454364,32.54603460346,3716376.2370847,-2992.6503952993,2602237.9628694,37.74603460346,0,0
82.587222699155,-141.12696413369,32.550465046505,3716376.2370847,-2992.6503952993,2602237.9628694,37.750465046505,0,0
82.587223126407,-141.14449372375,32.554895489549,3716376.2370847,-2992.6503952993,2602237.9628694,37.754895489549,0,0
82.58722355366,-141.16202331381,32.559325932593,3716376.2370847,-2992.6503952993,2602237.9628694,37.759325932593,0,0
82.587223980913,-141.17955290387,32.563756375638,3716376.2370847,-2992.6503952993,2602237.9628694,37.763756375638,0,0
82.587224408165,-141.19708249393,32.568186818682,3716376.2370847,-2992.6503952993,2602237.9628694,37.768186818682,0,0
82.587224835418,-141.21461208399,32.572617261726,3716376.2370847,-2992.6503952993,2602237.9628694,37.772617261726,0,0
82.587225262671,-141.23214167405,32.57704770477,3716376.2370847,-2992.6503952993,2602237.9628694,37.77704770477,0,0
82.587225689923,-141.24967126411,32.581478147815,3716376.2370847,-2992.6503952993,2602237.9628694,37.781478147815,0,0
82.587226117176,-141.26720085416,32.585908590859,3716376.2370847,-2992.6503952993,2602237.9628694,37.785908590859,0,0
82.587226544428,-141.28473044422,32.590339033903,3716376.2370847,-2992.6503952993,2602237.9628694,37.790339033903,0,0
82.587226971681,-141.30226003428,32.594769476948,3716376.2370847,-2992.6503952993,2602237.9628694,37.794769476948,0,0
82.587227398934,-141.31978962434,32.599199919992,3716376.2370847,-2992.6503952993,2602237.9628694,37.799199919992,0,0
82.587227826186,-141.3373192144,32.603630363036,3716376.2370847,-2992.6503952993,2602237.9628694,37.803630363036,0,0
82.587228253439,-141.35484880446,32.608060806081,3716376.2370847,-2992.6503952993,2602237.9628694,37.808060806081,0,0
82.587228680691,-141.37237839452,32.612491249125,3716376.2370847,-2992.6503952993,2602237.9628694,37.812491249125,0,0
82.587229107944,-141.38990798457,32.616921692169,3716376.2370847,-2992.6503952993,2602237.9628694,37.816921692169,0,0
82.587229535197,-141.40743757463,32.621352135214,3716376.2370847,-2992.6503952993,2602237.9628694,37.821352135214,0,0
82.587229962449,-141.42496716469,32.625782578258,3716376.2370847,-2992.6503952993,2602237.9628694,37.825782578258,0,0
82.587230389702,-141.44249675475,32.630213021302,3716376.2370847,-2992.6503952993,2602237.9628694,37.830213021302,0,0
82.587230816955,-141.46002634481,32.634643464346,3716376.2370847,-2992.6503952993,2602237.9628694,37.834643464346,0,0
82.587231244207,-141.47755593487,32.639073907391,3716376.2370847,-2992.6503952993,2602237.9628694,37.839073907391,0,0
82.58723167146,-141.49508552493,32.643504350435,3716376.2370847,-2992.6503952993,2602237.9628694,37.843504350435,0,0
82.587232098712,-141.51261511499,32.647934793479,3716376.2370847,-2992.6503952993,2602237.9628694,37.847934793479,0,0
82.587232525965,-141.53014470504,32.652365236524,3716376.2370847,-2992.6503952993,2602237.9628694,37.852365236524,0,0
82.587232953218,-141.5476742951,32.656795679568,3716376.2370847,-2992.6503952993,2602237.9628694,37.856795679568,0,0
82.58723338047,-141.56520388516,32.661226122612,3716376.2370847,-2992.6503952993,2602237.9628694,37.861226122612,0,0
82.587233807723,-141.58273347522,32.665656565657,3716376.2370847,-2992.6503952993,2602237.9628694,37.865656565657,0,0
82.587234234976,-141.60026306528,32.670087008701,3716376.2370847,-2992.6503952993,2602237.9628694,37.870087008701,0,0
82.587234662228,-141.61779265534,32.674517451745,3716376.2370847,-2992.6503952993,2602237.9628694,37.874517451745,0,0
82.587235089481,-141.6353222454,32.678947894789,3716376.2370847,-2992.6503952993,2602237.9628694,37.878947894789,0,0
82.587235516733,-141.65285183546,32.683378337834,3716376.2370847,-2992.6503952993,2602237.9628694,37.883378337834,0,0
82.587235943986,-141.67038142551,32.687808780878,3716376.2370847,-2992.6503952993,2602237.9628694,37.887808780878,0,0
82.587236371239,-141.68791101557,32.692239223922,3716376.2370847,-2992.6503952993,2602237.9628694,37.892239223922,0,0
82.587236798491,-141.70544060563,32.696669666967,3716376.2370847,-2992.6503952993,2602237.9628694,37.896669666967,0,0
82.587237225744,-141.72297019569,32.701100110011,3716376.2370847,-2992.6503952993,2602237.9628694,37.901100110011,0,0
82.587237652996,-141.74049978575,32.705530553055,3716376.2370847,-2992.6503952993,2602237.9628694,37.905530553055,0,0
82.587238080249,-141.75802937581,32.7099609961,3716376.2370847,-2992.6503952993,2602237.9628694,37.9099609961,0,0
82.587238507502,-141.77555896587,32.714391439144,3716376.2370847,-2992.6503952993,2602237.9628694,37.914391439144,0,0
82.587238934754,-141.79308855592,32.718821882188,3716376.2370847,-2992.6503952993,2602237.9628694,37.918821882188,0,0
82.587239362007,-141.81061814598,32.723252325233,3716376.2370847,-2992.6503952993,2602237.9628694,37.923252325233,0,0
82.58723978926,-141.82814773604,32.727682768277,3716376.2370847,-2992.6503952993,2602237.9628694,37.927682768277,0,0
82.587240216512,-141.8456773261,32.732113211321,3716376.2370847,-2992.6503952993,2602237.9628694,37.932113211321,0,0
82.587240643765,-141.86320691616,32.736543654365,3716376.2370847,-2992.6503952993,2602237.9628694,37.936543654365,0,0
82.587241071017,-141.88073650622,32.74097409741,3716376.2370847,-2992.6503952993,2602237.9628694,37.94097409741,0,0
82.58724149827,-141.89826609628,32.745404540454,3716376.2370847,-2992.6503952993,2602237.9628694,37.945404540454,0,0
82.587241925523,-141.91579568634,32.749834983498,3716376.2370847,-2992.6503952993,2602237.9628694,37.949834983498,0,0
82.587242352775,-141.93332527639,32.754265426543,3716376.2370847,-2992.6503952993,2602237.9628694,37.954265426543,0,0
82.587242780028,-141.95085486645,32.758695869587,3716376.2370847,-2992.6503952993,2602237.9628694,37.958695869587,0,0
82.58724320728,-141.96838445651,32.763126312631,3716376.2370847,-2992.6503952993,2602237.9628694,37.963126312631,0,0
82.587243634533,-141.98591404657,32.767556755676,3716376.2370847,-2992.6503952993,2602237.9628694,37.967556755676,0,0
82.587244061786,-142.00344363663,32.77198719872,3716376.2370847,-2992.6503952993,2602237.9628694,37.97198719872,0,0
82.587244489038,-142.02097322669,32.776417641764,3716376.2370847,-2992.6503952993,2602237.9628694,37.976417641764,0,0
82.587244916291,-142.03850281675,32.780848084808,3716376.2370847,-2992.6503952993,2602237.9628694,37.980848084808,0,0
82.587245343544,-142.05603240681,32.785278527853,3716376.2370847,-2992.6503952993,2602237.9628694,37.985278527853,0,0
82.587245770796,-142.07356199686,32.789708970897,3716376.2370847,-2992.6503952993,2602237.9628694,37.989708970897,0,0
82.587246198049,-142.09109158692,32.794139413941,3716376.2370847,-2992.6503952993,2602237.9628694,37.994139413941,0,0
82.587246625301,-142.10862117698,32.798569856986,3716376.2370847,-2992.6503952993,2602237.9628694,37.998569856986,0,0
82.587247052554,-142.12615076704,32.80300030003,3716376.2370847,-2992.6503952993,2602237.9628694,38.00300030003,0,0
82.587247479807,-142.1436803571,32.807430743074,3716376.2370847,-2992.6503952993,2602237.9628694,38.007430743074,0,0
82.587247907059,-142.16120994716,32.811861186119,3716376.2370847,-2992.6503952993,2602237.9628694,38.011861186119,0,0
82.587248334312,-142.17873953722,32.816291629163,3716376.2370847,-2992.6503952993,2602237.9628694,38.016291629163,0,0
82.587248761564,-142.19626912727,32.820722072207,3716376.2370847,-2992.6503952993,2602237.9628694,38.020722072207,0,0
82.587249188817,-142.21379871733,32.825152515252,3716376.2370847,-2992.6503952993,2602237.9628694,38.025152515252,0,0
82.58724961607,-142.23132830739,32.829582958296,3716376.2370847,-2992.6503952993,2602237.9628694,38.029582958296,0,0
82.587250043322,-142.24885789745,32.83401340134,3716376.2370847,-2992.6503952993,2602237.9628694,38.03401340134,0,0
82.587250470575,-142.26638748751,32.838443844384,3716376.2370847,-2992.6503952993,2602237.9628694,38.038443844384,0,0
82.587250897828,-142.28391707757,32.842874287429,3716376.2370847,-2992.6503952993,2602237.9628694,38.042874287429,0,0
82.58725132508,-142.30144666763,32.847304730473,3716376.2370847,-2992.6503952993,2602237.9628694,38.047304730473,0,0
82.587251752333,-142.31897625769,32.851735173517,3716376.2370847,-2992.6503952993,2602237.9628694,38.051735173517,0,0
82.587252179585,-142.33650584774,32.856165616562,3716376.2370847,-2992.6503952993,2602237.9628694,38.056165616562,0,0
82.587252606838,-142.3540354378,32.860596059606,3716376.2370847,-2992.6503952993,2602237.9628694,38.060596059606,0,0
82.587253034091,-142.37156502786,32.86502650265,3716376.2370847,-2992.6503952993,2602237.9628694,38.06502650265,0,0
82.587253461343,-142.38909461792,32.869456945695,3716376.2370847,-2992.6503952993,2602237.9628694,38.069456945695,0,0
82.587253888596,-142.40662420798,32.873887388739,3716376.2370847,-2992.6503952993,2602237.9628694,38.073887388739,0,0
82.587254315849,-142.42415379804,32.878317831783,3716376.2370847,-2992.6503952993,2602237.9628694,38.078317831783,0,0
82.587254743101,-142.4416833881,32.882748274827,3716376.2370847,-2992.6503952993,2602237.9628694,38.082748274827,0,0
82.587255170354,-142.45921297815,32.887178717872,3716376.2370847,-2992.6503952993,2602237.9628694,38.087178717872,0,0
82.587255597606,-142.47674256821,32.891609160916,3716376.2370847,-2992.6503952993,2602237.9628694,38.091609160916,0,0
82.587256024859,-142.49427215827,32.89603960396,3716376.2370847,-2992.6503952993,2602237.9628694,38.09603960396,0,0
82.587256452112,-142.51180174833,32.900470047005,3716376.2370847,-2992.6503952993,2602237.9628694,38.100470047005,0,0
82.587256879364,-142.52933133839,32.904900490049,3716376.2370847,-2992.6503952993,2602237.9628694,38.104900490049,0,0
82.587257306617,-142.54686092845,32.909330933093,3716376.2370847,-2992.6503952993,2602237.9628694,38.109330933093,0,0
82.587257733869,-142.56439051851,32.913761376138,3716376.2370847,-2992.6503952993,2602237.9628694,38.113761376138,0,0
82.587258161122,-142.58192010857,32.918191819182,3716376.2370847,-2992.6503952993,2602237.9628694,38.118191819182,0,0
82.587258588375,-142.59944969862,32.922622262226,3716376.2370847,-2992.6503952993,2602237.9628694,38.122622262226,0,0
82.587259015627,-142.61697928868,32.927052705271,3716376.2370847,-2992.6503952993,2602237.9628694,38.127052705271,0,0
82.58725944288,-142.63450887874,32.931483148315,3716376.2370847,-2992.6503952993,2602237.9628694,38.131483148315,0,0
82.587259870133,-142.6520384688,32.935913591359,3716376.2370847,-2992.6503952993,2602237.9628694,38.135913591359,0,0
82.587260297385,-142.66956805886,32.940344034403,3716376.2370847,-2992.6503952993,2602237.9628694,38.140344034403,0,0
82.587260724638,-142.68709764892,32.944774477448,3716376.2370847,-2992.6503952993,2602237.9628694,38.144774477448,0,0
82.58726115189,-142.70462723898,32.949204920492,3716376.2370847,-2992.6503952993,2602237.9628694,38.149204920492,0,0
82.587261579143,-142.72215682904,32.953635363536,3716376.2370847,-2992.6503952993,2602237.9628694,38.153635363536,0,0
82.587262006396,-142.73968641909,32.958065806581,3716376.2370847,-2992.6503952993,2602237.9628694,38.158065806581,0,0
82.587262433648,-142.75721600915,32.962496249625,3716376.2370847,-2992.6503952993,2602237.9628694,38.162496249625,0,0
82.587262860901,-142.77474559921,32.966926692669,3716376.2370847,-2992.6503952993,2602237.9628694,38.166926692669,0,0
82.587263288153,-142.79227518927,32.971357135714,3716376.2370847,-2992.6503952993,2602237.9628694,38.171357135714,0,0
82.587263715406,-142.80980477933,32.975787578758,3716376.2370847,-2992.6503952993,2602237.9628694,38.175787578758,0,0
82.587264142659,-142.82733436939,32.980218021802,3716376.2370847,-2992.6503952993,2602237.9628694,38.180218021802,0,0
82.587264569911,-142.84486395945,32.984648464846,3716376.2370847,-2992.6503952993,2602237.9628694,38.184648464846,0,0
82.587264997164,-142.8623935495,32.989078907891,3716376.2370847,-2992.6503952993,2602237.9628694,38.189078907891,0,0
82.587265424417,-142.87992313956,32.993509350935,3716376.2370847,-2992.6503952993,2602237.9628694,38.193509350935,0,0
82.587265851669,-142.89745272962,32.997939793979,3716376.2370847,-2992.6503952993,2602237.9628694,38.197939793979,0,0
82.587266278922,-142.91498231968,33.002370237024,3716376.2370847,-2992.6503952993,2602237.9628694,38.202370237024,0,0
82.587266706174,-142.93251190974,33.006800680068,3716376.2370847,-2992.6503952993,2602237.9628694,38.206800680068,0,0
82.587267133427,-142.9500414998,33.011231123112,3716376.2370847,-2992.6503952993,2602237.9628694,38.211231123112,0,0
82.58726756068,-142.96757108986,33.015661566157,3716376.2370847,-2992.6503952993,2602237.9628694,38.215661566157,0,0
82.587267987932,-142.98510067992,33.020092009201,3716376.2370847,-2992.6503952993,2602237.9628694,38.220092009201,0,0
82.587268415185,-143.00263026997,33.024522452245,3716376.2370847,-2992.6503952993,2602237.9628694,38.224522452245,0,0
82.587268842438,-143.02015986003,33.02895289529,3716376.2370847,-2992.6503952993,2602237.9628694,38.22895289529,0,0
82.58726926969,-143.03768945009,33.033383338334,3716376.2370847,-2992.6503952993,2602237.9628694,38.233383338334,0,0
82.587269696943,-143.05521904015,33.037813781378,3716376.2370847,-2992.6503952993,2602237.9628694,38.237813781378,0,0
82.587270124195,-143.07274863021,33.042244224422,3716376.2370847,-2992.6503952993,2602237.9628694,38.242244224422,0,0
82.587270551448,-143.09027822027,33.046674667467,3716376.2370847,-2992.6503952993,2602237.9628694,38.246674667467,0,0
82.587270978701,-143.10780781033,33.051105110511,3716376.2370847,-2992.6503952993,2602237.9628694,38.251105110511,0,0
82.587271405953,-143.12533740039,33.055535553555,3716376.2370847,-2992.6503952993,2602237.9628694,38.255535553555,0,0
82.587271833206,-143.14286699044,33.0599659966,3716376.2370847,-2992.6503952993,2602237.9628694,38.2599659966,0,0
82.587272260458,-143.1603965805,33.064396439644,3716376.2370847,-2992.6503952993,2602237.9628694,38.264396439644,0,0
82.587272687711,-143.17792617056,33.068826882688,3716376.2370847,-2992.6503952993,2602237.9628694,38.268826882688,0,0
82.587273114964,-143.19545576062,33.073257325733,3716376.2370847,-2992.6503952993,2602237.9628694,38.273257325733,0,0
82.587273542216,-143.21298535068,33.077687768777,3716376.2370847,-2992.6503952993,2602237.9628694,38.277687768777,0,0
82.587273969469,-143.23051494074,33.082118211821,3716376.2370847,-2992.6503952993,2602237.9628694,38.282118211821,0,0
82.587274396722,-143.2480445308,33.086548654865,3716376.2370847,-2992.6503952993,2602237.9628694,38.286548654865,0,0
82.587274823974,-143.26557412085,33.09097909791,3716376.2370847,-2992.6503952993,2602237.9628694,38.29097909791,0,0
82.587275251227,-143.28310371091,33.095409540954,3716376.2370847,-2992.6503952993,2602237.9628694,38.295409540954,0,0
82.587275678479,-143.30063330097,33.099839983998,3716376.2370847,-2992.6503952993,2602237.9628694,38.299839983998,0,0
82.587276105732,-143.31816289103,33.104270427043,3716376.2370847,-2992.6503952993,2602237.9628694,38.304270427043,0,0
82.587276532985,-143.33569248109,33.108700870087,3716376.2370847,-2992.6503952993,2602237.9628694,38.308700870087,0,0
82.587276960237,-143.35322207115,33.113131313131,3716376.2370847,-2992.6503952993,2602237.9628694,38.313131313131,0,0
82.58727738749,-143.37075166121,33.117561756176,3716376.2370847,-2992.6503952993,2602237.9628694,38.317561756176,0,0
82.587277814742,-143.38828125127,33.12199219922,3716376.2370847,-2992.6503952993,2602237.9628694,38.32199219922,0,0
82.587278241995,-143.40581084132,33.126422642264,3716376.2370847,-2992.6503952993,2602237.9628694,38.326422642264,0,0
82.587278669248,-143.42334043138,33.130853085309,3716376.2370847,-2992.6503952993,2602237.9628694,38.330853085309,0,0
82.5872790965,-143.44087002144,33.135283528353,3716376.2370847,-2992.6503952993,2602237.9628694,38.335283528353,0,0
82.587279523753,-143.4583996115,33.139713971397,3716376.2370847,-2992.6503952993,2602237.9628694,38.339713971397,0,0
82.587279951006,-143.47592920156,33.144144414441,3716376.2370847,-2992.6503952993,2602237.9628694,38.344144414441,0,0
82.587280378258,-143.49345879162,33.148574857486,3716376.2370847,-2992.6503952993,2602237.9628694,38.348574857486,0,0
82.587280805511,-143.51098838168,33.15300530053,3716376.2370847,-2992.6503952993,2602237.9628694,38.35300530053,0,0
82.587281232763,-143.52851797174,33.157435743574,3716376.2370847,-2992.6503952993,2602237.9628694,38.357435743574,0,0
82.587281660016,-143.54604756179,33.161866186619,3716376.2370847,-2992.6503952993,2602237.9628694,38.361866186619,0,0
82.587282087269,-143.56357715185,33.166296629663,3716376.2370847,-2992.6503952993,2602237.9628694,38.366296629663,0,0
82.587282514521,-143.58110674191,33.170727072707,3716376.2370847,-2992.6503952993,2602237.9628694,38.370727072707,0,0
82.587282941774,-143.59863633197,33.175157515752,3716376.2370847,-2992.6503952993,2602237.9628694,38.375157515752,0,0
82.587283369026,-143.61616592203,33.179587958796,3716376.2370847,-2992.6503952993,2602237.9628694,38.379587958796,0,0
82.587283796279,-143.63369551209,33.18401840184,3716376.2370847,-2992.6503952993,2602237.9628694,38.38401840184,0,0
82.587284223532,-143.65122510215,33.188448844884,3716376.2370847,-2992.6503952993,2602237.9628694,38.388448844884,0,0
82.587284650784,-143.6687546922,33.192879287929,3716376.2370847,-2992.6503952993,2602237.9628694,38.392879287929,0,0
82.587285078037,-143.68628428226,33.197309730973,3716376.2370847,-2992.6503952993,2602237.9628694,38.397309730973,0,0
82.58728550529,-143.70381387232,33.201740174017,3716376.2370847,-2992.6503952993,2602237.9628694,38.401740174017,0,0
82.587285932542,-143.72134346238,33.206170617062,3716376.2370847,-2992.6503952993,2602237.9628694,38.406170617062,0,0
82.587286359795,-143.73887305244,33.210601060106,3716376.2370847,-2992.6503952993,2602237.9628694,38.410601060106,0,0
82.587286787047,-143.7564026425,33.21503150315,3716376.2370847,-2992.6503952993,2602237.9628694,38.41503150315,0,0
82.5872872143,-143.77393223256,33.219461946195,3716376.2370847,-2992.6503952993,2602237.9628694,38.419461946195,0,0
82.587287641553,-143.79146182262,33.223892389239,3716376.2370847,-2992.6503952993,2602237.9628694,38.423892389239,0,0
82.587288068805,-143.80899141267,33.228322832283,3716376.2370847,-2992.6503952993,2602237.9628694,38.428322832283,0,0
82.587288496058,-143.82652100273,33.232753275328,3716376.2370847,-2992.6503952993,2602237.9628694,38.432753275328,0,0
82.587288923311,-143.84405059279,33.237183718372,3716376.2370847,-2992.6503952993,2602237.9628694,38.437183718372,0,0
82.587289350563,-143.86158018285,33.241614161416,3716376.2370847,-2992.6503952993,2602237.9628694,38.441614161416,0,0
82.587289777816,-143.87910977291,33.24604460446,3716376.2370847,-2992.6503952993,2602237.9628694,38.44604460446,0,0
82.587290205068,-143.89663936297,33.250475047505,3716376.2370847,-2992.6503952993,2602237.9628694,38.450475047505,0,0
82.587290632321,-143.91416895303,33.254905490549,3716376.2370847,-2992.6503952993,2602237.9628694,38.454905490549,0,0
82.587291059574,-143.93169854308,33.259335933593,3716376.2370847,-2992.6503952993,2602237.9628694,38.459335933593,0,0
82.587291486826,-143.94922813314,33.263766376638,3716376.2370847,-2992.6503952993,2602237.9628694,38.463766376638,0,0
82.587291914079,-143.9667577232,33.268196819682,3716376.2370847,-2992.6503952993,2602237.9628694,38.468196819682,0,0
82.587292341331,-143.98428731326,33.272627262726,3716376.2370847,-2992.6503952993,2602237.9628694,38.472627262726,0,0
82.587292768584,-144.00181690332,33.277057705771,3716376.2370847,-2992.6503952993,2602237.9628694,38.477057705771,0,0
82.587293195837,-144.01934649338,33.281488148815,3716376.2370847,-2992.6503952993,2602237.9628694,38.481488148815,0,0
82.587293623089,-144.03687608344,33.285918591859,3716376.2370847,-2992.6503952993,2602237.9628694,38.485918591859,0,0
82.587294050342,-144.0544056735,33.290349034903,3716376.2370847,-2992.6503952993,2602237.9628694,38.490349034903,0,0
82.587294477595,-144.07193526355,33.294779477948,3716376.2370847,-2992.6503952993,2602237.9628694,38.494779477948,0,0
82.587294904847,-144.08946485361,33.299209920992,3716376.2370847,-2992.6503952993,2602237.9628694,38.499209920992,0,0
82.5872953321,-144.10699444367,33.303640364036,3716376.2370847,-2992.6503952993,2602237.9628694,38.503640364036,0,0
82.587295759352,-144.12452403373,33.308070807081,3716376.2370847,-2992.6503952993,2602237.9628694,38.508070807081,0,0
82.587296186605,-144.14205362379,33.312501250125,3716376.2370847,-2992.6503952993,2602237.9628694,38.512501250125,0,0
82.587296613858,-144.15958321385,33.316931693169,3716376.2370847,-2992.6503952993,2602237.9628694,38.516931693169,0,0
82.58729704111,-144.17711280391,33.321362136214,3716376.2370847,-2992.6503952993,2602237.9628694,38.521362136214,0,0
82.587297468363,-144.19464239397,33.325792579258,3716376.2370847,-2992.6503952993,2602237.9628694,38.525792579258,0,0
82.587297895615,-144.21217198402,33.330223022302,3716376.2370847,-2992.6503952993,2602237.9628694,38.530223022302,0,0
82.587298322868,-144.22970157408,33.334653465347,3716376.2370847,-2992.6503952993,2602237.9628694,38.534653465347,0,0
82.587298750121,-144.24723116414,33.339083908391,3716376.2370847,-2992.6503952993,2602237.9628694,38.539083908391,0,0
82.587299177373,-144.2647607542,33.343514351435,3716376.2370847,-2992.6503952993,2602237.9628694,38.543514351435,0,0
82.587299604626,-144.28229034426,33.347944794479,3716376.2370847,-2992.6503952993,2602237.9628694,38.547944794479,0,0
82.587300031879,-144.29981993432,33.352375237524,3716376.2370847,-2992.6503952993,2602237.9628694,38.552375237524,0,0
82.587300459131,-144.31734952438,33.356805680568,3716376.2370847,-2992.6503952993,2602237.9628694,38.556805680568,0,0
82.587300886384,-144.33487911443,33.361236123612,3716376.2370847,-2992.6503952993,2602237.9628694,38.561236123612,0,0
82.587301313636,-144.35240870449,33.365666566657,3716376.2370847,-2992.6503952993,2602237.9628694,38.565666566657,0,0
82.587301740889,-144.36993829455,33.370097009701,3716376.2370847,-2992.6503952993,2602237.9628694,38.570097009701,0,0
82.587302168142,-144.38746788461,33.374527452745,3716376.2370847,-2992.6503952993,2602237.9628694,38.574527452745,0,0
82.587302595394,-144.40499747467,33.37895789579,3716376.2370847,-2992.6503952993,2602237.9628694,38.57895789579,0,0
82.587303022647,-144.42252706473,33.383388338834,3716376.2370847,-2992.6503952993,2602237.9628694,38.583388338834,0,0
82.587303449899,-144.44005665479,33.387818781878,3716376.2370847,-2992.6503952993,2602237.9628694,38.587818781878,0,0
82.587303877152,-144.45758624485,33.392249224922,3716376.2370847,-2992.6503952993,2602237.9628694,38.592249224922,0,0
82.587304304405,-144.4751158349,33.396679667967,3716376.2370847,-2992.6503952993,2602237.9628694,38.596679667967,0,0
82.587304731657,-144.49264542496,33.401110111011,3716376.2370847,-2992.6503952993,2602237.9628694,38.601110111011,0,0
82.58730515891,-144.51017501502,33.405540554055,3716376.2370847,-2992.6503952993,2602237.9628694,38.605540554055,0,0
82.587305586163,-144.52770460508,33.4099709971,3716376.2370847,-2992.6503952993,2602237.9628694,38.6099709971,0,0
82.587306013415,-144.54523419514,33.414401440144,3716376.2370847,-2992.6503952993,2602237.9628694,38.614401440144,0,0
82.587306440668,-144.5627637852,33.418831883188,3716376.2370847,-2992.6503952993,2602237.9628694,38.618831883188,0,0
82.58730686792,-144.58029337526,33.423262326233,3716376.2370847,-2992.6503952993,2602237.9628694,38.623262326233,0,0
82.587307295173,-144.59782296532,33.427692769277,3716376.2370847,-2992.6503952993,2602237.9628694,38.627692769277,0,0
82.587307722426,-144.61535255537,33.432123212321,3716376.2370847,-2992.6503952993,2602237.9628694,38.632123212321,0,0
82.587308149678,-144.63288214543,33.436553655366,3716376.2370847,-2992.6503952993,2602237.9628694,38.636553655366,0,0
82.587308576931,-144.65041173549,33.44098409841,3716376.2370847,-2992.6503952993,2602237.9628694,38.64098409841,0,0
82.587309004184,-144.66794132555,33.445414541454,3716376.2370847,-2992.6503952993,2602237.9628694,38.645414541454,0,0
82.587309431436,-144.68547091561,33.449844984498,3716376.2370847,-2992.6503952993,2602237.9628694,38.649844984498,0,0
82.587309858689,-144.70300050567,33.454275427543,3716376.2370847,-2992.6503952993,2602237.9628694,38.654275427543,0,0
82.587310285941,-144.72053009573,33.458705870587,3716376.2370847,-2992.6503952993,2602237.9628694,38.658705870587,0,0
82.587310713194,-144.73805968578,33.463136313631,3716376.2370847,-2992.6503952993,2602237.9628694,38.663136313631,0,0
82.587311140447,-144.75558927584,33.467566756676,3716376.2370847,-2992.6503952993,2602237.9628694,38.667566756676,0,0
82.587311567699,-144.7731188659,33.47199719972,3716376.2370847,-2992.6503952993,2602237.9628694,38.67199719972,0,0
82.587311994952,-144.79064845596,33.476427642764,3716376.2370847,-2992.6503952993,2602237.9628694,38.676427642764,0,0
82.587312422204,-144.80817804602,33.480858085809,3716376.2370847,-2992.6503952993,2602237.9628694,38.680858085809,0,0
82.587312849457,-144.82570763608,33.485288528853,3716376.2370847,-2992.6503952993,2602237.9628694,38.685288528853,0,0
82.58731327671,-144.84323722614,33.489718971897,3716376.2370847,-2992.6503952993,2602237.9628694,38.689718971897,0,0
82.587313703962,-144.8607668162,33.494149414941,3716376.2370847,-2992.6503952993,2602237.9628694,38.694149414941,0,0
82.587314131215,-144.87829640625,33.498579857986,3716376.2370847,-2992.6503952993,2602237.9628694,38.698579857986,0,0
82.587314558468,-144.89582599631,33.50301030103,3716376.2370847,-2992.6503952993,2602237.9628694,38.70301030103,0,0
82.58731498572,-144.91335558637,33.507440744074,3716376.2370847,-2992.6503952993,2602237.9628694,38.707440744074,0,0
82.587315412973,-144.93088517643,33.511871187119,3716376.2370847,-2992.6503952993,2602237.9628694,38.711871187119,0,0
82.587315840225,-144.94841476649,33.516301630163,3716376.2370847,-2992.6503952993,2602237.9628694,38.716301630163,0,0
82.587316267478,-144.96594435655,33.520732073207,3716376.2370847,-2992.6503952993,2602237.9628694,38.720732073207,0,0
82.587316694731,-144.98347394661,33.525162516252,3716376.2370847,-2992.6503952993,2602237.9628694,38.725162516252,0,0
82.587317121983,-145.00100353667,33.529592959296,3716376.2370847,-2992.6503952993,2602237.9628694,38.729592959296,0,0
82.587317549236,-145.01853312672,33.53402340234,3716376.2370847,-2992.6503952993,2602237.9628694,38.73402340234,0,0
82.587317976488,-145.03606271678,33.538453845385,3716376.2370847,-2992.6503952993,2602237.9628694,38.738453845385,0,0
82.587318403741,-145.05359230684,33.542884288429,3716376.2370847,-2992.6503952993,2602237.9628694,38.742884288429,0,0
82.587318830994,-145.0711218969,33.547314731473,3716376.2370847,-2992.6503952993,2602237.9628694,38.747314731473,0,0
82.587319258246,-145.08865148696,33.551745174517,3716376.2370847,-2992.6503952993,2602237.9628694,38.751745174517,0,0
82.587319685499,-145.10618107702,33.556175617562,3716376.2370847,-2992.6503952993,2602237.9628694,38.756175617562,0,0
82.587320112752,-145.12371066708,33.560606060606,3716376.2370847,-2992.6503952993,2602237.9628694,38.760606060606,0,0
82.587320540004,-145.14124025713,33.56503650365,3716376.2370847,-2992.6503952993,2602237.9628694,38.76503650365,0,0
82.587320967257,-145.15876984719,33.569466946695,3716376.2370847,-2992.6503952993,2602237.9628694,38.769466946695,0,0
82.587321394509,-145.17629943725,33.573897389739,3716376.2370847,-2992.6503952993,2602237.9628694,38.773897389739,0,0
82.587321821762,-145.19382902731,33.578327832783,3716376.2370847,-2992.6503952993,2602237.9628694,38.778327832783,0,0
82.587322249015,-145.21135861737,33.582758275828,3716376.2370847,-2992.6503952993,2602237.9628694,38.782758275828,0,0
82.587322676267,-145.22888820743,33.587188718872,3716376.2370847,-2992.6503952993,2602237.9628694,38.787188718872,0,0
82.58732310352,-145.24641779749,33.591619161916,3716376.2370847,-2992.6503952993,2602237.9628694,38.791619161916,0,0
82.587323530772,-145.26394738755,33.59604960496,3716376.2370847,-2992.6503952993,2602237.9628694,38.79604960496,0,0
82.587323958025,-145.2814769776,33.600480048005,3716376.2370847,-2992.6503952993,2602237.9628694,38.800480048005,0,0
82.587324385278,-145.29900656766,33.604910491049,3716376.2370847,-2992.6503952993,2602237.9628694,38.804910491049,0,0
82.58732481253,-145.31653615772,33.609340934093,3716376.2370847,-2992.6503952993,2602237.9628694,38.809340934093,0,0
82.587325239783,-145.33406574778,33.613771377138,3716376.2370847,-2992.6503952993,2602237.9628694,38.813771377138,0,0
82.587325667036,-145.35159533784,33.618201820182,3716376.2370847,-2992.6503952993,2602237.9628694,38.818201820182,0,0
82.587326094288,-145.3691249279,33.622632263226,3716376.2370847,-2992.6503952993,2602237.9628694,38.822632263226,0,0
82.587326521541,-145.38665451796,33.627062706271,3716376.2370847,-2992.6503952993,2602237.9628694,38.827062706271,0,0
82.587326948793,-145.40418410801,33.631493149315,3716376.2370847,-2992.6503952993,2602237.9628694,38.831493149315,0,0
82.587327376046,-145.42171369807,33.635923592359,3716376.2370847,-2992.6503952993,2602237.9628694,38.835923592359,0,0
82.587327803299,-145.43924328813,33.640354035404,3716376.2370847,-2992.6503952993,2602237.9628694,38.840354035404,0,0
82.587328230551,-145.45677287819,33.644784478448,3716376.2370847,-2992.6503952993,2602237.9628694,38.844784478448,0,0
82.587328657804,-145.47430246825,33.649214921492,3716376.2370847,-2992.6503952993,2602237.9628694,38.849214921492,0,0
82.587329085057,-145.49183205831,33.653645364536,3716376.2370847,-2992.6503952993,2602237.9628694,38.853645364536,0,0
82.587329512309,-145.50936164837,33.658075807581,3716376.2370847,-2992.6503952993,2602237.9628694,38.858075807581,0,0
82.587329939562,-145.52689123843,33.662506250625,3716376.2370847,-2992.6503952993,2602237.9628694,38.862506250625,0,0
82.587330366814,-145.54442082848,33.666936693669,3716376.2370847,-2992.6503952993,2602237.9628694,38.866936693669,0,0
82.587330794111,-145.56195041854,33.671367136714,3720732.6387525,-2082.0100627362,2603605.9166879,38.871367136714,0,0
82.587331221675,-145.57948000861,33.675797579758,3720732.6387525,-2082.0100627362,2603605.9166879,38.875797579758,0,0
82.587331649239,-145.59700959868,33.680228022802,3720732.6387525,-2082.0100627362,2603605.9166879,38.880228022802,0,0
82.587332076804,-145.61453918875,33.684658465847,3720732.6387525,-2082.0100627362,2603605.9166879,38.884658465847,0,0
82.587332504368,-145.63206877882,33.689088908891,3720732.6387525,-2082.0100627362,2603605.9166879,38.889088908891,0,0
82.587332931932,-145.64959836889,33.693519351935,3720732.6387525,-2082.0100627362,2603605.9166879,38.893519351935,0,0
82.587333359496,-145.66712795896,33.697949794979,3720732.6387525,-2082.0100627362,2603605.9166879,38.897949794979,0,0
82.58733378706,-145.68465754903,33.702380238024,3720732.6387525,-2082.0100627362,2603605.9166879,38.902380238024,0,0
82.587334214624,-145.7021871391,33.706810681068,3720732.6387525,-2082.0100627362,2603605.9166879,38.906810681068,0,0
82.587334642189,-145.71971672917,33.711241124112,3720732.6387525,-2082.0100627362,2603605.9166879,38.911241124112,0,0
82.587335069753,-145.73724631923,33.715671567157,3720732.6387525,-2082.0100627362,2603605.9166879,38.915671567157,0,0
82.587335497317,-145.7547759093,33.720102010201,3720732.6387525,-2082.0100627362,2603605.9166879,38.920102010201,0,0
82.587335924881,-145.77230549937,33.724532453245,3720732.6387525,-2082.0100627362,2603605.9166879,38.924532453245,0,0
82.587336352445,-145.78983508944,33.72896289629,3720732.6387525,-2082.0100627362,2603605.9166879,38.92896289629,0,0
82.587336780009,-145.80736467951,33.733393339334,3720732.6387525,-2082.0100627362,2603605.9166879,38.933393339334,0,0
82.587337207574,-145.82489426958,33.737823782378,3720732.6387525,-2082.0100627362,2603605.9166879,38.937823782378,0,0
82.587337635138,-145.84242385965,33.742254225423,3720732.6387525,-2082.0100627362,2603605.9166879,38.942254225423,0,0
82.587338062702,-145.85995344972,33.746684668467,3720732.6387525,-2082.0100627362,2603605.9166879,38.946684668467,0,0
82.587338490266,-145.87748303979,33.751115111511,3720732.6387525,-2082.0100627362,2603605.9166879,38.951115111511,0,0
82.58733891783,-145.89501262985,33.755545554555,3720732.6387525,-2082.0100627362,2603605.9166879,38.955545554555,0,0
82.587339345394,-145.91254221992,33.7599759976,3720732.6387525,-2082.0100627362,2603605.9166879,38.9599759976,0,0
82.587339772959,-145.93007180999,33.764406440644,3720732.6387525,-2082.0100627362,2603605.9166879,38.964406440644,0,0
82.587340200523,-145.94760140006,33.768836883688,3720732.6387525,-2082.0100627362,2603605.9166879,38.968836883688,0,0
82.587340628087,-145.96513099013,33.773267326733,3720732.6387525,-2082.0100627362,2603605.9166879,38.973267326733,0,0
82.587341055651,-145.9826605802,33.777697769777,3720732.6387525,-2082.0100627362,2603605.9166879,38.977697769777,0,0
82.587341483215,-146.00019017027,33.782128212821,3720732.6387525,-2082.0100627362,2603605.9166879,38.982128212821,0,0
82.587341910779,-146.01771976034,33.786558655866,3720732.6387525,-2082.0100627362,2603605.9166879,38.986558655866,0,0
82.587342338344,-146.03524935041,33.79098909891,3720732.6387525,-2082.0100627362,2603605.9166879,38.99098909891,0,0
82.587342765908,-146.05277894048,33.795419541954,3720732.6387525,-2082.0100627362,2603605.9166879,38.995419541954,0,0
82.587343193472,-146.07030853054,33.799849984998,3720732.6387525,-2082.0100627362,2603605.9166879,38.999849984998,0,0
82.587343621036,-146.08783812061,33.804280428043,3720732.6387525,-2082.0100627362,2603605.9166879,39.004280428043,0,0
82.5873440486,-146.10536771068,33.808710871087,3720732.6387525,-2082.0100627362,2603605.9166879,39.008710871087,0,0
82.587344476164,-146.12289730075,33.813141314131,3720732.6387525,-2082.0100627362,2603605.9166879,39.013141314131,0,0
82.587344903729,-146.14042689082,33.817571757176,3720732.6387525,-2082.0100627362,2603605.9166879,39.017571757176,0,0
82.587345331293,-146.15795648089,33.82200220022,3720732.6387525,-2082.0100627362,2603605.9166879,39.02200220022,0,0
82.587345758857,-146.17548607096,33.826432643264,3720732.6387525,-2082.0100627362,2603605.9166879,39.026432643264,0,0
82.587346186421,-146.19301566103,33.830863086309,3720732.6387525,-2082.0100627362,2603605.9166879,39.030863086309,0,0
82.587346613985,-146.2105452511,33.835293529353,3720732.6387525,-2082.0100627362,2603605.9166879,39.035293529353,0,0
82.587347041549,-146.22807484116,33.839723972397,3720732.6387525,-2082.0100627362,2603605.9166879,39.039723972397,0,0
82.587347469114,-146.24560443123,33.844154415442,3720732.6387525,-2082.0100627362,2603605.9166879,39.044154415442,0,0
82.587347896678,-146.2631340213,33.848584858486,3720732.6387525,-2082.0100627362,2603605.9166879,39.048584858486,0,0
82.587348324242,-146.28066361137,33.85301530153,3720732.6387525,-2082.0100627362,2603605.9166879,39.05301530153,0,0
82.587348751806,-146.29819320144,33.857445744574,3720732.6387525,-2082.0100627362,2603605.9166879,39.057445744574,0,0
82.58734917937,-146.31572279151,33.861876187619,3720732.6387525,-2082.0100627362,2603605.9166879,39.061876187619,0,0
82.587349606934,-146.33325238158,33.866306630663,3720732.6387525,-2082.0100627362,2603605.9166879,39.066306630663,0,0
82.587350034499,-146.35078197165,33.870737073707,3720732.6387525,-2082.0100627362,2603605.9166879,39.070737073707,0,0
82.587350462063,-146.36831156172,33.875167516752,3720732.6387525,-2082.0100627362,2603605.9166879,39.075167516752,0,0
82.587350889627,-146.38584115179,33.879597959796,3720732.6387525,-2082.0100627362,2603605.9166879,39.079597959796,0,0
82.587351317191,-146.40337074185,33.88402840284,3720732.6387525,-2082.0100627362,2603605.9166879,39.08402840284,0,0
82.587351744755,-146.42090033192,33.888458845885,3720732.6387525,-2082.0100627362,2603605.9166879,39.088458845885,0,0
82.587352172319,-146.43842992199,33.892889288929,3720732.6387525,-2082.0100627362,2603605.9166879,39.092889288929,0,0
82.587352599884,-146.45595951206,33.897319731973,3720732.6387525,-2082.0100627362,2603605.9166879,39.097319731973,0,0
82.587353027448,-146.47348910213,33.901750175017,3720732.6387525,-2082.0100627362,2603605.9166879,39.101750175018,0,0
82.587353455012,-146.4910186922,33.906180618062,3720732.6387525,-2082.0100627362,2603605.9166879,39.106180618062,0,0
82.587353882576,-146.50854828227,33.910611061106,3720732.6387525,-2082.0100627362,2603605.9166879,39.110611061106,0,0
82.58735431014,-146.52607787234,33.91504150415,3720732.6387525,-2082.0100627362,2603605.9166879,39.11504150415,0,0
82.587354737704,-146.54360746241,33.919471947195,3720732.6387525,-2082.0100627362,2603605.9166879,39.119471947195,0,0
82.587355165269,-146.56113705247,33.923902390239,3720732.6387525,-2082.0100627362,2603605.9166879,39.123902390239,0,0
82.587355592833,-146.57866664254,33.928332833283,3720732.6387525,-2082.0100627362,2603605.9166879,39.128332833283,0,0
82.587356020397,-146.59619623261,33.932763276328,3720732.6387525,-2082.0100627362,2603605.9166879,39.132763276328,0,0
82.587356447961,-146.61372582268,33.937193719372,3720732.6387525,-2082.0100627362,2603605.9166879,39.137193719372,0,0
82.587356875525,-146.63125541275,33.941624162416,3720732.6387525,-2082.0100627362,2603605.9166879,39.141624162416,0,0
82.587357303089,-146.64878500282,33.946054605461,3720732.6387525,-2082.0100627362,2603605.9166879,39.146054605461,0,0
82.587357730654,-146.66631459289,33.950485048505,3720732.6387525,-2082.0100627362,2603605.9166879,39.150485048505,0,0
82.587358158218,-146.68384418296,33.954915491549,3720732.6387525,-2082.0100627362,2603605.9166879,39.154915491549,0,0
82.587358585782,-146.70137377303,33.959345934593,3720732.6387525,-2082.0100627362,2603605.9166879,39.159345934593,0,0
82.587359013346,-146.7189033631,33.963776377638,3720732.6387525,-2082.0100627362,2603605.9166879,39.163776377638,0,0
82.58735944091,-146.73643295316,33.968206820682,3720732.6387525,-2082.0100627362,2603605.9166879,39.168206820682,0,0
82.587359868474,-146.75396254323,33.972637263726,3720732.6387525,-2082.0100627362,2603605.9166879,39.172637263726,0,0
82.587360296039,-146.7714921333,33.977067706771,3720732.6387525,-2082.0100627362,2603605.9166879,39.177067706771,0,0
82.587360723603,-146.78902172337,33.981498149815,3720732.6387525,-2082.0100627362,2603605.9166879,39.181498149815,0,0
82.587361151167,-146.80655131344,33.985928592859,3720732.6387525,-2082.0100627362,2603605.9166879,39.185928592859,0,0
82.587361578731,-146.82408090351,33.990359035904,3720732.6387525,-2082.0100627362,2603605.9166879,39.190359035904,0,0
82.587362006295,-146.84161049358,33.994789478948,3720732.6387525,-2082.0100627362,2603605.9166879,39.194789478948,0,0
82.587362433859,-146.85914008365,33.999219921992,3720732.6387525,-2082.0100627362,2603605.9166879,39.199219921992,0,0
82.587362861424,-146.87666967372,34.003650365036,3720732.6387525,-2082.0100627362,2603605.9166879,39.203650365037,0,0
82.587363288988,-146.89419926378,34.008080808081,3720732.6387525,-2082.0100627362,2603605.9166879,39.208080808081,0,0
82.587363716552,-146.91172885385,34.012511251125,3720732.6387525,-2082.0100627362,2603605.9166879,39.212511251125,0,0
82.587364144116,-146.92925844392,34.016941694169,3720732.6387525,-2082.0100627362,2603605.9166879,39.216941694169,0,0
82.58736457168,-146.94678803399,34.021372137214,3720732.6387525,-2082.0100627362,2603605.9166879,39.221372137214,0,0
82.587364999244,-146.96431762406,34.025802580258,3720732.6387525,-2082.0100627362,2603605.9166879,39.225802580258,0,0
82.587365426809,-146.98184721413,34.030233023302,3720732.6387525,-2082.0100627362,2603605.9166879,39.230233023302,0,0
82.587365854373,-146.9993768042,34.034663466347,3720732.6387525,-2082.0100627362,2603605.9166879,39.234663466347,0,0
82.587366281937,-147.01690639427,34.039093909391,3720732.6387525,-2082.0100627362,2603605.9166879,39.239093909391,0,0
82.587366709501,-147.03443598434,34.043524352435,3720732.6387525,-2082.0100627362,2603605.9166879,39.243524352435,0,0
82.587367137065,-147.05196557441,34.04795479548,3720732.6387525,-2082.0100627362,2603605.9166879,39.24795479548,0,0
82.587367564629,-147.06949516447,34.052385238524,3720732.6387525,-2082.0100627362,2603605.9166879,39.252385238524,0,0
82.587367992194,-147.08702475454,34.056815681568,3720732.6387525,-2082.0100627362,2603605.9166879,39.256815681568,0,0
82.587368419758,-147.10455434461,34.061246124612,3720732.6387525,-2082.0100627362,2603605.9166879,39.261246124612,0,0
82.587368847322,-147.12208393468,34.065676567657,3720732.6387525,-2082.0100627362,2603605.9166879,39.265676567657,0,0
82.587369274886,-147.13961352475,34.070107010701,3720732.6387525,-2082.0100627362,2603605.9166879,39.270107010701,0,0
82.58736970245,-147.15714311482,34.074537453745,3720732.6387525,-2082.0100627362,2603605.9166879,39.274537453745,0,0
82.587370130014,-147.17467270489,34.07896789679,3720732.6387525,-2082.0100627362,2603605.9166879,39.27896789679,0,0
82.587370557579,-147.19220229496,34.083398339834,3720732.6387525,-2082.0100627362,2603605.9166879,39.283398339834,0,0
82.587370985143,-147.20973188503,34.087828782878,3720732.6387525,-2082.0100627362,2603605.9166879,39.287828782878,0,0
82.587371412707,-147.22726147509,34.092259225923,3720732.6387525,-2082.0100627362,2603605.9166879,39.292259225923,0,0
82.587371840271,-147.24479106516,34.096689668967,3720732.6387525,-2082.0100627362,2603605.9166879,39.296689668967,0,0
82.587372267835,-147.26232065523,34.101120112011,3720732.6387525,-2082.0100627362,2603605.9166879,39.301120112011,0,0
82.587372695399,-147.2798502453,34.105550555056,3720732.6387525,-2082.0100627362,2603605.9166879,39.305550555056,0,0
82.587373122964,-147.29737983537,34.1099809981,3720732.6387525,-2082.0100627362,2603605.9166879,39.3099809981,0,0
82.587373550528,-147.31490942544,34.114411441144,3720732.6387525,-2082.0100627362,2603605.9166879,39.314411441144,0,0
82.587373978092,-147.33243901551,34.118841884188,3720732.6387525,-2082.0100627362,2603605.9166879,39.318841884188,0,0
82.587374405656,-147.34996860558,34.123272327233,3720732.6387525,-2082.0100627362,2603605.9166879,39.323272327233,0,0
82.58737483322,-147.36749819565,34.127702770277,3720732.6387525,-2082.0100627362,2603605.9166879,39.327702770277,0,0
82.587375260784,-147.38502778572,34.132133213321,3720732.6387525,-2082.0100627362,2603605.9166879,39.332133213321,0,0
82.587375688349,-147.40255737578,34.136563656366,3720732.6387525,-2082.0100627362,2603605.9166879,39.336563656366,0,0
82.587376115913,-147.42008696585,34.14099409941,3720732.6387525,-2082.0100627362,2603605.9166879,39.34099409941,0,0
82.587376543477,-147.43761655592,34.145424542454,3720732.6387525,-2082.0100627362,2603605.9166879,39.345424542454,0,0
82.587376971041,-147.45514614599,34.149854985499,3720732.6387525,-2082.0100627362,2603605.9166879,39.349854985499,0,0
82.587377398605,-147.47267573606,34.154285428543,3720732.6387525,-2082.0100627362,2603605.9166879,39.354285428543,0,0
82.587377826169,-147.49020532613,34.158715871587,3720732.6387525,-2082.0100627362,2603605.9166879,39.358715871587,0,0
82.587378253734,-147.5077349162,34.163146314631,3720732.6387525,-2082.0100627362,2603605.9166879,39.363146314631,0,0
82.587378681298,-147.52526450627,34.167576757676,3720732.6387525,-2082.0100627362,2603605.9166879,39.367576757676,0,0
82.587379108862,-147.54279409634,34.17200720072,3720732.6387525,-2082.0100627362,2603605.9166879,39.37200720072,0,0
82.587379536426,-147.5603236864,34.176437643764,3720732.6387525,-2082.0100627362,2603605.9166879,39.376437643764,0,0
82.58737996399,-147.57785327647,34.180868086809,3720732.6387525,-2082.0100627362,2603605.9166879,39.380868086809,0,0
82.587380391554,-147.59538286654,34.185298529853,3720732.6387525,-2082.0100627362,2603605.9166879,39.385298529853,0,0
82.587380819119,-147.61291245661,34.189728972897,3720732.6387525,-2082.0100627362,2603605.9166879,39.389728972897,0,0
82.587381246683,-147.63044204668,34.194159415942,3720732.6387525,-2082.0100627362,2603605.9166879,39.394159415942,0,0
82.587381674247,-147.64797163675,34.198589858986,3720732.6387525,-2082.0100627362,2603605.9166879,39.398589858986,0,0
82.587382101811,-147.66550122682,34.20302030203,3720732.6387525,-2082.0100627362,2603605.9166879,39.40302030203,0,0
82.587382529375,-147.68303081689,34.207450745075,3720732.6387525,-2082.0100627362,2603605.9166879,39.407450745075,0,0
82.587382956939,-147.70056040696,34.211881188119,3720732.6387525,-2082.0100627362,2603605.9166879,39.411881188119,0,0
82.587383384504,-147.71808999703,34.216311631163,3720732.6387525,-2082.0100627362,2603605.9166879,39.416311631163,0,0
82.587383812068,-147.73561958709,34.220742074207,3720732.6387525,-2082.0100627362,2603605.9166879,39.420742074207,0,0
82.587384239632,-147.75314917716,34.225172517252,3720732.6387525,-2082.0100627362,2603605.9166879,39.425172517252,0,0
82.587384667196,-147.77067876723,34.229602960296,3720732.6387525,-2082.0100627362,2603605.9166879,39.429602960296,0,0
82.58738509476,-147.7882083573,34.23403340334,3720732.6387525,-2082.0100627362,2603605.9166879,39.43403340334,0,0
82.587385522324,-147.80573794737,34.238463846385,3720732.6387525,-2082.0100627362,2603605.9166879,39.438463846385,0,0
82.587385949889,-147.82326753744,34.242894289429,3720732.6387525,-2082.0100627362,2603605.9166879,39.442894289429,0,0
82.587386377453,-147.84079712751,34.247324732473,3720732.6387525,-2082.0100627362,2603605.9166879,39.447324732473,0,0
82.587386805017,-147.85832671758,34.251755175518,3720732.6387525,-2082.0100627362,2603605.9166879,39.451755175518,0,0
82.587387232729,-147.87585630764,34.256185618562,3728269.1817063,-3263.9534322244,2606038.7289499,39.456185618562,0,0
82.587387660831,-147.8933858977,34.260616061606,3728269.1817063,-3263.9534322244,2606038.7289499,39.460616061606,0,0
82.587388088932,-147.91091548775,34.26504650465,3728269.1817063,-3263.9534322244,2606038.7289499,39.46504650465,0,0
82.587388517034,-147.92844507781,34.269476947695,3728269.1817063,-3263.9534322244,2606038.7289499,39.469476947695,0,0
82.587388945135,-147.94597466787,34.273907390739,3728269.1817063,-3263.9534322244,2606038.7289499,39.473907390739,0,0
82.587389373236,-147.96350425792,34.278337833783,3728269.1817063,-3263.9534322244,2606038.7289499,39.478337833783,0,0
82.587389801338,-147.98103384798,34.282768276828,3728269.1817063,-3263.9534322244,2606038.7289499,39.482768276828,0,0
82.587390229439,-147.99856343803,34.287198719872,3728269.1817063,-3263.9534322244,2606038.7289499,39.487198719872,0,0
82.58739065754,-148.01609302809,34.291629162916,3728269.1817063,-3263.9534322244,2606038.7289499,39.491629162916,0,0
82.587391085642,-148.03362261815,34.296059605961,3728269.1817063,-3263.9534322244,2606038.7289499,39.496059605961,0,0
82.587391513743,-148.0511522082,34.300490049005,3728269.1817063,-3263.9534322244,2606038.7289499,39.500490049005,0,0
82.587391941845,-148.06868179826,34.304920492049,3728269.1817063,-3263.9534322244,2606038.7289499,39.504920492049,0,0
82.587392369946,-148.08621138832,34.309350935094,3728269.1817063,-3263.9534322244,2606038.7289499,39.509350935094,0,0
82.587392798047,-148.10374097837,34.313781378138,3728269.1817063,-3263.9534322244,2606038.7289499,39.513781378138,0,0
82.587393226149,-148.12127056843,34.318211821182,3728269.1817063,-3263.9534322244,2606038.7289499,39.518211821182,0,0
82.58739365425,-148.13880015848,34.322642264226,3728269.1817063,-3263.9534322244,2606038.7289499,39.522642264226,0,0
82.587394082352,-148.15632974854,34.327072707271,3728269.1817063,-3263.9534322244,2606038.7289499,39.527072707271,0,0
82.587394510453,-148.1738593386,34.331503150315,3728269.1817063,-3263.9534322244,2606038.7289499,39.531503150315,0,0
82.587394938554,-148.19138892865,34.335933593359,3728269.1817063,-3263.9534322244,2606038.7289499,39.535933593359,0,0
82.587395366656,-148.20891851871,34.340364036404,3728269.1817063,-3263.9534322244,2606038.7289499,39.540364036404,0,0
82.587395794757,-148.22644810876,34.344794479448,3728269.1817063,-3263.9534322244,2606038.7289499,39.544794479448,0,0
82.587396222858,-148.24397769882,34.349224922492,3728269.1817063,-3263.9534322244,2606038.7289499,39.549224922492,0,0
82.58739665096,-148.26150728888,34.353655365537,3728269.1817063,-3263.9534322244,2606038.7289499,39.553655365537,0,0
82.587397079061,-148.27903687893,34.358085808581,3728269.1817063,-3263.9534322244,2606038.7289499,39.558085808581,0,0
82.587397507163,-148.29656646899,34.362516251625,3728269.1817063,-3263.9534322244,2606038.7289499,39.562516251625,0,0
82.587397935264,-148.31409605904,34.366946694669,3728269.1817063,-3263.9534322244,2606038.7289499,39.566946694669,0,0
82.587398363365,-148.3316256491,34.371377137714,3728269.1817063,-3263.9534322244,2606038.7289499,39.571377137714,0,0
82.587398791467,-148.34915523916,34.375807580758,3728269.1817063,-3263.9534322244,2606038.7289499,39.575807580758,0,0
82.587399219568,-148.36668482921,34.380238023802,3728269.1817063,-3263.9534322244,2606038.7289499,39.580238023802,0,0
82.587399647669,-148.38421441927,34.384668466847,3728269.1817063,-3263.9534322244,2606038.7289499,39.584668466847,0,0
82.587400075771,-148.40174400932,34.389098909891,3728269.1817063,-3263.9534322244,2606038.7289499,39.589098909891,0,0
82.587400503872,-148.41927359938,34.393529352935,3728269.1817063,-3263.9534322244,2606038.7289499,39.593529352935,0,0
82.587400931974,-148.43680318944,34.39795979598,3728269.1817063,-3263.9534322244,2606038.7289499,39.59795979598,0,0
82.587401360075,-148.45433277949,34.402390239024,3728269.1817063,-3263.9534322244,2606038.7289499,39.602390239024,0,0
82.587401788176,-148.47186236955,34.406820682068,3728269.1817063,-3263.9534322244,2606038.7289499,39.606820682068,0,0
82.587402216278,-148.4893919596,34.411251125113,3728269.1817063,-3263.9534322244,2606038.7289499,39.611251125113,0,0
82.587402644379,-148.50692154966,34.415681568157,3728269.1817063,-3263.9534322244,2606038.7289499,39.615681568157,0,0
82.58740307248,-148.52445113972,34.420112011201,3728269.1817063,-3263.9534322244,2606038.7289499,39.620112011201,0,0
82.587403500582,-148.54198072977,34.424542454245,3728269.1817063,-3263.9534322244,2606038.7289499,39.624542454245,0,0
82.587403928683,-148.55951031983,34.42897289729,3728269.1817063,-3263.9534322244,2606038.7289499,39.62897289729,0,0
82.587404356785,-148.57703990989,34.433403340334,3728269.1817063,-3263.9534322244,2606038.7289499,39.633403340334,0,0
82.587404784886,-148.59456949994,34.437833783378,3728269.1817063,-3263.9534322244,2606038.7289499,39.637833783378,0,0
82.587405212987,-148.61209909,34.442264226423,3728269.1817063,-3263.9534322244,2606038.7289499,39.642264226423,0,0
82.587405641089,-148.62962868005,34.446694669467,3728269.1817063,-3263.9534322244,2606038.7289499,39.646694669467,0,0
82.58740606919,-148.64715827011,34.451125112511,3728269.1817063,-3263.9534322244,2606038.7289499,39.651125112511,0,0
82.587406497291,-148.66468786017,34.455555555556,3728269.1817063,-3263.9534322244,2606038.7289499,39.655555555556,0,0
82.587406925393,-148.68221745022,34.4599859986,3728269.1817063,-3263.9534322244,2606038.7289499,39.6599859986,0,0
82.587407353494,-148.69974704028,34.464416441644,3728269.1817063,-3263.9534322244,2606038.7289499,39.664416441644,0,0
82.587407781596,-148.71727663033,34.468846884688,3728269.1817063,-3263.9534322244,2606038.7289499,39.668846884688,0,0
82.587408209697,-148.73480622039,34.473277327733,3728269.1817063,-3263.9534322244,2606038.7289499,39.673277327733,0,0
82.587408637798,-148.75233581045,34.477707770777,3728269.1817063,-3263.9534322244,2606038.7289499,39.677707770777,0,0
82.5874090659,-148.7698654005,34.482138213821,3728269.1817063,-3263.9534322244,2606038.7289499,39.682138213821,0,0
82.587409494001,-148.78739499056,34.486568656866,3728269.1817063,-3263.9534322244,2606038.7289499,39.686568656866,0,0
82.587409922103,-148.80492458061,34.49099909991,3728269.1817063,-3263.9534322244,2606038.7289499,39.69099909991,0,0
82.587410350204,-148.82245417067,34.495429542954,3728269.1817063,-3263.9534322244,2606038.7289499,39.695429542954,0,0
82.587410778305,-148.83998376073,34.499859985999,3728269.1817063,-3263.9534322244,2606038.7289499,39.699859985999,0,0
82.587411206407,-148.85751335078,34.504290429043,3728269.1817063,-3263.9534322244,2606038.7289499,39.704290429043,0,0
82.587411634508,-148.87504294084,34.508720872087,3728269.1817063,-3263.9534322244,2606038.7289499,39.708720872087,0,0
82.587412062609,-148.89257253089,34.513151315132,3728269.1817063,-3263.9534322244,2606038.7289499,39.713151315132,0,0
82.587412490711,-148.91010212095,34.517581758176,3728269.1817063,-3263.9534322244,2606038.7289499,39.717581758176,0,0
82.587412918812,-148.92763171101,34.52201220122,3728269.1817063,-3263.9534322244,2606038.7289499,39.72201220122,0,0
82.587413346914,-148.94516130106,34.526442644264,3728269.1817063,-3263.9534322244,2606038.7289499,39.726442644264,0,0
82.587413775015,-148.96269089112,34.530873087309,3728269.1817063,-3263.9534322244,2606038.7289499,39.730873087309,0,0
82.587414203116,-148.98022048118,34.535303530353,3728269.1817063,-3263.9534322244,2606038.7289499,39.735303530353,0,0
82.587414631218,-148.99775007123,34.539733973397,3728269.1817063,-3263.9534322244,2606038.7289499,39.739733973397,0,0
82.587415059319,-149.01527966129,34.544164416442,3728269.1817063,-3263.9534322244,2606038.7289499,39.744164416442,0,0
82.58741548742,-149.03280925134,34.548594859486,3728269.1817063,-3263.9534322244,2606038.7289499,39.748594859486,0,0
82.587415915522,-149.0503388414,34.55302530253,3728269.1817063,-3263.9534322244,2606038.7289499,39.75302530253,0,0
82.587416343623,-149.06786843146,34.557455745575,3728269.1817063,-3263.9534322244,2606038.7289499,39.757455745575,0,0
82.587416771725,-149.08539802151,34.561886188619,3728269.1817063,-3263.9534322244,2606038.7289499,39.761886188619,0,0
82.587417199826,-149.10292761157,34.566316631663,3728269.1817063,-3263.9534322244,2606038.7289499,39.766316631663,0,0
82.587417627927,-149.12045720162,34.570747074707,3728269.1817063,-3263.9534322244,2606038.7289499,39.770747074707,0,0
82.587418056029,-149.13798679168,34.575177517752,3728269.1817063,-3263.9534322244,2606038.7289499,39.775177517752,0,0
82.58741848413,-149.15551638174,34.579607960796,3728269.1817063,-3263.9534322244,2606038.7289499,39.779607960796,0,0
82.587418912231,-149.17304597179,34.58403840384,3728269.1817063,-3263.9534322244,2606038.7289499,39.78403840384,0,0
82.587419340333,-149.19057556185,34.588468846885,3728269.1817063,-3263.9534322244,2606038.7289499,39.788468846885,0,0
82.587419768434,-149.2081051519,34.592899289929,3728269.1817063,-3263.9534322244,2606038.7289499,39.792899289929,0,0
82.587420196536,-149.22563474196,34.597329732973,3728269.1817063,-3263.9534322244,2606038.7289499,39.797329732973,0,0
82.587420624637,-149.24316433202,34.601760176018,3728269.1817063,-3263.9534322244,2606038.7289499,39.801760176018,0,0
82.587421052738,-149.26069392207,34.606190619062,3728269.1817063,-3263.9534322244,2606038.7289499,39.806190619062,0,0
82.58742148084,-149.27822351213,34.610621062106,3728269.1817063,-3263.9534322244,2606038.7289499,39.810621062106,0,0
82.587421908941,-149.29575310218,34.615051505151,3728269.1817063,-3263.9534322244,2606038.7289499,39.815051505151,0,0
82.587422337043,-149.31328269224,34.619481948195,3728269.1817063,-3263.9534322244,2606038.7289499,39.819481948195,0,0
82.587422765144,-149.3308122823,34.623912391239,3728269.1817063,-3263.9534322244,2606038.7289499,39.823912391239,0,0
82.587423193245,-149.34834187235,34.628342834283,3728269.1817063,-3263.9534322244,2606038.7289499,39.828342834283,0,0
82.587423621347,-149.36587146241,34.632773277328,3728269.1817063,-3263.9534322244,2606038.7289499,39.832773277328,0,0
82.587424049448,-149.38340105246,34.637203720372,3728269.1817063,-3263.9534322244,2606038.7289499,39.837203720372,0,0
82.587424477549,-149.40093064252,34.641634163416,3728269.1817063,-3263.9534322244,2606038.7289499,39.841634163416,0,0
82.587424905651,-149.41846023258,34.646064606461,3728269.1817063,-3263.9534322244,2606038.7289499,39.846064606461,0,0
82.587425333752,-149.43598982263,34.650495049505,3728269.1817063,-3263.9534322244,2606038.7289499,39.850495049505,0,0
82.587425761854,-149.45351941269,34.654925492549,3728269.1817063,-3263.9534322244,2606038.7289499,39.854925492549,0,0
82.587426189955,-149.47104900275,34.659355935594,3728269.1817063,-3263.9534322244,2606038.7289499,39.859355935594,0,0
82.587426618056,-149.4885785928,34.663786378638,3728269.1817063,-3263.9534322244,2606038.7289499,39.863786378638,0,0
82.587427046158,-149.50610818286,34.668216821682,3728269.1817063,-3263.9534322244,2606038.7289499,39.868216821682,0,0
82.587427474259,-149.52363777291,34.672647264726,3728269.1817063,-3263.9534322244,2606038.7289499,39.872647264726,0,0
82.58742790236,-149.54116736297,34.677077707771,3728269.1817063,-3263.9534322244,2606038.7289499,39.877077707771,0,0
82.587428330462,-149.55869695303,34.681508150815,3728269.1817063,-3263.9534322244,2606038.7289499,39.881508150815,0,0
82.587428758563,-149.57622654308,34.685938593859,3728269.1817063,-3263.9534322244,2606038.7289499,39.885938593859,0,0
82.587429186665,-149.59375613314,34.690369036904,3728269.1817063,-3263.9534322244,2606038.7289499,39.890369036904,0,0
82.587429614766,-149.61128572319,34.694799479948,3728269.1817063,-3263.9534322244,2606038.7289499,39.894799479948,0,0
82.587430042867,-149.62881531325,34.699229922992,3728269.1817063,-3263.9534322244,2606038.7289499,39.899229922992,0,0
82.587430470969,-149.64634490331,34.703660366037,3728269.1817063,-3263.9534322244,2606038.7289499,39.903660366037,0,0
82.58743089907,-149.66387449336,34.708090809081,3728269.1817063,-3263.9534322244,2606038.7289499,39.908090809081,0,0
82.587431327171,-149.68140408342,34.712521252125,3728269.1817063,-3263.9534322244,2606038.7289499,39.912521252125,0,0
82.587431755273,-149.69893367347,34.71695169517,3728269.1817063,-3263.9534322244,2606038.7289499,39.91695169517,0,0
82.587432183374,-149.71646326353,34.721382138214,3728269.1817063,-3263.9534322244,2606038.7289499,39.921382138214,0,0
82.587432611476,-149.73399285359,34.725812581258,3728269.1817063,-3263.9534322244,2606038.7289499,39.925812581258,0,0
82.587433039577,-149.75152244364,34.730243024302,3728269.1817063,-3263.9534322244,2606038.7289499,39.930243024302,0,0
82.587433467678,-149.7690520337,34.734673467347,3728269.1817063,-3263.9534322244,2606038.7289499,39.934673467347,0,0
82.58743389578,-149.78658162375,34.739103910391,3728269.1817063,-3263.9534322244,2606038.7289499,39.939103910391,0,0
82.587434323881,-149.80411121381,34.743534353435,3728269.1817063,-3263.9534322244,2606038.7289499,39.943534353435,0,0
82.587434751983,-149.82164080387,34.74796479648,3728269.1817063,-3263.9534322244,2606038.7289499,39.94796479648,0,0
82.587435180084,-149.83917039392,34.752395239524,3728269.1817063,-3263.9534322244,2606038.7289499,39.952395239524,0,0
82.587435608185,-149.85669998398,34.756825682568,3728269.1817063,-3263.9534322244,2606038.7289499,39.956825682568,0,0
82.587436036287,-149.87422957404,34.761256125613,3728269.1817063,-3263.9534322244,2606038.7289499,39.961256125613,0,0
82.587436464388,-149.89175916409,34.765686568657,3728269.1817063,-3263.9534322244,2606038.7289499,39.965686568657,0,0
82.587436892489,-149.90928875415,34.770117011701,3728269.1817063,-3263.9534322244,2606038.7289499,39.970117011701,0,0
82.587437320591,-149.9268183442,34.774547454745,3728269.1817063,-3263.9534322244,2606038.7289499,39.974547454745,0,0
82.587437748692,-149.94434793426,34.77897789779,3728269.1817063,-3263.9534322244,2606038.7289499,39.97897789779,0,0
82.587438176794,-149.96187752432,34.783408340834,3728269.1817063,-3263.9534322244,2606038.7289499,39.983408340834,0,0
82.587438604895,-149.97940711437,34.787838783878,3728269.1817063,-3263.9534322244,2606038.7289499,39.987838783878,0,0
82.587439032996,-149.99693670443,34.792269226923,3728269.1817063,-3263.9534322244,2606038.7289499,39.992269226923,0,0
82.587439461098,-150.01446629448,34.796699669967,3728269.1817063,-3263.9534322244,2606038.7289499,39.996699669967,0,0
82.587439889199,-150.03199588454,34.801130113011,3728269.1817063,-3263.9534322244,2606038.7289499,40.001130113011,0,0
82.5874403173,-150.0495254746,34.805560556056,3728269.1817063,-3263.9534322244,2606038.7289499,40.005560556056,0,0
82.587440745402,-150.06705506465,34.8099909991,3728269.1817063,-3263.9534322244,2606038.7289499,40.0099909991,0,0
82.587441173503,-150.08458465471,34.814421442144,3728269.1817063,-3263.9534322244,2606038.7289499,40.014421442144,0,0
82.587441601605,-150.10211424476,34.818851885189,3728269.1817063,-3263.9534322244,2606038.7289499,40.018851885189,0,0
82.587442029706,-150.11964383482,34.823282328233,3728269.1817063,-3263.9534322244,2606038.7289499,40.023282328233,0,0
82.587442457807,-150.13717342488,34.827712771277,3728269.1817063,-3263.9534322244,2606038.7289499,40.027712771277,0,0
82.587442885909,-150.15470301493,34.832143214321,3728269.1817063,-3263.9534322244,2606038.7289499,40.032143214321,0,0
82.58744331401,-150.17223260499,34.836573657366,3728269.1817063,-3263.9534322244,2606038.7289499,40.036573657366,0,0
82.587443742111,-150.18976219504,34.84100410041,3728269.1817063,-3263.9534322244,2606038.7289499,40.04100410041,0,0
82.587444170213,-150.2072917851,34.845434543454,3728269.1817063,-3263.9534322244,2606038.7289499,40.045434543454,0,0
82.587444598314,-150.22482137516,34.849864986499,3728269.1817063,-3263.9534322244,2606038.7289499,40.049864986499,0,0
82.587445026416,-150.24235096521,34.854295429543,3728269.1817063,-3263.9534322244,2606038.7289499,40.054295429543,0,0
82.587445454517,-150.25988055527,34.858725872587,3728269.1817063,-3263.9534322244,2606038.7289499,40.058725872587,0,0
82.587445882618,-150.27741014532,34.863156315632,3728269.1817063,-3263.9534322244,2606038.7289499,40.063156315632,0,0
82.58744631072,-150.29493973538,34.867586758676,3728269.1817063,-3263.9534322244,2606038.7289499,40.067586758676,0,0
82.587446738821,-150.31246932544,34.87201720172,3728269.1817063,-3263.9534322244,2606038.7289499,40.07201720172,0,0
82.587447166923,-150.32999891549,34.876447644764,3728269.1817063,-3263.9534322244,2606038.7289499,40.076447644764,0,0
82.587447595024,-150.34752850555,34.880878087809,3728269.1817063,-3263.9534322244,2606038.7289499,40.080878087809,0,0
82.587448023125,-150.36505809561,34.885308530853,3728269.1817063,-3263.9534322244,2606038.7289499,40.085308530853,0,0
82.587448451227,-150.38258768566,34.889738973897,3728269.1817063,-3263.9534322244,2606038.7289499,40.089738973897,0,0
82.587448879328,-150.40011727572,34.894169416942,3728269.1817063,-3263.9534322244,2606038.7289499,40.094169416942,0,0
82.587449307429,-150.41764686577,34.898599859986,3728269.1817063,-3263.9534322244,2606038.7289499,40.098599859986,0,0
82.587449735531,-150.43517645583,34.90303030303,3728269.1817063,-3263.9534322244,2606038.7289499,40.10303030303,0,0
82.587450163632,-150.45270604589,34.907460746075,3728269.1817063,-3263.9534322244,2606038.7289499,40.107460746075,0,0
82.587450591734,-150.47023563594,34.911891189119,3728269.1817063,-3263.9534322244,2606038.7289499,40.111891189119,0,0
82.587451019835,-150.487765226,34.916321632163,3728269.1817063,-3263.9534322244,2606038.7289499,40.116321632163,0,0
82.587451447936,-150.50529481605,34.920752075208,3728269.1817063,-3263.9534322244,2606038.7289499,40.120752075208,0,0
82.587451876038,-150.52282440611,34.925182518252,3728269.1817063,-3263.9534322244,2606038.7289499,40.125182518252,0,0
82.587452304139,-150.54035399617,34.929612961296,3728269.1817063,-3263.9534322244,2606038.7289499,40.129612961296,0,0
82.58745273224,-150.55788358622,34.93404340434,3728269.1817063,-3263.9534322244,2606038.7289499,40.13404340434,0,0
82.587453160342,-150.57541317628,34.938473847385,3728269.1817063,-3263.9534322244,2606038.7289499,40.138473847385,0,0
82.587453588443,-150.59294276633,34.942904290429,3728269.1817063,-3263.9534322244,2606038.7289499,40.142904290429,0,0
82.587454016545,-150.61047235639,34.947334733473,3728269.1817063,-3263.9534322244,2606038.7289499,40.147334733473,0,0
82.587454444646,-150.62800194645,34.951765176518,3728269.1817063,-3263.9534322244,2606038.7289499,40.151765176518,0,0
82.587454872747,-150.6455315365,34.956195619562,3728269.1817063,-3263.9534322244,2606038.7289499,40.156195619562,0,0
82.587455300849,-150.66306112656,34.960626062606,3728269.1817063,-3263.9534322244,2606038.7289499,40.160626062606,0,0
82.58745572895,-150.68059071661,34.965056505651,3728269.1817063,-3263.9534322244,2606038.7289499,40.165056505651,0,0
82.587456157051,-150.69812030667,34.969486948695,3728269.1817063,-3263.9534322244,2606038.7289499,40.169486948695,0,0
82.587456585153,-150.71564989673,34.973917391739,3728269.1817063,-3263.9534322244,2606038.7289499,40.173917391739,0,0
82.587457013254,-150.73317948678,34.978347834783,3728269.1817063,-3263.9534322244,2606038.7289499,40.178347834783,0,0
82.587457441356,-150.75070907684,34.982778277828,3728269.1817063,-3263.9534322244,2606038.7289499,40.182778277828,0,0
82.587457869457,-150.7682386669,34.987208720872,3728269.1817063,-3263.9534322244,2606038.7289499,40.187208720872,0,0
82.587458297558,-150.78576825695,34.991639163916,3728269.1817063,-3263.9534322244,2606038.7289499,40.191639163916,0,0
82.58745872566,-150.80329784701,34.996069606961,3728269.1817063,-3263.9534322244,2606038.7289499,40.196069606961,0,0
82.587459153761,-150.82082743706,35.000500050005,3728269.1817063,-3263.9534322244,2606038.7289499,40.200500050005,0,0
82.587459581862,-150.83835702712,35.004930493049,3728269.1817063,-3263.9534322244,2606038.7289499,40.204930493049,0,0
82.587460009964,-150.85588661718,35.009360936094,3728269.1817063,-3263.9534322244,2606038.7289499,40.209360936094,0,0
82.587460438065,-150.87341620723,35.013791379138,3728269.1817063,-3263.9534322244,2606038.7289499,40.213791379138,0,0
82.587460866167,-150.89094579729,35.018221822182,3728269.1817063,-3263.9534322244,2606038.7289499,40.218221822182,0,0
82.587461294268,-150.90847538734,35.022652265227,3728269.1817063,-3263.9534322244,2606038.7289499,40.222652265227,0,0
82.587461722369,-150.9260049774,35.027082708271,3728269.1817063,-3263.9534322244,2606038.7289499,40.227082708271,0,0
82.587462150471,-150.94353456746,35.031513151315,3728269.1817063,-3263.9534322244,2606038.7289499,40.231513151315,0,0
82.587462578572,-150.96106415751,35.035943594359,3728269.1817063,-3263.9534322244,2606038.7289499,40.235943594359,0,0
82.587463006674,-150.97859374757,35.040374037404,3728269.1817063,-3263.9534322244,2606038.7289499,40.240374037404,0,0
82.587463434775,-150.99612333762,35.044804480448,3728269.1817063,-3263.9534322244,2606038.7289499,40.244804480448,0,0
82.587463862876,-151.01365292768,35.049234923492,3728269.1817063,-3263.9534322244,2606038.7289499,40.249234923492,0,0
82.587464290978,-151.03118251774,35.053665366537,3728269.1817063,-3263.9534322244,2606038.7289499,40.253665366537,0,0
82.587464719079,-151.04871210779,35.058095809581,3728269.1817063,-3263.9534322244,2606038.7289499,40.258095809581,0,0
82.58746514718,-151.06624169785,35.062526252625,3728269.1817063,-3263.9534322244,2606038.7289499,40.262526252625,0,0
82.587465575282,-151.0837712879,35.06695669567,3728269.1817063,-3263.9534322244,2606038.7289499,40.26695669567,0,0
82.587466003383,-151.10130087796,35.071387138714,3728269.1817063,-3263.9534322244,2606038.7289499,40.271387138714,0,0
82.587466431485,-151.11883046802,35.075817581758,3728269.1817063,-3263.9534322244,2606038.7289499,40.275817581758,0,0
82.587466859586,-151.13636005807,35.080248024802,3728269.1817063,-3263.9534322244,2606038.7289499,40.280248024802,0,0
82.587467287687,-151.15388964813,35.084678467847,3728269.1817063,-3263.9534322244,2606038.7289499,40.284678467847,0,0
82.587467715789,-151.17141923818,35.089108910891,3728269.1817063,-3263.9534322244,2606038.7289499,40.289108910891,0,0
82.58746814389,-151.18894882824,35.093539353935,3728269.1817063,-3263.9534322244,2606038.7289499,40.293539353935,0,0
82.587468571991,-151.2064784183,35.09796979698,3728269.1817063,-3263.9534322244,2606038.7289499,40.29796979698,0,0
82.587469000093,-151.22400800835,35.102400240024,3728269.1817063,-3263.9534322244,2606038.7289499,40.302400240024,0,0
82.587469428194,-151.24153759841,35.106830683068,3728269.1817063,-3263.9534322244,2606038.7289499,40.306830683068,0,0
82.587469856296,-151.25906718847,35.111261126113,3728269.1817063,-3263.9534322244,2606038.7289499,40.311261126113,0,0
82.587470284397,-151.27659677852,35.115691569157,3728269.1817063,-3263.9534322244,2606038.7289499,40.315691569157,0,0
82.587470712498,-151.29412636858,35.120122012201,3728269.1817063,-3263.9534322244,2606038.7289499,40.320122012201,0,0
82.5874711406,-151.31165595863,35.124552455246,3728269.1817063,-3263.9534322244,2606038.7289499,40.324552455246,0,0
82.587471568701,-151.32918554869,35.12898289829,3728269.1817063,-3263.9534322244,2606038.7289499,40.32898289829,0,0
82.587471996802,-151.34671513875,35.133413341334,3728269.1817063,-3263.9534322244,2606038.7289499,40.333413341334,0,0
82.587472424904,-151.3642447288,35.137843784378,3728269.1817063,-3263.9534322244,2606038.7289499,40.337843784378,0,0
82.587472853005,-151.38177431886,35.142274227423,3728269.1817063,-3263.9534322244,2606038.7289499,40.342274227423,0,0
82.587473281107,-151.39930390891,35.146704670467,3728269.1817063,-3263.9534322244,2606038.7289499,40.346704670467,0,0
82.587473709208,-151.41683349897,35.151135113511,3728269.1817063,-3263.9534322244,2606038.7289499,40.351135113511,0,0
82.587474137309,-151.43436308903,35.155565556556,3728269.1817063,-3263.9534322244,2606038.7289499,40.355565556556,0,0
82.587474565411,-151.45189267908,35.1599959996,3728269.1817063,-3263.9534322244,2606038.7289499,40.3599959996,0,0
82.587474993512,-151.46942226914,35.164426442644,3728269.1817063,-3263.9534322244,2606038.7289499,40.364426442644,0,0
82.587475421614,-151.48695185919,35.168856885689,3728269.1817063,-3263.9534322244,2606038.7289499,40.368856885689,0,0
82.587475849715,-151.50448144925,35.173287328733,3728269.1817063,-3263.9534322244,2606038.7289499,40.373287328733,0,0
82.587476277816,-151.52201103931,35.177717771777,3728269.1817063,-3263.9534322244,2606038.7289499,40.377717771777,0,0
82.587476705918,-151.53954062936,35.182148214821,3728269.1817063,-3263.9534322244,2606038.7289499,40.382148214821,0,0
82.587477134019,-151.55707021942,35.186578657866,3728269.1817063,-3263.9534322244,2606038.7289499,40.386578657866,0,0
82.58747756212,-151.57459980947,35.19100910091,3728269.1817063,-3263.9534322244,2606038.7289499,40.39100910091,0,0
82.587477990222,-151.59212939953,35.195439543954,3728269.1817063,-3263.9534322244,2606038.7289499,40.395439543954,0,0
82.587478418323,-151.60965898959,35.199869986999,3728269.1817063,-3263.9534322244,2606038.7289499,40.399869986999,0,0
82.587478846425,-151.62718857964,35.204300430043,3728269.1817063,-3263.9534322244,2606038.7289499,40.404300430043,0,0
82.587479274526,-151.6447181697,35.208730873087,3728269.1817063,-3263.9534322244,2606038.7289499,40.408730873087,0,0
82.587479702627,-151.66224775976,35.213161316132,3728269.1817063,-3263.9534322244,2606038.7289499,40.413161316132,0,0
82.587480130729,-151.67977734981,35.217591759176,3728269.1817063,-3263.9534322244,2606038.7289499,40.417591759176,0,0
82.58748055883,-151.69730693987,35.22202220222,3728269.1817063,-3263.9534322244,2606038.7289499,40.42202220222,0,0
82.587480986931,-151.71483652992,35.226452645265,3728269.1817063,-3263.9534322244,2606038.7289499,40.426452645265,0,0
82.587481415033,-151.73236611998,35.230883088309,3728269.1817063,-3263.9534322244,2606038.7289499,40.430883088309,0,0
82.587481843134,-151.74989571004,35.235313531353,3728269.1817063,-3263.9534322244,2606038.7289499,40.435313531353,0,0
82.587482271236,-151.76742530009,35.239743974397,3728269.1817063,-3263.9534322244,2606038.7289499,40.439743974397,0,0
82.587482699337,-151.78495489015,35.244174417442,3728269.1817063,-3263.9534322244,2606038.7289499,40.444174417442,0,0
82.587483127438,-151.8024844802,35.248604860486,3728269.1817063,-3263.9534322244,2606038.7289499,40.448604860486,0,0
82.58748355554,-151.82001407026,35.25303530353,3728269.1817063,-3263.9534322244,2606038.7289499,40.45303530353,0,0
82.587483983641,-151.83754366032,35.257465746575,3728269.1817063,-3263.9534322244,2606038.7289499,40.457465746575,0,0
82.587484411742,-151.85507325037,35.261896189619,3728269.1817063,-3263.9534322244,2606038.7289499,40.461896189619,0,0
82.587484839844,-151.87260284043,35.266326632663,3728269.1817063,-3263.9534322244,2606038.7289499,40.466326632663,0,0
82.587485267945,-151.89013243048,35.270757075708,3728269.1817063,-3263.9534322244,2606038.7289499,40.470757075708,0,0
82.587485696047,-151.90766202054,35.275187518752,3728269.1817063,-3263.9534322244,2606038.7289499,40.475187518752,0,0
82.587486124148,-151.9251916106,35.279617961796,3728269.1817063,-3263.9534322244,2606038.7289499,40.479617961796,0,0
82.587486552249,-151.94272120065,35.28404840484,3728269.1817063,-3263.9534322244,2606038.7289499,40.48404840484,0,0
82.587486980351,-151.96025079071,35.288478847885,3728269.1817063,-3263.9534322244,2606038.7289499,40.488478847885,0,0
82.587487408452,-151.97778038076,35.292909290929,3728269.1817063,-3263.9534322244,2606038.7289499,40.492909290929,0,0
82.587487836554,-151.99530997082,35.297339733973,3728269.1817063,-3263.9534322244,2606038.7289499,40.497339733973,0,0
82.587488264655,-152.01283956088,35.301770177018,3728269.1817063,-3263.9534322244,2606038.7289499,40.501770177018,0,0
82.587488692756,-152.03036915093,35.306200620062,3728269.1817063,-3263.9534322244,2606038.7289499,40.506200620062,0,0
82.587489120858,-152.04789874099,35.310631063106,3728269.1817063,-3263.9534322244,2606038.7289499,40.510631063106,0,0
82.587489548959,-152.06542833104,35.315061506151,3728269.1817063,-3263.9534322244,2606038.7289499,40.515061506151,0,0
82.58748997706,-152.0829579211,35.319491949195,3728269.1817063,-3263.9534322244,2606038.7289499,40.519491949195,0,0
82.587490405162,-152.10048751116,35.323922392239,3728269.1817063,-3263.9534322244,2606038.7289499,40.523922392239,0,0
82.587490833263,-152.11801710121,35.328352835284,3728269.1817063,-3263.9534322244,2606038.7289499,40.528352835284,0,0
82.587491261365,-152.13554669127,35.332783278328,3728269.1817063,-3263.9534322244,2606038.7289499,40.532783278328,0,0
82.587491689466,-152.15307628133,35.337213721372,3728269.1817063,-3263.9534322244,2606038.7289499,40.537213721372,0,0
82.587492117567,-152.17060587138,35.341644164416,3728269.1817063,-3263.9534322244,2606038.7289499,40.541644164416,0,0
82.587492545669,-152.18813546144,35.346074607461,3728269.1817063,-3263.9534322244,2606038.7289499,40.546074607461,0,0
82.58749297377,-152.20566505149,35.350505050505,3728269.1817063,-3263.9534322244,2606038.7289499,40.550505050505,0,0
82.587493401871,-152.22319464155,35.354935493549,3728269.1817063,-3263.9534322244,2606038.7289499,40.554935493549,0,0
82.587493829973,-152.24072423161,35.359365936594,3728269.1817063,-3263.9534322244,2606038.7289499,40.559365936594,0,0
82.587494258074,-152.25825382166,35.363796379638,3728269.1817063,-3263.9534322244,2606038.7289499,40.563796379638,0,0
82.587494686176,-152.27578341172,35.368226822682,3728269.1817063,-3263.9534322244,2606038.7289499,40.568226822682,0,0
82.587495114277,-152.29331300177,35.372657265727,3728269.1817063,-3263.9534322244,2606038.7289499,40.572657265727,0,0
82.587495542378,-152.31084259183,35.377087708771,3728269.1817063,-3263.9534322244,2606038.7289499,40.577087708771,0,0
82.58749597048,-152.32837218189,35.381518151815,3728269.1817063,-3263.9534322244,2606038.7289499,40.581518151815,0,0
82.587496398581,-152.34590177194,35.385948594859,3728269.1817063,-3263.9534322244,2606038.7289499,40.585948594859,0,0
82.587496826682,-152.363431362,35.390379037904,3728269.1817063,-3263.9534322244,2606038.7289499,40.590379037904,0,0
82.587497254784,-152.38096095205,35.394809480948,3728269.1817063,-3263.9534322244,2606038.7289499,40.594809480948,0,0
82.587497682885,-152.39849054211,35.399239923992,3728269.1817063,-3263.9534322244,2606038.7289499,40.599239923992,0,0
82.587498110987,-152.41602013217,35.403670367037,3728269.1817063,-3263.9534322244,2606038.7289499,40.603670367037,0,0
82.587498539088,-152.43354972222,35.408100810081,3728269.1817063,-3263.9534322244,2606038.7289499,40.608100810081,0,0
82.587498967189,-152.45107931228,35.412531253125,3728269.1817063,-3263.9534322244,2606038.7289499,40.612531253125,0,0
82.587499395291,-152.46860890233,35.41696169617,3728269.1817063,-3263.9534322244,2606038.7289499,40.61696169617,0,0
82.587499823392,-152.48613849239,35.421392139214,3728269.1817063,-3263.9534322244,2606038.7289499,40.621392139214,0,0
82.587500251493,-152.50366808245,35.425822582258,3728269.1817063,-3263.9534322244,2606038.7289499,40.625822582258,0,0
82.587500679595,-152.5211976725,35.430253025303,3728269.1817063,-3263.9534322244,2606038.7289499,40.630253025303,0,0
82.587501107696,-152.53872726256,35.434683468347,3728269.1817063,-3263.9534322244,2606038.7289499,40.634683468347,0,0
82.587501535798,-152.55625685262,35.439113911391,3728269.1817063,-3263.9534322244,2606038.7289499,40.639113911391,0,0
82.587501963899,-152.57378644267,35.443544354435,3728269.1817063,-3263.9534322244,2606038.7289499,40.643544354435,0,0
82.587502392,-152.59131603273,35.44797479748,3728269.1817063,-3263.9534322244,2606038.7289499,40.64797479748,0,0
82.587502820102,-152.60884562278,35.452405240524,3728269.1817063,-3263.9534322244,2606038.7289499,40.652405240524,0,0
82.587503248203,-152.62637521284,35.456835683568,3728269.1817063,-3263.9534322244,2606038.7289499,40.656835683568,0,0
82.587503676305,-152.6439048029,35.461266126613,3728269.1817063,-3263.9534322244,2606038.7289499,40.661266126613,0,0
82.587504104406,-152.66143439295,35.465696569657,3728269.1817063,-3263.9534322244,2606038.7289499,40.665696569657,0,0
82.587504532507,-152.67896398301,35.470127012701,3728269.1817063,-3263.9534322244,2606038.7289499,40.670127012701,0,0
82.587504960609,-152.69649357306,35.474557455746,3728269.1817063,-3263.9534322244,2606038.7289499,40.674557455746,0,0
82.58750538871,-152.71402316312,35.47898789879,3728269.1817063,-3263.9534322244,2606038.7289499,40.67898789879,0,0
82.587505816811,-152.73155275318,35.483418341834,3728269.1817063,-3263.9534322244,2606038.7289499,40.683418341834,0,0
82.587506244913,-152.74908234323,35.487848784878,3728269.1817063,-3263.9534322244,2606038.7289499,40.687848784878,0,0
82.587506673014,-152.76661193329,35.492279227923,3728269.1817063,-3263.9534322244,2606038.7289499,40.692279227923,0,0
82.587507101116,-152.78414152334,35.496709670967,3728269.1817063,-3263.9534322244,2606038.7289499,40.696709670967,0,0
82.587507529217,-152.8016711134,35.501140114011,3728269.1817063,-3263.9534322244,2606038.7289499,40.701140114011,0,0
82.587507957318,-152.81920070346,35.505570557056,3728269.1817063,-3263.9534322244,2606038.7289499,40.705570557056,0,0
82.58750838542,-152.83673029351,35.5100010001,3728269.1817063,-3263.9534322244,2606038.7289499,40.7100010001,0,0
82.587508813521,-152.85425988357,35.514431443144,3728269.1817063,-3263.9534322244,2606038.7289499,40.714431443144,0,0
82.587509241622,-152.87178947362,35.518861886189,3728269.1817063,-3263.9534322244,2606038.7289499,40.718861886189,0,0
82.587509669724,-152.88931906368,35.523292329233,3728269.1817063,-3263.9534322244,2606038.7289499,40.723292329233,0,0
82.587510097825,-152.90684865374,35.527722772277,3728269.1817063,-3263.9534322244,2606038.7289499,40.727722772277,0,0
82.587510525927,-152.92437824379,35.532153215322,3728269.1817063,-3263.9534322244,2606038.7289499,40.732153215322,0,0
82.587510954028,-152.94190783385,35.536583658366,3728269.1817063,-3263.9534322244,2606038.7289499,40.736583658366,0,0
82.587511382129,-152.9594374239,35.54101410141,3728269.1817063,-3263.9534322244,2606038.7289499,40.74101410141,0,0
82.587511810231,-152.97696701396,35.545444544454,3728269.1817063,-3263.9534322244,2606038.7289499,40.745444544454,0,0
82.587512238332,-152.99449660402,35.549874987499,3728269.1817063,-3263.9534322244,2606038.7289499,40.749874987499,0,0
82.587512666433,-153.01202619407,35.554305430543,3728269.1817063,-3263.9534322244,2606038.7289499,40.754305430543,0,0
82.587513094535,-153.02955578413,35.558735873587,3728269.1817063,-3263.9534322244,2606038.7289499,40.758735873587,0,0
82.587513522636,-153.04708537419,35.563166316632,3728269.1817063,-3263.9534322244,2606038.7289499,40.763166316632,0,0
82.587513950738,-153.06461496424,35.567596759676,3728269.1817063,-3263.9534322244,2606038.7289499,40.767596759676,0,0
82.587514378839,-153.0821445543,35.57202720272,3728269.1817063,-3263.9534322244,2606038.7289499,40.77202720272,0,0
82.58751480694,-153.09967414435,35.576457645765,3728269.1817063,-3263.9534322244,2606038.7289499,40.776457645765,0,0
82.587515235042,-153.11720373441,35.580888088809,3728269.1817063,-3263.9534322244,2606038.7289499,40.780888088809,0,0
82.587515663143,-153.13473332447,35.585318531853,3728269.1817063,-3263.9534322244,2606038.7289499,40.785318531853,0,0
82.587516091245,-153.15226291452,35.589748974897,3728269.1817063,-3263.9534322244,2606038.7289499,40.789748974897,0,0
82.587516519346,-153.16979250458,35.594179417942,3728269.1817063,-3263.9534322244,2606038.7289499,40.794179417942,0,0
82.587516947447,-153.18732209463,35.598609860986,3728269.1817063,-3263.9534322244,2606038.7289499,40.798609860986,0,0
82.587517375549,-153.20485168469,35.60304030403,3728269.1817063,-3263.9534322244,2606038.7289499,40.80304030403,0,0
82.58751780365,-153.22238127475,35.607470747075,3728269.1817063,-3263.9534322244,2606038.7289499,40.807470747075,0,0
82.587518231751,-153.2399108648,35.611901190119,3728269.1817063,-3263.9534322244,2606038.7289499,40.811901190119,0,0
82.587518659853,-153.25744045486,35.616331633163,3728269.1817063,-3263.9534322244,2606038.7289499,40.816331633163,0,0
82.587519087954,-153.27497004491,35.620762076208,3728269.1817063,-3263.9534322244,2606038.7289499,40.820762076208,0,0
82.587519516056,-153.29249963497,35.625192519252,3728269.1817063,-3263.9534322244,2606038.7289499,40.825192519252,0,0
82.587519944157,-153.31002922503,35.629622962296,3728269.1817063,-3263.9534322244,2606038.7289499,40.829622962296,0,0
82.587520372258,-153.32755881508,35.634053405341,3728269.1817063,-3263.9534322244,2606038.7289499,40.834053405341,0,0
82.58752080036,-153.34508840514,35.638483848385,3728269.1817063,-3263.9534322244,2606038.7289499,40.838483848385,0,0
82.587521228461,-153.36261799519,35.642914291429,3728269.1817063,-3263.9534322244,2606038.7289499,40.842914291429,0,0
82.587521656562,-153.38014758525,35.647344734473,3728269.1817063,-3263.9534322244,2606038.7289499,40.847344734473,0,0
82.587522084664,-153.39767717531,35.651775177518,3728269.1817063,-3263.9534322244,2606038.7289499,40.851775177518,0,0
82.587522512765,-153.41520676536,35.656205620562,3728269.1817063,-3263.9534322244,2606038.7289499,40.856205620562,0,0
82.587522940867,-153.43273635542,35.660636063606,3728269.1817063,-3263.9534322244,2606038.7289499,40.860636063606,0,0
82.587523368968,-153.45026594547,35.665066506651,3728269.1817063,-3263.9534322244,2606038.7289499,40.865066506651,0,0
82.587523797069,-153.46779553553,35.669496949695,3728269.1817063,-3263.9534322244,2606038.7289499,40.869496949695,0,0
82.587524225171,-153.48532512559,35.673927392739,3728269.1817063,-3263.9534322244,2606038.7289499,40.873927392739,0,0
82.587524653272,-153.50285471564,35.678357835784,3728269.1817063,-3263.9534322244,2606038.7289499,40.878357835784,0,0
82.587525081373,-153.5203843057,35.682788278828,3728269.1817063,-3263.9534322244,2606038.7289499,40.882788278828,0,0
82.587525509475,-153.53791389576,35.687218721872,3728269.1817063,-3263.9534322244,2606038.7289499,40.887218721872,0,0
82.587525937576,-153.55544348581,35.691649164916,3728269.1817063,-3263.9534322244,2606038.7289499,40.891649164916,0,0
82.587526365678,-153.57297307587,35.696079607961,3728269.1817063,-3263.9534322244,2606038.7289499,40.896079607961,0,0
82.587526793779,-153.59050266592,35.700510051005,3728269.1817063,-3263.9534322244,2606038.7289499,40.900510051005,0,0
82.58752722188,-153.60803225598,35.704940494049,3728269.1817063,-3263.9534322244,2606038.7289499,40.904940494049,0,0
82.587527649982,-153.62556184604,35.709370937094,3728269.1817063,-3263.9534322244,2606038.7289499,40.909370937094,0,0
82.587528078083,-153.64309143609,35.713801380138,3728269.1817063,-3263.9534322244,2606038.7289499,40.913801380138,0,0
82.587528506185,-153.66062102615,35.718231823182,3728269.1817063,-3263.9534322244,2606038.7289499,40.918231823182,0,0
82.587528934286,-153.6781506162,35.722662266227,3728269.1817063,-3263.9534322244,2606038.7289499,40.922662266227,0,0
82.587529362387,-153.69568020626,35.727092709271,3728269.1817063,-3263.9534322244,2606038.7289499,40.927092709271,0,0
82.587529790489,-153.71320979632,35.731523152315,3728269.1817063,-3263.9534322244,2606038.7289499,40.931523152315,0,0
82.58753021859,-153.73073938637,35.73595359536,3728269.1817063,-3263.9534322244,2606038.7289499,40.93595359536,0,0
82.587530646691,-153.74826897643,35.740384038404,3728269.1817063,-3263.9534322244,2606038.7289499,40.940384038404,0,0
82.587531074793,-153.76579856648,35.744814481448,3728269.1817063,-3263.9534322244,2606038.7289499,40.944814481448,0,0
82.587531502894,-153.78332815654,35.749244924492,3728269.1817063,-3263.9534322244,2606038.7289499,40.949244924492,0,0
82.587531930996,-153.8008577466,35.753675367537,3728269.1817063,-3263.9534322244,2606038.7289499,40.953675367537,0,0
82.587532359097,-153.81838733665,35.758105810581,3728269.1817063,-3263.9534322244,2606038.7289499,40.958105810581,0,0
82.587532787198,-153.83591692671,35.762536253625,3728269.1817063,-3263.9534322244,2606038.7289499,40.962536253625,0,0
82.5875332153,-153.85344651676,35.76696669667,3728269.1817063,-3263.9534322244,2606038.7289499,40.96696669667,0,0
82.587533643401,-153.87097610682,35.771397139714,3728269.1817063,-3263.9534322244,2606038.7289499,40.971397139714,0,0
82.587534071502,-153.88850569688,35.775827582758,3728269.1817063,-3263.9534322244,2606038.7289499,40.975827582758,0,0
82.587534499604,-153.90603528693,35.780258025803,3728269.1817063,-3263.9534322244,2606038.7289499,40.980258025803,0,0
82.587534927705,-153.92356487699,35.784688468847,3728269.1817063,-3263.9534322244,2606038.7289499,40.984688468847,0,0
82.587535355807,-153.94109446705,35.789118911891,3728269.1817063,-3263.9534322244,2606038.7289499,40.989118911891,0,0
82.587535783908,-153.9586240571,35.793549354935,3728269.1817063,-3263.9534322244,2606038.7289499,40.993549354935,0,0
82.587536212009,-153.97615364716,35.79797979798,3728269.1817063,-3263.9534322244,2606038.7289499,40.99797979798,0,0
82.587536640111,-153.99368323721,35.802410241024,3728269.1817063,-3263.9534322244,2606038.7289499,41.002410241024,0,0
82.587537068212,-154.01121282727,35.806840684068,3728269.1817063,-3263.9534322244,2606038.7289499,41.006840684068,0,0
82.587537496313,-154.02874241733,35.811271127113,3728269.1817063,-3263.9534322244,2606038.7289499,41.011271127113,0,0
82.587537924415,-154.04627200738,35.815701570157,3728269.1817063,-3263.9534322244,2606038.7289499,41.015701570157,0,0
82.587538352516,-154.06380159744,35.820132013201,3728269.1817063,-3263.9534322244,2606038.7289499,41.020132013201,0,0
82.587538780618,-154.08133118749,35.824562456246,3728269.1817063,-3263.9534322244,2606038.7289499,41.024562456246,0,0
82.587539208719,-154.09886077755,35.82899289929,3728269.1817063,-3263.9534322244,2606038.7289499,41.02899289929,0,0
82.58753963682,-154.11639036761,35.833423342334,3728269.1817063,-3263.9534322244,2606038.7289499,41.033423342334,0,0
82.587540064922,-154.13391995766,35.837853785379,3728269.1817063,-3263.9534322244,2606038.7289499,41.037853785379,0,0
82.587540493023,-154.15144954772,35.842284228423,3728269.1817063,-3263.9534322244,2606038.7289499,41.042284228423,0,0
82.587540921124,-154.16897913777,35.846714671467,3728269.1817063,-3263.9534322244,2606038.7289499,41.046714671467,0,0
82.587541349226,-154.18650872783,35.851145114511,3728269.1817063,-3263.9534322244,2606038.7289499,41.051145114511,0,0
82.587541777327,-154.20403831789,35.855575557556,3728269.1817063,-3263.9534322244,2606038.7289499,41.055575557556,0,0
82.587542205429,-154.22156790794,35.8600060006,3728269.1817063,-3263.9534322244,2606038.7289499,41.0600060006,0,0
82.58754263353,-154.239097498,35.864436443644,3728269.1817063,-3263.9534322244,2606038.7289499,41.064436443644,0,0
82.587543061631,-154.25662708805,35.868866886689,3728269.1817063,-3263.9534322244,2606038.7289499,41.068866886689,0,0
82.587543489733,-154.27415667811,35.873297329733,3728269.1817063,-3263.9534322244,2606038.7289499,41.073297329733,0,0
82.587543917834,-154.29168626817,35.877727772777,3728269.1817063,-3263.9534322244,2606038.7289499,41.077727772777,0,0
82.587544345936,-154.30921585822,35.882158215822,3728269.1817063,-3263.9534322244,2606038.7289499,41.082158215822,0,0
82.587544774037,-154.32674544828,35.886588658866,3728269.1817063,-3263.9534322244,2606038.7289499,41.086588658866,0,0
82.587545202138,-154.34427503834,35.89101910191,3728269.1817063,-3263.9534322244,2606038.7289499,41.09101910191,0,0
82.58754563024,-154.36180462839,35.895449544954,3728269.1817063,-3263.9534322244,2606038.7289499,41.095449544954,0,0
82.587546058341,-154.37933421845,35.899879987999,3728269.1817063,-3263.9534322244,2606038.7289499,41.099879987999,0,0
82.587546486442,-154.3968638085,35.904310431043,3728269.1817063,-3263.9534322244,2606038.7289499,41.104310431043,0,0
82.587546914544,-154.41439339856,35.908740874087,3728269.1817063,-3263.9534322244,2606038.7289499,41.108740874087,0,0
82.587547342645,-154.43192298862,35.913171317132,3728269.1817063,-3263.9534322244,2606038.7289499,41.113171317132,0,0
82.587547770747,-154.44945257867,35.917601760176,3728269.1817063,-3263.9534322244,2606038.7289499,41.117601760176,0,0
82.587548198848,-154.46698216873,35.92203220322,3728269.1817063,-3263.9534322244,2606038.7289499,41.12203220322,0,0
82.587548626949,-154.48451175878,35.926462646265,3728269.1817063,-3263.9534322244,2606038.7289499,41.126462646265,0,0
82.587549055051,-154.50204134884,35.930893089309,3728269.1817063,-3263.9534322244,2606038.7289499,41.130893089309,0,0
82.587549483152,-154.5195709389,35.935323532353,3728269.1817063,-3263.9534322244,2606038.7289499,41.135323532353,0,0
82.587549911253,-154.53710052895,35.939753975398,3728269.1817063,-3263.9534322244,2606038.7289499,41.139753975398,0,0
82.587550339355,-154.55463011901,35.944184418442,3728269.1817063,-3263.9534322244,2606038.7289499,41.144184418442,0,0
82.587550767456,-154.57215970906,35.948614861486,3728269.1817063,-3263.9534322244,2606038.7289499,41.148614861486,0,0
82.587551195558,-154.58968929912,35.95304530453,3728269.1817063,-3263.9534322244,2606038.7289499,41.15304530453,0,0
82.587551623659,-154.60721888918,35.957475747575,3728269.1817063,-3263.9534322244,2606038.7289499,41.157475747575,0,0
82.58755205176,-154.62474847923,35.961906190619,3728269.1817063,-3263.9534322244,2606038.7289499,41.161906190619,0,0
82.587552479862,-154.64227806929,35.966336633663,3728269.1817063,-3263.9534322244,2606038.7289499,41.166336633663,0,0
82.587552907963,-154.65980765934,35.970767076708,3728269.1817063,-3263.9534322244,2606038.7289499,41.170767076708,0,0
82.587553336065,-154.6773372494,35.975197519752,3728269.1817063,-3263.9534322244,2606038.7289499,41.175197519752,0,0
82.587553764166,-154.69486683946,35.979627962796,3728269.1817063,-3263.9534322244,2606038.7289499,41.179627962796,0,0
82.587554192267,-154.71239642951,35.984058405841,3728269.1817063,-3263.9534322244,2606038.7289499,41.184058405841,0,0
82.587554620369,-154.72992601957,35.988488848885,3728269.1817063,-3263.9534322244,2606038.7289499,41.188488848885,0,0
82.58755504847,-154.74745560962,35.992919291929,3728269.1817063,-3263.9534322244,2606038.7289499,41.192919291929,0,0
82.587555476571,-154.76498519968,35.997349734973,3728269.1817063,-3263.9534322244,2606038.7289499,41.197349734973,0,0
82.587555904673,-154.78251478974,36.001780178018,3728269.1817063,-3263.9534322244,2606038.7289499,41.201780178018,0,0
82.587556332774,-154.80004437979,36.006210621062,3728269.1817063,-3263.9534322244,2606038.7289499,41.206210621062,0,0
82.587556760876,-154.81757396985,36.010641064106,3728269.1817063,-3263.9534322244,2606038.7289499,41.210641064106,0,0
82.587557188977,-154.83510355991,36.015071507151,3728269.1817063,-3263.9534322244,2606038.7289499,41.215071507151,0,0
82.587557617078,-154.85263314996,36.019501950195,3728269.1817063,-3263.9534322244,2606038.7289499,41.219501950195,0,0
82.58755804518,-154.87016274002,36.023932393239,3728269.1817063,-3263.9534322244,2606038.7289499,41.223932393239,0,0
82.587558473281,-154.88769233007,36.028362836284,3728269.1817063,-3263.9534322244,2606038.7289499,41.228362836284,0,0
82.587558901382,-154.90522192013,36.032793279328,3728269.1817063,-3263.9534322244,2606038.7289499,41.232793279328,0,0
82.587559329484,-154.92275151019,36.037223722372,3728269.1817063,-3263.9534322244,2606038.7289499,41.237223722372,0,0
82.587559757585,-154.94028110024,36.041654165417,3728269.1817063,-3263.9534322244,2606038.7289499,41.241654165417,0,0
82.587560185687,-154.9578106903,36.046084608461,3728269.1817063,-3263.9534322244,2606038.7289499,41.246084608461,0,0
82.587560613788,-154.97534028035,36.050515051505,3728269.1817063,-3263.9534322244,2606038.7289499,41.250515051505,0,0
82.587561041889,-154.99286987041,36.054945494549,3728269.1817063,-3263.9534322244,2606038.7289499,41.254945494549,0,0
82.587561469991,-155.01039946047,36.059375937594,3728269.1817063,-3263.9534322244,2606038.7289499,41.259375937594,0,0
82.587561898092,-155.02792905052,36.063806380638,3728269.1817063,-3263.9534322244,2606038.7289499,41.263806380638,0,0
82.587562326193,-155.04545864058,36.068236823682,3728269.1817063,-3263.9534322244,2606038.7289499,41.268236823682,0,0
82.587562754295,-155.06298823063,36.072667266727,3728269.1817063,-3263.9534322244,2606038.7289499,41.272667266727,0,0
82.587563182396,-155.08051782069,36.077097709771,3728269.1817063,-3263.9534322244,2606038.7289499,41.277097709771,0,0
82.587563610498,-155.09804741075,36.081528152815,3728269.1817063,-3263.9534322244,2606038.7289499,41.281528152815,0,0
82.587564038599,-155.1155770008,36.08595859586,3728269.1817063,-3263.9534322244,2606038.7289499,41.28595859586,0,0
82.5875644667,-155.13310659086,36.090389038904,3728269.1817063,-3263.9534322244,2606038.7289499,41.290389038904,0,0
82.587564894802,-155.15063618091,36.094819481948,3728269.1817063,-3263.9534322244,2606038.7289499,41.294819481948,0,0
82.587565322903,-155.16816577097,36.099249924992,3728269.1817063,-3263.9534322244,2606038.7289499,41.299249924992,0,0
82.587565751004,-155.18569536103,36.103680368037,3728269.1817063,-3263.9534322244,2606038.7289499,41.303680368037,0,0
82.587566179106,-155.20322495108,36.108110811081,3728269.1817063,-3263.9534322244,2606038.7289499,41.308110811081,0,0
82.587566607207,-155.22075454114,36.112541254125,3728269.1817063,-3263.9534322244,2606038.7289499,41.312541254125,0,0
82.587567035309,-155.23828413119,36.11697169717,3728269.1817063,-3263.9534322244,2606038.7289499,41.31697169717,0,0
82.58756746341,-155.25581372125,36.121402140214,3728269.1817063,-3263.9534322244,2606038.7289499,41.321402140214,0,0
82.587567891511,-155.27334331131,36.125832583258,3728269.1817063,-3263.9534322244,2606038.7289499,41.325832583258,0,0
82.587568319613,-155.29087290136,36.130263026303,3728269.1817063,-3263.9534322244,2606038.7289499,41.330263026303,0,0
82.587568747714,-155.30840249142,36.134693469347,3728269.1817063,-3263.9534322244,2606038.7289499,41.334693469347,0,0
82.587569175816,-155.32593208148,36.139123912391,3728269.1817063,-3263.9534322244,2606038.7289499,41.339123912391,0,0
82.587569603917,-155.34346167153,36.143554355436,3728269.1817063,-3263.9534322244,2606038.7289499,41.343554355436,0,0
82.587570032018,-155.36099126159,36.14798479848,3728269.1817063,-3263.9534322244,2606038.7289499,41.34798479848,0,0
82.587570460129,-155.37852085161,36.152415241524,3729864.4903694,-2116.4758447868,2608271.7290501,41.352415241524,0,0
82.587570888299,-155.39605044147,36.156845684568,3729864.4903694,-2116.4758447868,2608271.7290501,41.356845684568,0,0
82.587571316468,-155.41358003133,36.161276127613,3729864.4903694,-2116.4758447868,2608271.7290501,41.361276127613,0,0
82.587571744638,-155.43110962119,36.165706570657,3729864.4903694,-2116.4758447868,2608271.7290501,41.365706570657,0,0
82.587572172807,-155.44863921105,36.170137013701,3729864.4903694,-2116.4758447868,2608271.7290501,41.370137013701,0,0
82.587572600976,-155.46616880091,36.174567456746,3729864.4903694,-2116.4758447868,2608271.7290501,41.374567456746,0,0
82.587573029146,-155.48369839077,36.17899789979,3729864.4903694,-2116.4758447868,2608271.7290501,41.37899789979,0,0
82.587573457315,-155.50122798062,36.183428342834,3729864.4903694,-2116.4758447868,2608271.7290501,41.383428342834,0,0
82.587573885484,-155.51875757048,36.187858785879,3729864.4903694,-2116.4758447868,2608271.7290501,41.387858785879,0,0
82.587574313654,-155.53628716034,36.192289228923,3729864.4903694,-2116.4758447868,2608271.7290501,41.392289228923,0,0
82.587574741823,-155.5538167502,36.196719671967,3729864.4903694,-2116.4758447868,2608271.7290501,41.396719671967,0,0
82.587575169992,-155.57134634006,36.201150115011,3729864.4903694,-2116.4758447868,2608271.7290501,41.401150115011,0,0
82.587575598162,-155.58887592992,36.205580558056,3729864.4903694,-2116.4758447868,2608271.7290501,41.405580558056,0,0
82.587576026331,-155.60640551977,36.2100110011,3729864.4903694,-2116.4758447868,2608271.7290501,41.4100110011,0,0
82.5875764545,-155.62393510963,36.214441444144,3729864.4903694,-2116.4758447868,2608271.7290501,41.414441444144,0,0
82.58757688267,-155.64146469949,36.218871887189,3729864.4903694,-2116.4758447868,2608271.7290501,41.418871887189,0,0
82.587577310839,-155.65899428935,36.223302330233,3729864.4903694,-2116.4758447868,2608271.7290501,41.423302330233,0,0
82.587577739008,-155.67652387921,36.227732773277,3729864.4903694,-2116.4758447868,2608271.7290501,41.427732773277,0,0
82.587578167178,-155.69405346907,36.232163216322,3729864.4903694,-2116.4758447868,2608271.7290501,41.432163216322,0,0
82.587578595347,-155.71158305892,36.236593659366,3729864.4903694,-2116.4758447868,2608271.7290501,41.436593659366,0,0
82.587579023517,-155.72911264878,36.24102410241,3729864.4903694,-2116.4758447868,2608271.7290501,41.44102410241,0,0
82.587579451686,-155.74664223864,36.245454545455,3729864.4903694,-2116.4758447868,2608271.7290501,41.445454545455,0,0
82.587579879855,-155.7641718285,36.249884988499,3729864.4903694,-2116.4758447868,2608271.7290501,41.449884988499,0,0
82.587580308025,-155.78170141836,36.254315431543,3729864.4903694,-2116.4758447868,2608271.7290501,41.454315431543,0,0
82.587580736194,-155.79923100822,36.258745874587,3729864.4903694,-2116.4758447868,2608271.7290501,41.458745874587,0,0
82.587581164363,-155.81676059807,36.263176317632,3729864.4903694,-2116.4758447868,2608271.7290501,41.463176317632,0,0
82.587581592533,-155.83429018793,36.267606760676,3729864.4903694,-2116.4758447868,2608271.7290501,41.467606760676,0,0
82.587582020702,-155.85181977779,36.27203720372,3729864.4903694,-2116.4758447868,2608271.7290501,41.47203720372,0,0
82.587582448871,-155.86934936765,36.276467646765,3729864.4903694,-2116.4758447868,2608271.7290501,41.476467646765,0,0
82.587582877041,-155.88687895751,36.280898089809,3729864.4903694,-2116.4758447868,2608271.7290501,41.480898089809,0,0
82.58758330521,-155.90440854737,36.285328532853,3729864.4903694,-2116.4758447868,2608271.7290501,41.485328532853,0,0
82.587583733379,-155.92193813722,36.289758975898,3729864.4903694,-2116.4758447868,2608271.7290501,41.489758975898,0,0
82.587584161549,-155.93946772708,36.294189418942,3729864.4903694,-2116.4758447868,2608271.7290501,41.494189418942,0,0
82.587584589718,-155.95699731694,36.298619861986,3729864.4903694,-2116.4758447868,2608271.7290501,41.498619861986,0,0
82.587585017887,-155.9745269068,36.30305030503,3729864.4903694,-2116.4758447868,2608271.7290501,41.50305030503,0,0
82.587585446057,-155.99205649666,36.307480748075,3729864.4903694,-2116.4758447868,2608271.7290501,41.507480748075,0,0
82.587585874226,-156.00958608652,36.311911191119,3729864.4903694,-2116.4758447868,2608271.7290501,41.511911191119,0,0
82.587586302395,-156.02711567638,36.316341634163,3729864.4903694,-2116.4758447868,2608271.7290501,41.516341634163,0,0
82.587586730565,-156.04464526623,36.320772077208,3729864.4903694,-2116.4758447868,2608271.7290501,41.520772077208,0,0
82.587587158734,-156.06217485609,36.325202520252,3729864.4903694,-2116.4758447868,2608271.7290501,41.525202520252,0,0
82.587587586904,-156.07970444595,36.329632963296,3729864.4903694,-2116.4758447868,2608271.7290501,41.529632963296,0,0
82.587588015073,-156.09723403581,36.334063406341,3729864.4903694,-2116.4758447868,2608271.7290501,41.534063406341,0,0
82.587588443242,-156.11476362567,36.338493849385,3729864.4903694,-2116.4758447868,2608271.7290501,41.538493849385,0,0
82.587588871412,-156.13229321553,36.342924292429,3729864.4903694,-2116.4758447868,2608271.7290501,41.542924292429,0,0
82.587589299581,-156.14982280538,36.347354735474,3729864.4903694,-2116.4758447868,2608271.7290501,41.547354735474,0,0
82.58758972775,-156.16735239524,36.351785178518,3729864.4903694,-2116.4758447868,2608271.7290501,41.551785178518,0,0
82.58759015592,-156.1848819851,36.356215621562,3729864.4903694,-2116.4758447868,2608271.7290501,41.556215621562,0,0
82.587590584089,-156.20241157496,36.360646064606,3729864.4903694,-2116.4758447868,2608271.7290501,41.560646064606,0,0
82.587591012258,-156.21994116482,36.365076507651,3729864.4903694,-2116.4758447868,2608271.7290501,41.565076507651,0,0
82.587591440428,-156.23747075468,36.369506950695,3729864.4903694,-2116.4758447868,2608271.7290501,41.569506950695,0,0
82.587591868597,-156.25500034453,36.373937393739,3729864.4903694,-2116.4758447868,2608271.7290501,41.573937393739,0,0
82.587592296766,-156.27252993439,36.378367836784,3729864.4903694,-2116.4758447868,2608271.7290501,41.578367836784,0,0
82.587592724936,-156.29005952425,36.382798279828,3729864.4903694,-2116.4758447868,2608271.7290501,41.582798279828,0,0
82.587593153105,-156.30758911411,36.387228722872,3729864.4903694,-2116.4758447868,2608271.7290501,41.587228722872,0,0
82.587593581274,-156.32511870397,36.391659165917,3729864.4903694,-2116.4758447868,2608271.7290501,41.591659165917,0,0
82.587594009444,-156.34264829383,36.396089608961,3729864.4903694,-2116.4758447868,2608271.7290501,41.596089608961,0,0
82.587594437613,-156.36017788368,36.400520052005,3729864.4903694,-2116.4758447868,2608271.7290501,41.600520052005,0,0
82.587594865783,-156.37770747354,36.404950495049,3729864.4903694,-2116.4758447868,2608271.7290501,41.60495049505,0,0
82.587595293952,-156.3952370634,36.409380938094,3729864.4903694,-2116.4758447868,2608271.7290501,41.609380938094,0,0
82.587595722121,-156.41276665326,36.413811381138,3729864.4903694,-2116.4758447868,2608271.7290501,41.613811381138,0,0
82.587596150291,-156.43029624312,36.418241824182,3729864.4903694,-2116.4758447868,2608271.7290501,41.618241824182,0,0
82.58759657846,-156.44782583298,36.422672267227,3729864.4903694,-2116.4758447868,2608271.7290501,41.622672267227,0,0
82.587597006629,-156.46535542283,36.427102710271,3729864.4903694,-2116.4758447868,2608271.7290501,41.627102710271,0,0
82.587597434799,-156.48288501269,36.431533153315,3729864.4903694,-2116.4758447868,2608271.7290501,41.631533153315,0,0
82.587597862968,-156.50041460255,36.43596359636,3729864.4903694,-2116.4758447868,2608271.7290501,41.63596359636,0,0
82.587598291137,-156.51794419241,36.440394039404,3729864.4903694,-2116.4758447868,2608271.7290501,41.640394039404,0,0
82.587598719307,-156.53547378227,36.444824482448,3729864.4903694,-2116.4758447868,2608271.7290501,41.644824482448,0,0
82.587599147476,-156.55300337213,36.449254925493,3729864.4903694,-2116.4758447868,2608271.7290501,41.649254925493,0,0
82.587599575645,-156.57053296199,36.453685368537,3729864.4903694,-2116.4758447868,2608271.7290501,41.653685368537,0,0
82.587600003815,-156.58806255184,36.458115811581,3729864.4903694,-2116.4758447868,2608271.7290501,41.658115811581,0,0
82.587600431984,-156.6055921417,36.462546254625,3729864.4903694,-2116.4758447868,2608271.7290501,41.662546254625,0,0
82.587600860153,-156.62312173156,36.46697669767,3729864.4903694,-2116.4758447868,2608271.7290501,41.66697669767,0,0
82.587601288323,-156.64065132142,36.471407140714,3729864.4903694,-2116.4758447868,2608271.7290501,41.671407140714,0,0
82.587601716492,-156.65818091128,36.475837583758,3729864.4903694,-2116.4758447868,2608271.7290501,41.675837583758,0,0
82.587602144661,-156.67571050114,36.480268026803,3729864.4903694,-2116.4758447868,2608271.7290501,41.680268026803,0,0
82.587602572831,-156.69324009099,36.484698469847,3729864.4903694,-2116.4758447868,2608271.7290501,41.684698469847,0,0
82.587603001,-156.71076968085,36.489128912891,3729864.4903694,-2116.4758447868,2608271.7290501,41.689128912891,0,0
82.58760342917,-156.72829927071,36.493559355936,3729864.4903694,-2116.4758447868,2608271.7290501,41.693559355936,0,0
82.587603857339,-156.74582886057,36.49798979898,3729864.4903694,-2116.4758447868,2608271.7290501,41.69798979898,0,0
82.587604285508,-156.76335845043,36.502420242024,3729864.4903694,-2116.4758447868,2608271.7290501,41.702420242024,0,0
82.587604713678,-156.78088804029,36.506850685068,3729864.4903694,-2116.4758447868,2608271.7290501,41.706850685069,0,0
82.587605141847,-156.79841763014,36.511281128113,3729864.4903694,-2116.4758447868,2608271.7290501,41.711281128113,0,0
82.587605570016,-156.81594722,36.515711571157,3729864.4903694,-2116.4758447868,2608271.7290501,41.715711571157,0,0
82.587605998186,-156.83347680986,36.520142014201,3729864.4903694,-2116.4758447868,2608271.7290501,41.720142014201,0,0
82.587606426355,-156.85100639972,36.524572457246,3729864.4903694,-2116.4758447868,2608271.7290501,41.724572457246,0,0
82.587606854524,-156.86853598958,36.52900290029,3729864.4903694,-2116.4758447868,2608271.7290501,41.72900290029,0,0
82.587607282694,-156.88606557944,36.533433343334,3729864.4903694,-2116.4758447868,2608271.7290501,41.733433343334,0,0
82.587607710863,-156.90359516929,36.537863786379,3729864.4903694,-2116.4758447868,2608271.7290501,41.737863786379,0,0
82.587608139032,-156.92112475915,36.542294229423,3729864.4903694,-2116.4758447868,2608271.7290501,41.742294229423,0,0
82.587608567202,-156.93865434901,36.546724672467,3729864.4903694,-2116.4758447868,2608271.7290501,41.746724672467,0,0
82.587608995474,-156.95618393891,36.551155115512,3738433.2834827,-4258.1924060415,2612253.5399233,41.751155115512,0,0
82.587609424222,-156.97371352899,36.555585558556,3738433.2834827,-4258.1924060415,2612253.5399233,41.755585558556,0,0
82.587609852969,-156.99124311907,36.5600160016,3738433.2834827,-4258.1924060415,2612253.5399233,41.7600160016,0,0
82.587610281717,-157.00877270915,36.564446444644,3738433.2834827,-4258.1924060415,2612253.5399233,41.764446444644,0,0
82.587610710465,-157.02630229924,36.568876887689,3738433.2834827,-4258.1924060415,2612253.5399233,41.768876887689,0,0
82.587611139213,-157.04383188932,36.573307330733,3738433.2834827,-4258.1924060415,2612253.5399233,41.773307330733,0,0
82.587611567961,-157.0613614794,36.577737773777,3738433.2834827,-4258.1924060415,2612253.5399233,41.777737773777,0,0
82.587611996708,-157.07889106948,36.582168216822,3738433.2834827,-4258.1924060415,2612253.5399233,41.782168216822,0,0
82.587612425456,-157.09642065956,36.586598659866,3738433.2834827,-4258.1924060415,2612253.5399233,41.786598659866,0,0
82.587612854204,-157.11395024964,36.59102910291,3738433.2834827,-4258.1924060415,2612253.5399233,41.79102910291,0,0
82.587613282952,-157.13147983972,36.595459545955,3738433.2834827,-4258.1924060415,2612253.5399233,41.795459545955,0,0
82.587613711699,-157.14900942981,36.599889988999,3738433.2834827,-4258.1924060415,2612253.5399233,41.799889988999,0,0
82.587614140447,-157.16653901989,36.604320432043,3738433.2834827,-4258.1924060415,2612253.5399233,41.804320432043,0,0
82.587614569195,-157.18406860997,36.608750875088,3738433.2834827,-4258.1924060415,2612253.5399233,41.808750875088,0,0
82.587614997943,-157.20159820005,36.613181318132,3738433.2834827,-4258.1924060415,2612253.5399233,41.813181318132,0,0
82.587615426691,-157.21912779013,36.617611761176,3738433.2834827,-4258.1924060415,2612253.5399233,41.817611761176,0,0
82.587615855438,-157.23665738021,36.62204220422,3738433.2834827,-4258.1924060415,2612253.5399233,41.82204220422,0,0
82.587616284186,-157.25418697029,36.626472647265,3738433.2834827,-4258.1924060415,2612253.5399233,41.826472647265,0,0
82.587616712934,-157.27171656038,36.630903090309,3738433.2834827,-4258.1924060415,2612253.5399233,41.830903090309,0,0
82.587617141682,-157.28924615046,36.635333533353,3738433.2834827,-4258.1924060415,2612253.5399233,41.835333533353,0,0
82.587617570429,-157.30677574054,36.639763976398,3738433.2834827,-4258.1924060415,2612253.5399233,41.839763976398,0,0
82.587617999177,-157.32430533062,36.644194419442,3738433.2834827,-4258.1924060415,2612253.5399233,41.844194419442,0,0
82.587618427925,-157.3418349207,36.648624862486,3738433.2834827,-4258.1924060415,2612253.5399233,41.848624862486,0,0
82.587618856673,-157.35936451078,36.653055305531,3738433.2834827,-4258.1924060415,2612253.5399233,41.853055305531,0,0
82.58761928542,-157.37689410087,36.657485748575,3738433.2834827,-4258.1924060415,2612253.5399233,41.857485748575,0,0
82.587619714168,-157.39442369095,36.661916191619,3738433.2834827,-4258.1924060415,2612253.5399233,41.861916191619,0,0
82.587620142916,-157.41195328103,36.666346634663,3738433.2834827,-4258.1924060415,2612253.5399233,41.866346634663,0,0
82.587620571664,-157.42948287111,36.670777077708,3738433.2834827,-4258.1924060415,2612253.5399233,41.870777077708,0,0
82.587621000412,-157.44701246119,36.675207520752,3738433.2834827,-4258.1924060415,2612253.5399233,41.875207520752,0,0
82.587621429159,-157.46454205127,36.679637963796,3738433.2834827,-4258.1924060415,2612253.5399233,41.879637963796,0,0
82.587621857907,-157.48207164135,36.684068406841,3738433.2834827,-4258.1924060415,2612253.5399233,41.884068406841,0,0
82.587622286655,-157.49960123144,36.688498849885,3738433.2834827,-4258.1924060415,2612253.5399233,41.888498849885,0,0
82.587622715403,-157.51713082152,36.692929292929,3738433.2834827,-4258.1924060415,2612253.5399233,41.892929292929,0,0
82.58762314415,-157.5346604116,36.697359735974,3738433.2834827,-4258.1924060415,2612253.5399233,41.897359735974,0,0
82.587623572898,-157.55219000168,36.701790179018,3738433.2834827,-4258.1924060415,2612253.5399233,41.901790179018,0,0
82.587624001646,-157.56971959176,36.706220622062,3738433.2834827,-4258.1924060415,2612253.5399233,41.906220622062,0,0
82.587624430394,-157.58724918184,36.710651065107,3738433.2834827,-4258.1924060415,2612253.5399233,41.910651065107,0,0
82.587624859142,-157.60477877192,36.715081508151,3738433.2834827,-4258.1924060415,2612253.5399233,41.915081508151,0,0
82.587625287889,-157.62230836201,36.719511951195,3738433.2834827,-4258.1924060415,2612253.5399233,41.919511951195,0,0
82.587625716637,-157.63983795209,36.723942394239,3738433.2834827,-4258.1924060415,2612253.5399233,41.923942394239,0,0
82.587626145385,-157.65736754217,36.728372837284,3738433.2834827,-4258.1924060415,2612253.5399233,41.928372837284,0,0
82.587626574133,-157.67489713225,36.732803280328,3738433.2834827,-4258.1924060415,2612253.5399233,41.932803280328,0,0
82.58762700288,-157.69242672233,36.737233723372,3738433.2834827,-4258.1924060415,2612253.5399233,41.937233723372,0,0
82.587627431628,-157.70995631241,36.741664166417,3738433.2834827,-4258.1924060415,2612253.5399233,41.941664166417,0,0
82.587627860376,-157.72748590249,36.746094609461,3738433.2834827,-4258.1924060415,2612253.5399233,41.946094609461,0,0
82.587628289124,-157.74501549258,36.750525052505,3738433.2834827,-4258.1924060415,2612253.5399233,41.950525052505,0,0
82.587628717872,-157.76254508266,36.75495549555,3738433.2834827,-4258.1924060415,2612253.5399233,41.95495549555,0,0
82.587629146619,-157.78007467274,36.759385938594,3738433.2834827,-4258.1924060415,2612253.5399233,41.959385938594,0,0
82.587629575367,-157.79760426282,36.763816381638,3738433.2834827,-4258.1924060415,2612253.5399233,41.963816381638,0,0
82.587630004115,-157.8151338529,36.768246824682,3738433.2834827,-4258.1924060415,2612253.5399233,41.968246824682,0,0
82.587630432863,-157.83266344298,36.772677267727,3738433.2834827,-4258.1924060415,2612253.5399233,41.972677267727,0,0
82.58763086161,-157.85019303307,36.777107710771,3738433.2834827,-4258.1924060415,2612253.5399233,41.977107710771,0,0
82.587631290358,-157.86772262315,36.781538153815,3738433.2834827,-4258.1924060415,2612253.5399233,41.981538153815,0,0
82.587631719106,-157.88525221323,36.78596859686,3738433.2834827,-4258.1924060415,2612253.5399233,41.98596859686,0,0
82.587632147854,-157.90278180331,36.790399039904,3738433.2834827,-4258.1924060415,2612253.5399233,41.990399039904,0,0
82.587632576601,-157.92031139339,36.794829482948,3738433.2834827,-4258.1924060415,2612253.5399233,41.994829482948,0,0
82.587633005349,-157.93784098347,36.799259925993,3738433.2834827,-4258.1924060415,2612253.5399233,41.999259925993,0,0
82.587633434097,-157.95537057355,36.803690369037,3738433.2834827,-4258.1924060415,2612253.5399233,42.003690369037,0,0
82.587633862845,-157.97290016364,36.808120812081,3738433.2834827,-4258.1924060415,2612253.5399233,42.008120812081,0,0
82.587634291593,-157.99042975372,36.812551255126,3738433.2834827,-4258.1924060415,2612253.5399233,42.012551255126,0,0
82.58763472034,-158.0079593438,36.81698169817,3738433.2834827,-4258.1924060415,2612253.5399233,42.01698169817,0,0
82.587635149088,-158.02548893388,36.821412141214,3738433.2834827,-4258.1924060415,2612253.5399233,42.021412141214,0,0
82.587635577836,-158.04301852396,36.825842584258,3738433.2834827,-4258.1924060415,2612253.5399233,42.025842584258,0,0
82.587636006584,-158.06054811404,36.830273027303,3738433.2834827,-4258.1924060415,2612253.5399233,42.030273027303,0,0
82.587636435331,-158.07807770412,36.834703470347,3738433.2834827,-4258.1924060415,2612253.5399233,42.034703470347,0,0
82.587636864079,-158.09560729421,36.839133913391,3738433.2834827,-4258.1924060415,2612253.5399233,42.039133913391,0,0
82.587637292827,-158.11313688429,36.843564356436,3738433.2834827,-4258.1924060415,2612253.5399233,42.043564356436,0,0
82.587637721575,-158.13066647437,36.84799479948,3738433.2834827,-4258.1924060415,2612253.5399233,42.04799479948,0,0
82.587638150323,-158.14819606445,36.852425242524,3738433.2834827,-4258.1924060415,2612253.5399233,42.052425242524,0,0
82.58763857907,-158.16572565453,36.856855685569,3738433.2834827,-4258.1924060415,2612253.5399233,42.056855685569,0,0
82.587639007818,-158.18325524461,36.861286128613,3738433.2834827,-4258.1924060415,2612253.5399233,42.061286128613,0,0
82.587639436566,-158.2007848347,36.865716571657,3738433.2834827,-4258.1924060415,2612253.5399233,42.065716571657,0,0
82.587639865314,-158.21831442478,36.870147014701,3738433.2834827,-4258.1924060415,2612253.5399233,42.070147014701,0,0
82.587640294061,-158.23584401486,36.874577457746,3738433.2834827,-4258.1924060415,2612253.5399233,42.074577457746,0,0
82.587640722809,-158.25337360494,36.87900790079,3738433.2834827,-4258.1924060415,2612253.5399233,42.07900790079,0,0
82.587641151557,-158.27090319502,36.883438343834,3738433.2834827,-4258.1924060415,2612253.5399233,42.083438343834,0,0
82.587641580305,-158.2884327851,36.887868786879,3738433.2834827,-4258.1924060415,2612253.5399233,42.087868786879,0,0
82.587642009053,-158.30596237518,36.892299229923,3738433.2834827,-4258.1924060415,2612253.5399233,42.092299229923,0,0
82.5876424378,-158.32349196527,36.896729672967,3738433.2834827,-4258.1924060415,2612253.5399233,42.096729672967,0,0
82.587642866548,-158.34102155535,36.901160116012,3738433.2834827,-4258.1924060415,2612253.5399233,42.101160116012,0,0
82.587643295296,-158.35855114543,36.905590559056,3738433.2834827,-4258.1924060415,2612253.5399233,42.105590559056,0,0
82.587643724044,-158.37608073551,36.9100210021,3738433.2834827,-4258.1924060415,2612253.5399233,42.1100210021,0,0
82.587644152791,-158.39361032559,36.914451445145,3738433.2834827,-4258.1924060415,2612253.5399233,42.114451445145,0,0
82.587644581539,-158.41113991567,36.918881888189,3738433.2834827,-4258.1924060415,2612253.5399233,42.118881888189,0,0
82.587645010287,-158.42866950575,36.923312331233,3738433.2834827,-4258.1924060415,2612253.5399233,42.123312331233,0,0
82.587645439035,-158.44619909584,36.927742774277,3738433.2834827,-4258.1924060415,2612253.5399233,42.127742774277,0,0
82.587645867782,-158.46372868592,36.932173217322,3738433.2834827,-4258.1924060415,2612253.5399233,42.132173217322,0,0
82.58764629653,-158.481258276,36.936603660366,3738433.2834827,-4258.1924060415,2612253.5399233,42.136603660366,0,0
82.587646725278,-158.49878786608,36.94103410341,3738433.2834827,-4258.1924060415,2612253.5399233,42.14103410341,0,0
82.587647154026,-158.51631745616,36.945464546455,3738433.2834827,-4258.1924060415,2612253.5399233,42.145464546455,0,0
82.587647582774,-158.53384704624,36.949894989499,3738433.2834827,-4258.1924060415,2612253.5399233,42.149894989499,0,0
82.587648011521,-158.55137663632,36.954325432543,3738433.2834827,-4258.1924060415,2612253.5399233,42.154325432543,0,0
82.587648440269,-158.56890622641,36.958755875588,3738433.2834827,-4258.1924060415,2612253.5399233,42.158755875588,0,0
82.587648869017,-158.58643581649,36.963186318632,3738433.2834827,-4258.1924060415,2612253.5399233,42.163186318632,0,0
82.587649297765,-158.60396540657,36.967616761676,3738433.2834827,-4258.1924060415,2612253.5399233,42.167616761676,0,0
82.587649726512,-158.62149499665,36.97204720472,3738433.2834827,-4258.1924060415,2612253.5399233,42.17204720472,0,0
82.58765015526,-158.63902458673,36.976477647765,3738433.2834827,-4258.1924060415,2612253.5399233,42.176477647765,0,0
82.587650584008,-158.65655417681,36.980908090809,3738433.2834827,-4258.1924060415,2612253.5399233,42.180908090809,0,0
82.587651012756,-158.6740837669,36.985338533853,3738433.2834827,-4258.1924060415,2612253.5399233,42.185338533853,0,0
82.587651441504,-158.69161335698,36.989768976898,3738433.2834827,-4258.1924060415,2612253.5399233,42.189768976898,0,0
82.587651870251,-158.70914294706,36.994199419942,3738433.2834827,-4258.1924060415,2612253.5399233,42.194199419942,0,0
82.587652298999,-158.72667253714,36.998629862986,3738433.2834827,-4258.1924060415,2612253.5399233,42.198629862986,0,0
82.587652727747,-158.74420212722,37.003060306031,3738433.2834827,-4258.1924060415,2612253.5399233,42.203060306031,0,0
82.587653156495,-158.7617317173,37.007490749075,3738433.2834827,-4258.1924060415,2612253.5399233,42.207490749075,0,0
82.587653585242,-158.77926130738,37.011921192119,3738433.2834827,-4258.1924060415,2612253.5399233,42.211921192119,0,0
82.58765401399,-158.79679089747,37.016351635164,3738433.2834827,-4258.1924060415,2612253.5399233,42.216351635164,0,0
82.587654442738,-158.81432048755,37.020782078208,3738433.2834827,-4258.1924060415,2612253.5399233,42.220782078208,0,0
82.587654871486,-158.83185007763,37.025212521252,3738433.2834827,-4258.1924060415,2612253.5399233,42.225212521252,0,0
82.587655300233,-158.84937966771,37.029642964296,3738433.2834827,-4258.1924060415,2612253.5399233,42.229642964296,0,0
82.587655728981,-158.86690925779,37.034073407341,3738433.2834827,-4258.1924060415,2612253.5399233,42.234073407341,0,0
82.587656157729,-158.88443884787,37.038503850385,3738433.2834827,-4258.1924060415,2612253.5399233,42.238503850385,0,0
82.587656586477,-158.90196843795,37.042934293429,3738433.2834827,-4258.1924060415,2612253.5399233,42.242934293429,0,0
82.587657015225,-158.91949802804,37.047364736474,3738433.2834827,-4258.1924060415,2612253.5399233,42.247364736474,0,0
82.587657443972,-158.93702761812,37.051795179518,3738433.2834827,-4258.1924060415,2612253.5399233,42.251795179518,0,0
82.58765787272,-158.9545572082,37.056225622562,3738433.2834827,-4258.1924060415,2612253.5399233,42.256225622562,0,0
82.587658301468,-158.97208679828,37.060656065607,3738433.2834827,-4258.1924060415,2612253.5399233,42.260656065607,0,0
82.587658730216,-158.98961638836,37.065086508651,3738433.2834827,-4258.1924060415,2612253.5399233,42.265086508651,0,0
82.587659158963,-159.00714597844,37.069516951695,3738433.2834827,-4258.1924060415,2612253.5399233,42.269516951695,0,0
82.587659587711,-159.02467556853,37.073947394739,3738433.2834827,-4258.1924060415,2612253.5399233,42.273947394739,0,0
82.587660016459,-159.04220515861,37.078377837784,3738433.2834827,-4258.1924060415,2612253.5399233,42.278377837784,0,0
82.587660445207,-159.05973474869,37.082808280828,3738433.2834827,-4258.1924060415,2612253.5399233,42.282808280828,0,0
82.587660873955,-159.07726433877,37.087238723872,3738433.2834827,-4258.1924060415,2612253.5399233,42.287238723872,0,0
82.587661302702,-159.09479392885,37.091669166917,3738433.2834827,-4258.1924060415,2612253.5399233,42.291669166917,0,0
82.58766173145,-159.11232351893,37.096099609961,3738433.2834827,-4258.1924060415,2612253.5399233,42.296099609961,0,0
82.587662160198,-159.12985310901,37.100530053005,3738433.2834827,-4258.1924060415,2612253.5399233,42.300530053005,0,0
82.587662588946,-159.1473826991,37.10496049605,3738433.2834827,-4258.1924060415,2612253.5399233,42.30496049605,0,0
82.587663017693,-159.16491228918,37.109390939094,3738433.2834827,-4258.1924060415,2612253.5399233,42.309390939094,0,0
82.587663446441,-159.18244187926,37.113821382138,3738433.2834827,-4258.1924060415,2612253.5399233,42.313821382138,0,0
82.587663875189,-159.19997146934,37.118251825183,3738433.2834827,-4258.1924060415,2612253.5399233,42.318251825183,0,0
82.587664303937,-159.21750105942,37.122682268227,3738433.2834827,-4258.1924060415,2612253.5399233,42.322682268227,0,0
82.587664732684,-159.2350306495,37.127112711271,3738433.2834827,-4258.1924060415,2612253.5399233,42.327112711271,0,0
82.587665161432,-159.25256023958,37.131543154315,3738433.2834827,-4258.1924060415,2612253.5399233,42.331543154315,0,0
82.58766559018,-159.27008982967,37.13597359736,3738433.2834827,-4258.1924060415,2612253.5399233,42.33597359736,0,0
82.587666018928,-159.28761941975,37.140404040404,3738433.2834827,-4258.1924060415,2612253.5399233,42.340404040404,0,0
82.587666447676,-159.30514900983,37.144834483448,3738433.2834827,-4258.1924060415,2612253.5399233,42.344834483448,0,0
82.587666876423,-159.32267859991,37.149264926493,3738433.2834827,-4258.1924060415,2612253.5399233,42.349264926493,0,0
82.587667305171,-159.34020818999,37.153695369537,3738433.2834827,-4258.1924060415,2612253.5399233,42.353695369537,0,0
82.587667733919,-159.35773778007,37.158125812581,3738433.2834827,-4258.1924060415,2612253.5399233,42.358125812581,0,0
82.587668162667,-159.37526737015,37.162556255626,3738433.2834827,-4258.1924060415,2612253.5399233,42.362556255626,0,0
82.587668591414,-159.39279696024,37.16698669867,3738433.2834827,-4258.1924060415,2612253.5399233,42.36698669867,0,0
82.587669020162,-159.41032655032,37.171417141714,3738433.2834827,-4258.1924060415,2612253.5399233,42.371417141714,0,0
82.58766944891,-159.4278561404,37.175847584758,3738433.2834827,-4258.1924060415,2612253.5399233,42.375847584758,0,0
82.587669877658,-159.44538573048,37.180278027803,3738433.2834827,-4258.1924060415,2612253.5399233,42.380278027803,0,0
82.587670306406,-159.46291532056,37.184708470847,3738433.2834827,-4258.1924060415,2612253.5399233,42.384708470847,0,0
82.587670735153,-159.48044491064,37.189138913891,3738433.2834827,-4258.1924060415,2612253.5399233,42.389138913891,0,0
82.587671163901,-159.49797450073,37.193569356936,3738433.2834827,-4258.1924060415,2612253.5399233,42.393569356936,0,0
82.587671592649,-159.51550409081,37.19799979998,3738433.2834827,-4258.1924060415,2612253.5399233,42.39799979998,0,0
82.587672021397,-159.53303368089,37.202430243024,3738433.2834827,-4258.1924060415,2612253.5399233,42.402430243024,0,0
82.587672450144,-159.55056327097,37.206860686069,3738433.2834827,-4258.1924060415,2612253.5399233,42.406860686069,0,0
82.587672878892,-159.56809286105,37.211291129113,3738433.2834827,-4258.1924060415,2612253.5399233,42.411291129113,0,0
82.58767330764,-159.58562245113,37.215721572157,3738433.2834827,-4258.1924060415,2612253.5399233,42.415721572157,0,0
82.587673736388,-159.60315204121,37.220152015202,3738433.2834827,-4258.1924060415,2612253.5399233,42.420152015202,0,0
82.587674165136,-159.6206816313,37.224582458246,3738433.2834827,-4258.1924060415,2612253.5399233,42.424582458246,0,0
82.587674593883,-159.63821122138,37.22901290129,3738433.2834827,-4258.1924060415,2612253.5399233,42.42901290129,0,0
82.587675022631,-159.65574081146,37.233443344334,3738433.2834827,-4258.1924060415,2612253.5399233,42.433443344334,0,0
82.587675451379,-159.67327040154,37.237873787379,3738433.2834827,-4258.1924060415,2612253.5399233,42.437873787379,0,0
82.587675880127,-159.69079999162,37.242304230423,3738433.2834827,-4258.1924060415,2612253.5399233,42.442304230423,0,0
82.587676308874,-159.7083295817,37.246734673467,3738433.2834827,-4258.1924060415,2612253.5399233,42.446734673467,0,0
82.587676737622,-159.72585917178,37.251165116512,3738433.2834827,-4258.1924060415,2612253.5399233,42.451165116512,0,0
82.58767716637,-159.74338876187,37.255595559556,3738433.2834827,-4258.1924060415,2612253.5399233,42.455595559556,0,0
82.587677595118,-159.76091835195,37.2600260026,3738433.2834827,-4258.1924060415,2612253.5399233,42.4600260026,0,0
82.587678023865,-159.77844794203,37.264456445645,3738433.2834827,-4258.1924060415,2612253.5399233,42.464456445645,0,0
82.587678452613,-159.79597753211,37.268886888689,3738433.2834827,-4258.1924060415,2612253.5399233,42.468886888689,0,0
82.587678881361,-159.81350712219,37.273317331733,3738433.2834827,-4258.1924060415,2612253.5399233,42.473317331733,0,0
82.587679310109,-159.83103671227,37.277747774777,3738433.2834827,-4258.1924060415,2612253.5399233,42.477747774777,0,0
82.587679738857,-159.84856630236,37.282178217822,3738433.2834827,-4258.1924060415,2612253.5399233,42.482178217822,0,0
82.587680167604,-159.86609589244,37.286608660866,3738433.2834827,-4258.1924060415,2612253.5399233,42.486608660866,0,0
82.587680596352,-159.88362548252,37.29103910391,3738433.2834827,-4258.1924060415,2612253.5399233,42.49103910391,0,0
82.5876810251,-159.9011550726,37.295469546955,3738433.2834827,-4258.1924060415,2612253.5399233,42.495469546955,0,0
82.587681453848,-159.91868466268,37.299899989999,3738433.2834827,-4258.1924060415,2612253.5399233,42.499899989999,0,0
82.587681882595,-159.93621425276,37.304330433043,3738433.2834827,-4258.1924060415,2612253.5399233,42.504330433043,0,0
82.587682311343,-159.95374384284,37.308760876088,3738433.2834827,-4258.1924060415,2612253.5399233,42.508760876088,0,0
82.587682740091,-159.97127343293,37.313191319132,3738433.2834827,-4258.1924060415,2612253.5399233,42.513191319132,0,0
82.587683168839,-159.98880302301,37.317621762176,3738433.2834827,-4258.1924060415,2612253.5399233,42.517621762176,0,0
82.587683597587,-160.00633261309,37.322052205221,3738433.2834827,-4258.1924060415,2612253.5399233,42.522052205221,0,0
82.587684026334,-160.02386220317,37.326482648265,3738433.2834827,-4258.1924060415,2612253.5399233,42.526482648265,0,0
82.587684455082,-160.04139179325,37.330913091309,3738433.2834827,-4258.1924060415,2612253.5399233,42.530913091309,0,0
82.58768488383,-160.05892138333,37.335343534353,3738433.2834827,-4258.1924060415,2612253.5399233,42.535343534353,0,0
82.587685312578,-160.07645097341,37.339773977398,3738433.2834827,-4258.1924060415,2612253.5399233,42.539773977398,0,0
82.587685741325,-160.0939805635,37.344204420442,3738433.2834827,-4258.1924060415,2612253.5399233,42.544204420442,0,0
82.587686170073,-160.11151015358,37.348634863486,3738433.2834827,-4258.1924060415,2612253.5399233,42.548634863486,0,0
82.587686598821,-160.12903974366,37.353065306531,3738433.2834827,-4258.1924060415,2612253.5399233,42.553065306531,0,0
82.587687027569,-160.14656933374,37.357495749575,3738433.2834827,-4258.1924060415,2612253.5399233,42.557495749575,0,0
82.587687456316,-160.16409892382,37.361926192619,3738433.2834827,-4258.1924060415,2612253.5399233,42.561926192619,0,0
82.587687885064,-160.1816285139,37.366356635664,3738433.2834827,-4258.1924060415,2612253.5399233,42.566356635664,0,0
82.587688313812,-160.19915810398,37.370787078708,3738433.2834827,-4258.1924060415,2612253.5399233,42.570787078708,0,0
82.58768874256,-160.21668769407,37.375217521752,3738433.2834827,-4258.1924060415,2612253.5399233,42.575217521752,0,0
82.587689171308,-160.23421728415,37.379647964796,3738433.2834827,-4258.1924060415,2612253.5399233,42.579647964796,0,0
82.587689600055,-160.25174687423,37.384078407841,3738433.2834827,-4258.1924060415,2612253.5399233,42.584078407841,0,0
82.587690028803,-160.26927646431,37.388508850885,3738433.2834827,-4258.1924060415,2612253.5399233,42.588508850885,0,0
82.587690457551,-160.28680605439,37.392939293929,3738433.2834827,-4258.1924060415,2612253.5399233,42.592939293929,0,0
82.587690886299,-160.30433564447,37.397369736974,3738433.2834827,-4258.1924060415,2612253.5399233,42.597369736974,0,0
82.587691315046,-160.32186523456,37.401800180018,3738433.2834827,-4258.1924060415,2612253.5399233,42.601800180018,0,0
82.587691743794,-160.33939482464,37.406230623062,3738433.2834827,-4258.1924060415,2612253.5399233,42.606230623062,0,0
82.587692172542,-160.35692441472,37.410661066107,3738433.2834827,-4258.1924060415,2612253.5399233,42.610661066107,0,0
82.58769260129,-160.3744540048,37.415091509151,3738433.2834827,-4258.1924060415,2612253.5399233,42.615091509151,0,0
82.587693030038,-160.39198359488,37.419521952195,3738433.2834827,-4258.1924060415,2612253.5399233,42.619521952195,0,0
82.587693458785,-160.40951318496,37.42395239524,3738433.2834827,-4258.1924060415,2612253.5399233,42.62395239524,0,0
82.587693887533,-160.42704277504,37.428382838284,3738433.2834827,-4258.1924060415,2612253.5399233,42.628382838284,0,0
82.587694316281,-160.44457236513,37.432813281328,3738433.2834827,-4258.1924060415,2612253.5399233,42.632813281328,0,0
82.587694745029,-160.46210195521,37.437243724372,3738433.2834827,-4258.1924060415,2612253.5399233,42.637243724372,0,0
82.587695173776,-160.47963154529,37.441674167417,3738433.2834827,-4258.1924060415,2612253.5399233,42.641674167417,0,0
82.587695602524,-160.49716113537,37.446104610461,3738433.2834827,-4258.1924060415,2612253.5399233,42.646104610461,0,0
82.587696031272,-160.51469072545,37.450535053505,3738433.2834827,-4258.1924060415,2612253.5399233,42.650535053505,0,0
82.58769646002,-160.53222031553,37.45496549655,3738433.2834827,-4258.1924060415,2612253.5399233,42.65496549655,0,0
82.587696888767,-160.54974990561,37.459395939594,3738433.2834827,-4258.1924060415,2612253.5399233,42.659395939594,0,0
82.587697317515,-160.5672794957,37.463826382638,3738433.2834827,-4258.1924060415,2612253.5399233,42.663826382638,0,0
82.587697746263,-160.58480908578,37.468256825683,3738433.2834827,-4258.1924060415,2612253.5399233,42.668256825683,0,0
82.587698175011,-160.60233867586,37.472687268727,3738433.2834827,-4258.1924060415,2612253.5399233,42.672687268727,0,0
82.587698603759,-160.61986826594,37.477117711771,3738433.2834827,-4258.1924060415,2612253.5399233,42.677117711771,0,0
82.587699032506,-160.63739785602,37.481548154815,3738433.2834827,-4258.1924060415,2612253.5399233,42.681548154815,0,0
82.587699461254,-160.6549274461,37.48597859786,3738433.2834827,-4258.1924060415,2612253.5399233,42.68597859786,0,0
82.587699890002,-160.67245703619,37.490409040904,3738433.2834827,-4258.1924060415,2612253.5399233,42.690409040904,0,0
82.58770031875,-160.68998662627,37.494839483948,3738433.2834827,-4258.1924060415,2612253.5399233,42.694839483948,0,0
82.587700747497,-160.70751621635,37.499269926993,3738433.2834827,-4258.1924060415,2612253.5399233,42.699269926993,0,0
82.587701176245,-160.72504580643,37.503700370037,3738433.2834827,-4258.1924060415,2612253.5399233,42.703700370037,0,0
82.587701604993,-160.74257539651,37.508130813081,3738433.2834827,-4258.1924060415,2612253.5399233,42.708130813081,0,0
82.587702033741,-160.76010498659,37.512561256126,3738433.2834827,-4258.1924060415,2612253.5399233,42.712561256126,0,0
82.587702462489,-160.77763457667,37.51699169917,3738433.2834827,-4258.1924060415,2612253.5399233,42.71699169917,0,0
82.587702891236,-160.79516416676,37.521422142214,3738433.2834827,-4258.1924060415,2612253.5399233,42.721422142214,0,0
82.587703319984,-160.81269375684,37.525852585259,3738433.2834827,-4258.1924060415,2612253.5399233,42.725852585259,0,0
82.587703748732,-160.83022334692,37.530283028303,3738433.2834827,-4258.1924060415,2612253.5399233,42.730283028303,0,0
82.58770417748,-160.847752937,37.534713471347,3738433.2834827,-4258.1924060415,2612253.5399233,42.734713471347,0,0
82.587704606227,-160.86528252708,37.539143914391,3738433.2834827,-4258.1924060415,2612253.5399233,42.739143914391,0,0
82.587705034975,-160.88281211716,37.543574357436,3738433.2834827,-4258.1924060415,2612253.5399233,42.743574357436,0,0
82.587705463723,-160.90034170724,37.54800480048,3738433.2834827,-4258.1924060415,2612253.5399233,42.74800480048,0,0
82.587705892471,-160.91787129733,37.552435243524,3738433.2834827,-4258.1924060415,2612253.5399233,42.752435243524,0,0
82.587706321219,-160.93540088741,37.556865686569,3738433.2834827,-4258.1924060415,2612253.5399233,42.756865686569,0,0
82.587706749966,-160.95293047749,37.561296129613,3738433.2834827,-4258.1924060415,2612253.5399233,42.761296129613,0,0
82.587707178714,-160.97046006757,37.565726572657,3738433.2834827,-4258.1924060415,2612253.5399233,42.765726572657,0,0
82.587707607462,-160.98798965765,37.570157015702,3738433.2834827,-4258.1924060415,2612253.5399233,42.770157015702,0,0
82.58770803621,-161.00551924773,37.574587458746,3738433.2834827,-4258.1924060415,2612253.5399233,42.774587458746,0,0
82.587708464957,-161.02304883781,37.57901790179,3738433.2834827,-4258.1924060415,2612253.5399233,42.77901790179,0,0
82.587708893705,-161.0405784279,37.583448344834,3738433.2834827,-4258.1924060415,2612253.5399233,42.783448344834,0,0
82.587709322453,-161.05810801798,37.587878787879,3738433.2834827,-4258.1924060415,2612253.5399233,42.787878787879,0,0
82.587709751201,-161.07563760806,37.592309230923,3738433.2834827,-4258.1924060415,2612253.5399233,42.792309230923,0,0
82.587710179948,-161.09316719814,37.596739673967,3738433.2834827,-4258.1924060415,2612253.5399233,42.796739673967,0,0
82.587710608696,-161.11069678822,37.601170117012,3738433.2834827,-4258.1924060415,2612253.5399233,42.801170117012,0,0
82.587711037444,-161.1282263783,37.605600560056,3738433.2834827,-4258.1924060415,2612253.5399233,42.805600560056,0,0
82.587711466192,-161.14575596839,37.6100310031,3738433.2834827,-4258.1924060415,2612253.5399233,42.8100310031,0,0
82.58771189494,-161.16328555847,37.614461446145,3738433.2834827,-4258.1924060415,2612253.5399233,42.814461446145,0,0
82.587712323687,-161.18081514855,37.618891889189,3738433.2834827,-4258.1924060415,2612253.5399233,42.818891889189,0,0
82.587712752435,-161.19834473863,37.623322332233,3738433.2834827,-4258.1924060415,2612253.5399233,42.823322332233,0,0
82.587713181183,-161.21587432871,37.627752775278,3738433.2834827,-4258.1924060415,2612253.5399233,42.827752775278,0,0
82.587713609931,-161.23340391879,37.632183218322,3738433.2834827,-4258.1924060415,2612253.5399233,42.832183218322,0,0
82.587714038678,-161.25093350887,37.636613661366,3738433.2834827,-4258.1924060415,2612253.5399233,42.836613661366,0,0
82.587714467426,-161.26846309896,37.64104410441,3738433.2834827,-4258.1924060415,2612253.5399233,42.84104410441,0,0
82.587714896174,-161.28599268904,37.645474547455,3738433.2834827,-4258.1924060415,2612253.5399233,42.845474547455,0,0
82.587715324922,-161.30352227912,37.649904990499,3738433.2834827,-4258.1924060415,2612253.5399233,42.849904990499,0,0
82.58771575367,-161.3210518692,37.654335433543,3738433.2834827,-4258.1924060415,2612253.5399233,42.854335433543,0,0
82.587716182417,-161.33858145928,37.658765876588,3738433.2834827,-4258.1924060415,2612253.5399233,42.858765876588,0,0
82.587716611165,-161.35611104936,37.663196319632,3738433.2834827,-4258.1924060415,2612253.5399233,42.863196319632,0,0
82.587717039913,-161.37364063944,37.667626762676,3738433.2834827,-4258.1924060415,2612253.5399233,42.867626762676,0,0
82.587717468661,-161.39117022953,37.672057205721,3738433.2834827,-4258.1924060415,2612253.5399233,42.872057205721,0,0
82.587717897408,-161.40869981961,37.676487648765,3738433.2834827,-4258.1924060415,2612253.5399233,42.876487648765,0,0
82.587718326156,-161.42622940969,37.680918091809,3738433.2834827,-4258.1924060415,2612253.5399233,42.880918091809,0,0
82.587718754904,-161.44375899977,37.685348534853,3738433.2834827,-4258.1924060415,2612253.5399233,42.885348534853,0,0
82.587719183652,-161.46128858985,37.689778977898,3738433.2834827,-4258.1924060415,2612253.5399233,42.889778977898,0,0
82.587719612399,-161.47881817993,37.694209420942,3738433.2834827,-4258.1924060415,2612253.5399233,42.894209420942,0,0
82.587720041147,-161.49634777002,37.698639863986,3738433.2834827,-4258.1924060415,2612253.5399233,42.898639863986,0,0
82.587720469895,-161.5138773601,37.703070307031,3738433.2834827,-4258.1924060415,2612253.5399233,42.903070307031,0,0
82.587720898643,-161.53140695018,37.707500750075,3738433.2834827,-4258.1924060415,2612253.5399233,42.907500750075,0,0
82.587721327391,-161.54893654026,37.711931193119,3738433.2834827,-4258.1924060415,2612253.5399233,42.911931193119,0,0
82.587721756138,-161.56646613034,37.716361636164,3738433.2834827,-4258.1924060415,2612253.5399233,42.916361636164,0,0
82.587722184886,-161.58399572042,37.720792079208,3738433.2834827,-4258.1924060415,2612253.5399233,42.920792079208,0,0
82.587722613634,-161.6015253105,37.725222522252,3738433.2834827,-4258.1924060415,2612253.5399233,42.925222522252,0,0
82.587723042382,-161.61905490059,37.729652965297,3738433.2834827,-4258.1924060415,2612253.5399233,42.929652965297,0,0
82.587723471129,-161.63658449067,37.734083408341,3738433.2834827,-4258.1924060415,2612253.5399233,42.934083408341,0,0
82.587723899877,-161.65411408075,37.738513851385,3738433.2834827,-4258.1924060415,2612253.5399233,42.938513851385,0,0
82.587724328625,-161.67164367083,37.742944294429,3738433.2834827,-4258.1924060415,2612253.5399233,42.942944294429,0,0
82.587724757373,-161.68917326091,37.747374737474,3738433.2834827,-4258.1924060415,2612253.5399233,42.947374737474,0,0
82.587725186121,-161.70670285099,37.751805180518,3738433.2834827,-4258.1924060415,2612253.5399233,42.951805180518,0,0
82.587725614868,-161.72423244107,37.756235623562,3738433.2834827,-4258.1924060415,2612253.5399233,42.956235623562,0,0
82.587726043616,-161.74176203116,37.760666066607,3738433.2834827,-4258.1924060415,2612253.5399233,42.960666066607,0,0
82.587726472364,-161.75929162124,37.765096509651,3738433.2834827,-4258.1924060415,2612253.5399233,42.965096509651,0,0
82.587726901112,-161.77682121132,37.769526952695,3738433.2834827,-4258.1924060415,2612253.5399233,42.969526952695,0,0
82.587727329859,-161.7943508014,37.77395739574,3738433.2834827,-4258.1924060415,2612253.5399233,42.97395739574,0,0
82.587727758607,-161.81188039148,37.778387838784,3738433.2834827,-4258.1924060415,2612253.5399233,42.978387838784,0,0
82.587728187355,-161.82940998156,37.782818281828,3738433.2834827,-4258.1924060415,2612253.5399233,42.982818281828,0,0
82.587728616103,-161.84693957164,37.787248724872,3738433.2834827,-4258.1924060415,2612253.5399233,42.987248724872,0,0
82.587729044851,-161.86446916173,37.791679167917,3738433.2834827,-4258.1924060415,2612253.5399233,42.991679167917,0,0
82.587729473598,-161.88199875181,37.796109610961,3738433.2834827,-4258.1924060415,2612253.5399233,42.996109610961,0,0
82.587729902346,-161.89952834189,37.800540054005,3738433.2834827,-4258.1924060415,2612253.5399233,43.000540054005,0,0
82.587730331094,-161.91705793197,37.80497049705,3738433.2834827,-4258.1924060415,2612253.5399233,43.00497049705,0,0
82.587730759842,-161.93458752205,37.809400940094,3738433.2834827,-4258.1924060415,2612253.5399233,43.009400940094,0,0
82.587731188589,-161.95211711213,37.813831383138,3738433.2834827,-4258.1924060415,2612253.5399233,43.013831383138,0,0
82.587731617337,-161.96964670222,37.818261826183,3738433.2834827,-4258.1924060415,2612253.5399233,43.018261826183,0,0
82.587732046085,-161.9871762923,37.822692269227,3738433.2834827,-4258.1924060415,2612253.5399233,43.022692269227,0,0
82.587732474833,-162.00470588238,37.827122712271,3738433.2834827,-4258.1924060415,2612253.5399233,43.027122712271,0,0
82.58773290358,-162.02223547246,37.831553155316,3738433.2834827,-4258.1924060415,2612253.5399233,43.031553155316,0,0
82.587733332328,-162.03976506254,37.83598359836,3738433.2834827,-4258.1924060415,2612253.5399233,43.03598359836,0,0
82.587733761076,-162.05729465262,37.840414041404,3738433.2834827,-4258.1924060415,2612253.5399233,43.040414041404,0,0
82.587734189824,-162.0748242427,37.844844484448,3738433.2834827,-4258.1924060415,2612253.5399233,43.044844484448,0,0
82.587734618572,-162.09235383279,37.849274927493,3738433.2834827,-4258.1924060415,2612253.5399233,43.049274927493,0,0
82.587735047319,-162.10988342287,37.853705370537,3738433.2834827,-4258.1924060415,2612253.5399233,43.053705370537,0,0
82.587735476067,-162.12741301295,37.858135813581,3738433.2834827,-4258.1924060415,2612253.5399233,43.058135813581,0,0
82.587735904815,-162.14494260303,37.862566256626,3738433.2834827,-4258.1924060415,2612253.5399233,43.062566256626,0,0
82.587736333563,-162.16247219311,37.86699669967,3738433.2834827,-4258.1924060415,2612253.5399233,43.06699669967,0,0
82.58773676231,-162.18000178319,37.871427142714,3738433.2834827,-4258.1924060415,2612253.5399233,43.071427142714,0,0
82.587737191058,-162.19753137327,37.875857585759,3738433.2834827,-4258.1924060415,2612253.5399233,43.075857585759,0,0
82.587737619806,-162.21506096336,37.880288028803,3738433.2834827,-4258.1924060415,2612253.5399233,43.080288028803,0,0
82.587738048554,-162.23259055344,37.884718471847,3738433.2834827,-4258.1924060415,2612253.5399233,43.084718471847,0,0
82.587738477302,-162.25012014352,37.889148914891,3738433.2834827,-4258.1924060415,2612253.5399233,43.089148914891,0,0
82.587738906049,-162.2676497336,37.893579357936,3738433.2834827,-4258.1924060415,2612253.5399233,43.093579357936,0,0
82.587739334797,-162.28517932368,37.89800980098,3738433.2834827,-4258.1924060415,2612253.5399233,43.09800980098,0,0
82.587739763545,-162.30270891376,37.902440244024,3738433.2834827,-4258.1924060415,2612253.5399233,43.102440244024,0,0
82.587740192293,-162.32023850385,37.906870687069,3738433.2834827,-4258.1924060415,2612253.5399233,43.106870687069,0,0
82.58774062104,-162.33776809393,37.911301130113,3738433.2834827,-4258.1924060415,2612253.5399233,43.111301130113,0,0
82.587741049788,-162.35529768401,37.915731573157,3738433.2834827,-4258.1924060415,2612253.5399233,43.115731573157,0,0
82.587741478536,-162.37282727409,37.920162016202,3738433.2834827,-4258.1924060415,2612253.5399233,43.120162016202,0,0
82.587741907284,-162.39035686417,37.924592459246,3738433.2834827,-4258.1924060415,2612253.5399233,43.124592459246,0,0
82.587742336031,-162.40788645425,37.92902290229,3738433.2834827,-4258.1924060415,2612253.5399233,43.12902290229,0,0
82.587742764779,-162.42541604433,37.933453345335,3738433.2834827,-4258.1924060415,2612253.5399233,43.133453345335,0,0
82.587743193527,-162.44294563442,37.937883788379,3738433.2834827,-4258.1924060415,2612253.5399233,43.137883788379,0,0
82.587743622275,-162.4604752245,37.942314231423,3738433.2834827,-4258.1924060415,2612253.5399233,43.142314231423,0,0
82.587744051023,-162.47800481458,37.946744674467,3738433.2834827,-4258.1924060415,2612253.5399233,43.146744674467,0,0
82.58774447977,-162.49553440466,37.951175117512,3738433.2834827,-4258.1924060415,2612253.5399233,43.151175117512,0,0
82.587744908518,-162.51306399474,37.955605560556,3738433.2834827,-4258.1924060415,2612253.5399233,43.155605560556,0,0
82.587745337266,-162.53059358482,37.9600360036,3738433.2834827,-4258.1924060415,2612253.5399233,43.1600360036,0,0
82.587745766014,-162.5481231749,37.964466446645,3738433.2834827,-4258.1924060415,2612253.5399233,43.164466446645,0,0
82.587746194761,-162.56565276499,37.968896889689,3738433.2834827,-4258.1924060415,2612253.5399233,43.168896889689,0,0
82.587746623509,-162.58318235507,37.973327332733,3738433.2834827,-4258.1924060415,2612253.5399233,43.173327332733,0,0
82.587747052257,-162.60071194515,37.977757775778,3738433.2834827,-4258.1924060415,2612253.5399233,43.177757775778,0,0
82.587747481005,-162.61824153523,37.982188218822,3738433.2834827,-4258.1924060415,2612253.5399233,43.182188218822,0,0
82.587747909753,-162.63577112531,37.986618661866,3738433.2834827,-4258.1924060415,2612253.5399233,43.186618661866,0,0
82.5877483385,-162.65330071539,37.99104910491,3738433.2834827,-4258.1924060415,2612253.5399233,43.19104910491,0,0
82.587748767248,-162.67083030547,37.995479547955,3738433.2834827,-4258.1924060415,2612253.5399233,43.195479547955,0,0
82.587749195996,-162.68835989556,37.999909990999,3738433.2834827,-4258.1924060415,2612253.5399233,43.199909990999,0,0
82.587749624744,-162.70588948564,38.004340434043,3738433.2834827,-4258.1924060415,2612253.5399233,43.204340434043,0,0
82.587750053491,-162.72341907572,38.008770877088,3738433.2834827,-4258.1924060415,2612253.5399233,43.208770877088,0,0
82.587750482239,-162.7409486658,38.013201320132,3738433.2834827,-4258.1924060415,2612253.5399233,43.213201320132,0,0
82.587750910987,-162.75847825588,38.017631763176,3738433.2834827,-4258.1924060415,2612253.5399233,43.217631763176,0,0
82.587751339735,-162.77600784596,38.022062206221,3738433.2834827,-4258.1924060415,2612253.5399233,43.222062206221,0,0
82.587751768483,-162.79353743605,38.026492649265,3738433.2834827,-4258.1924060415,2612253.5399233,43.226492649265,0,0
82.58775219723,-162.81106702613,38.030923092309,3738433.2834827,-4258.1924060415,2612253.5399233,43.230923092309,0,0
82.587752625978,-162.82859661621,38.035353535354,3738433.2834827,-4258.1924060415,2612253.5399233,43.235353535354,0,0
82.587753054726,-162.84612620629,38.039783978398,3738433.2834827,-4258.1924060415,2612253.5399233,43.239783978398,0,0
82.587753483474,-162.86365579637,38.044214421442,3738433.2834827,-4258.1924060415,2612253.5399233,43.244214421442,0,0
82.587753912221,-162.88118538645,38.048644864486,3738433.2834827,-4258.1924060415,2612253.5399233,43.248644864486,0,0
82.587754340969,-162.89871497653,38.053075307531,3738433.2834827,-4258.1924060415,2612253.5399233,43.253075307531,0,0
82.587754769717,-162.91624456662,38.057505750575,3738433.2834827,-4258.1924060415,2612253.5399233,43.257505750575,0,0
82.587755198465,-162.9337741567,38.061936193619,3738433.2834827,-4258.1924060415,2612253.5399233,43.261936193619,0,0
82.587755627212,-162.95130374678,38.066366636664,3738433.2834827,-4258.1924060415,2612253.5399233,43.266366636664,0,0
82.58775605596,-162.96883333686,38.070797079708,3738433.2834827,-4258.1924060415,2612253.5399233,43.270797079708,0,0
82.587756484708,-162.98636292694,38.075227522752,3738433.2834827,-4258.1924060415,2612253.5399233,43.275227522752,0,0
82.587756913456,-163.00389251702,38.079657965797,3738433.2834827,-4258.1924060415,2612253.5399233,43.279657965797,0,0
82.587757342204,-163.0214221071,38.084088408841,3738433.2834827,-4258.1924060415,2612253.5399233,43.284088408841,0,0
82.587757770951,-163.03895169719,38.088518851885,3738433.2834827,-4258.1924060415,2612253.5399233,43.288518851885,0,0
82.587758199699,-163.05648128727,38.092949294929,3738433.2834827,-4258.1924060415,2612253.5399233,43.292949294929,0,0
82.587758628447,-163.07401087735,38.097379737974,3738433.2834827,-4258.1924060415,2612253.5399233,43.297379737974,0,0
82.587759057195,-163.09154046743,38.101810181018,3738433.2834827,-4258.1924060415,2612253.5399233,43.301810181018,0,0
82.587759485942,-163.10907005751,38.106240624062,3738433.2834827,-4258.1924060415,2612253.5399233,43.306240624062,0,0
82.58775991469,-163.12659964759,38.110671067107,3738433.2834827,-4258.1924060415,2612253.5399233,43.310671067107,0,0
82.587760343438,-163.14412923768,38.115101510151,3738433.2834827,-4258.1924060415,2612253.5399233,43.315101510151,0,0
82.587760772186,-163.16165882776,38.119531953195,3738433.2834827,-4258.1924060415,2612253.5399233,43.319531953195,0,0
82.587761200934,-163.17918841784,38.12396239624,3738433.2834827,-4258.1924060415,2612253.5399233,43.32396239624,0,0
82.587761629681,-163.19671800792,38.128392839284,3738433.2834827,-4258.1924060415,2612253.5399233,43.328392839284,0,0
82.587762058429,-163.214247598,38.132823282328,3738433.2834827,-4258.1924060415,2612253.5399233,43.332823282328,0,0
82.587762487177,-163.23177718808,38.137253725373,3738433.2834827,-4258.1924060415,2612253.5399233,43.337253725373,0,0
82.587762915925,-163.24930677816,38.141684168417,3738433.2834827,-4258.1924060415,2612253.5399233,43.341684168417,0,0
82.587763344672,-163.26683636825,38.146114611461,3738433.2834827,-4258.1924060415,2612253.5399233,43.346114611461,0,0
82.58776377342,-163.28436595833,38.150545054505,3738433.2834827,-4258.1924060415,2612253.5399233,43.350545054505,0,0
82.587764202168,-163.30189554841,38.15497549755,3738433.2834827,-4258.1924060415,2612253.5399233,43.35497549755,0,0
82.587764630916,-163.31942513849,38.159405940594,3738433.2834827,-4258.1924060415,2612253.5399233,43.359405940594,0,0
82.587765059664,-163.33695472857,38.163836383638,3738433.2834827,-4258.1924060415,2612253.5399233,43.363836383638,0,0
82.587765488411,-163.35448431865,38.168266826683,3738433.2834827,-4258.1924060415,2612253.5399233,43.368266826683,0,0
82.587765917159,-163.37201390873,38.172697269727,3738433.2834827,-4258.1924060415,2612253.5399233,43.372697269727,0,0
82.587766345907,-163.38954349882,38.177127712771,3738433.2834827,-4258.1924060415,2612253.5399233,43.377127712771,0,0
82.587766774655,-163.4070730889,38.181558155816,3738433.2834827,-4258.1924060415,2612253.5399233,43.381558155816,0,0
82.587767203402,-163.42460267898,38.18598859886,3738433.2834827,-4258.1924060415,2612253.5399233,43.38598859886,0,0
82.58776763215,-163.44213226906,38.190419041904,3738433.2834827,-4258.1924060415,2612253.5399233,43.390419041904,0,0
82.587768060898,-163.45966185914,38.194849484948,3738433.2834827,-4258.1924060415,2612253.5399233,43.394849484948,0,0
82.587768489646,-163.47719144922,38.199279927993,3738433.2834827,-4258.1924060415,2612253.5399233,43.399279927993,0,0
82.587768918393,-163.4947210393,38.203710371037,3738433.2834827,-4258.1924060415,2612253.5399233,43.403710371037,0,0
82.587769347141,-163.51225062939,38.208140814081,3738433.2834827,-4258.1924060415,2612253.5399233,43.408140814081,0,0
82.587769775889,-163.52978021947,38.212571257126,3738433.2834827,-4258.1924060415,2612253.5399233,43.412571257126,0,0
82.587770204637,-163.54730980955,38.21700170017,3738433.2834827,-4258.1924060415,2612253.5399233,43.41700170017,0,0
82.587770633385,-163.56483939963,38.221432143214,3738433.2834827,-4258.1924060415,2612253.5399233,43.421432143214,0,0
82.587771062132,-163.58236898971,38.225862586259,3738433.2834827,-4258.1924060415,2612253.5399233,43.425862586259,0,0
82.58777149088,-163.59989857979,38.230293029303,3738433.2834827,-4258.1924060415,2612253.5399233,43.430293029303,0,0
82.587771919628,-163.61742816988,38.234723472347,3738433.2834827,-4258.1924060415,2612253.5399233,43.434723472347,0,0
82.587772348376,-163.63495775996,38.239153915392,3738433.2834827,-4258.1924060415,2612253.5399233,43.439153915392,0,0
82.587772777123,-163.65248735004,38.243584358436,3738433.2834827,-4258.1924060415,2612253.5399233,43.443584358436,0,0
82.587773205871,-163.67001694012,38.24801480148,3738433.2834827,-4258.1924060415,2612253.5399233,43.44801480148,0,0
82.587773634619,-163.6875465302,38.252445244524,3738433.2834827,-4258.1924060415,2612253.5399233,43.452445244524,0,0
82.587774063367,-163.70507612028,38.256875687569,3738433.2834827,-4258.1924060415,2612253.5399233,43.456875687569,0,0
82.587774492115,-163.72260571036,38.261306130613,3738433.2834827,-4258.1924060415,2612253.5399233,43.461306130613,0,0
82.587774920862,-163.74013530045,38.265736573657,3738433.2834827,-4258.1924060415,2612253.5399233,43.465736573657,0,0
82.58777534961,-163.75766489053,38.270167016702,3738433.2834827,-4258.1924060415,2612253.5399233,43.470167016702,0,0
82.587775778358,-163.77519448061,38.274597459746,3738433.2834827,-4258.1924060415,2612253.5399233,43.474597459746,0,0
82.587776207106,-163.79272407069,38.27902790279,3738433.2834827,-4258.1924060415,2612253.5399233,43.47902790279,0,0
82.587776635853,-163.81025366077,38.283458345835,3738433.2834827,-4258.1924060415,2612253.5399233,43.483458345835,0,0
82.587777064601,-163.82778325085,38.287888788879,3738433.2834827,-4258.1924060415,2612253.5399233,43.487888788879,0,0
82.587777493349,-163.84531284093,38.292319231923,3738433.2834827,-4258.1924060415,2612253.5399233,43.492319231923,0,0
82.587777922097,-163.86284243102,38.296749674967,3738433.2834827,-4258.1924060415,2612253.5399233,43.496749674967,0,0
82.587778350844,-163.8803720211,38.301180118012,3738433.2834827,-4258.1924060415,2612253.5399233,43.501180118012,0,0
82.587778779592,-163.89790161118,38.305610561056,3738433.2834827,-4258.1924060415,2612253.5399233,43.505610561056,0,0
82.58777920834,-163.91543120126,38.3100410041,3738433.2834827,-4258.1924060415,2612253.5399233,43.5100410041,0,0
82.587779637088,-163.93296079134,38.314471447145,3738433.2834827,-4258.1924060415,2612253.5399233,43.514471447145,0,0
82.587780065836,-163.95049038142,38.318901890189,3738433.2834827,-4258.1924060415,2612253.5399233,43.518901890189,0,0
82.587780494583,-163.96801997151,38.323332333233,3738433.2834827,-4258.1924060415,2612253.5399233,43.523332333233,0,0
82.587780923331,-163.98554956159,38.327762776278,3738433.2834827,-4258.1924060415,2612253.5399233,43.527762776278,0,0
82.587781352079,-164.00307915167,38.332193219322,3738433.2834827,-4258.1924060415,2612253.5399233,43.532193219322,0,0
82.587781780827,-164.02060874175,38.336623662366,3738433.2834827,-4258.1924060415,2612253.5399233,43.536623662366,0,0
82.587782209574,-164.03813833183,38.341054105411,3738433.2834827,-4258.1924060415,2612253.5399233,43.541054105411,0,0
82.587782638322,-164.05566792191,38.345484548455,3738433.2834827,-4258.1924060415,2612253.5399233,43.545484548455,0,0
82.58778306707,-164.07319751199,38.349914991499,3738433.2834827,-4258.1924060415,2612253.5399233,43.549914991499,0,0
82.587783495818,-164.09072710208,38.354345434543,3738433.2834827,-4258.1924060415,2612253.5399233,43.554345434543,0,0
82.587783924566,-164.10825669216,38.358775877588,3738433.2834827,-4258.1924060415,2612253.5399233,43.558775877588,0,0
82.587784353313,-164.12578628224,38.363206320632,3738433.2834827,-4258.1924060415,2612253.5399233,43.563206320632,0,0
82.587784782061,-164.14331587232,38.367636763676,3738433.2834827,-4258.1924060415,2612253.5399233,43.567636763676,0,0
82.587785210809,-164.1608454624,38.372067206721,3738433.2834827,-4258.1924060415,2612253.5399233,43.572067206721,0,0
82.587785639557,-164.17837505248,38.376497649765,3738433.2834827,-4258.1924060415,2612253.5399233,43.576497649765,0,0
82.587786068304,-164.19590464256,38.380928092809,3738433.2834827,-4258.1924060415,2612253.5399233,43.580928092809,0,0
82.587786497052,-164.21343423265,38.385358535854,3738433.2834827,-4258.1924060415,2612253.5399233,43.585358535854,0,0
82.5877869258,-164.23096382273,38.389788978898,3738433.2834827,-4258.1924060415,2612253.5399233,43.589788978898,0,0
82.587787354548,-164.24849341281,38.394219421942,3738433.2834827,-4258.1924060415,2612253.5399233,43.594219421942,0,0
82.587787783295,-164.26602300289,38.398649864986,3738433.2834827,-4258.1924060415,2612253.5399233,43.598649864986,0,0
82.587788212043,-164.28355259297,38.403080308031,3738433.2834827,-4258.1924060415,2612253.5399233,43.603080308031,0,0
82.587788640791,-164.30108218305,38.407510751075,3738433.2834827,-4258.1924060415,2612253.5399233,43.607510751075,0,0
82.587789069539,-164.31861177313,38.411941194119,3738433.2834827,-4258.1924060415,2612253.5399233,43.611941194119,0,0
82.587789498287,-164.33614136322,38.416371637164,3738433.2834827,-4258.1924060415,2612253.5399233,43.616371637164,0,0
82.587789927034,-164.3536709533,38.420802080208,3738433.2834827,-4258.1924060415,2612253.5399233,43.620802080208,0,0
82.587790355782,-164.37120054338,38.425232523252,3738433.2834827,-4258.1924060415,2612253.5399233,43.625232523252,0,0
82.58779078453,-164.38873013346,38.429662966297,3738433.2834827,-4258.1924060415,2612253.5399233,43.629662966297,0,0
82.587791213278,-164.40625972354,38.434093409341,3738433.2834827,-4258.1924060415,2612253.5399233,43.634093409341,0,0
82.587791642025,-164.42378931362,38.438523852385,3738433.2834827,-4258.1924060415,2612253.5399233,43.638523852385,0,0
82.587792070773,-164.44131890371,38.44295429543,3738433.2834827,-4258.1924060415,2612253.5399233,43.64295429543,0,0
82.587792499521,-164.45884849379,38.447384738474,3738433.2834827,-4258.1924060415,2612253.5399233,43.647384738474,0,0
82.587792928269,-164.47637808387,38.451815181518,3738433.2834827,-4258.1924060415,2612253.5399233,43.651815181518,0,0
82.587793357017,-164.49390767395,38.456245624562,3738433.2834827,-4258.1924060415,2612253.5399233,43.656245624562,0,0
82.587793785764,-164.51143726403,38.460676067607,3738433.2834827,-4258.1924060415,2612253.5399233,43.660676067607,0,0
82.587794214512,-164.52896685411,38.465106510651,3738433.2834827,-4258.1924060415,2612253.5399233,43.665106510651,0,0
82.58779464326,-164.54649644419,38.469536953695,3738433.2834827,-4258.1924060415,2612253.5399233,43.669536953695,0,0
82.587795072008,-164.56402603428,38.47396739674,3738433.2834827,-4258.1924060415,2612253.5399233,43.67396739674,0,0
82.587795500755,-164.58155562436,38.478397839784,3738433.2834827,-4258.1924060415,2612253.5399233,43.678397839784,0,0
82.587795929503,-164.59908521444,38.482828282828,3738433.2834827,-4258.1924060415,2612253.5399233,43.682828282828,0,0
82.587796358251,-164.61661480452,38.487258725873,3738433.2834827,-4258.1924060415,2612253.5399233,43.687258725873,0,0
82.587796786999,-164.6341443946,38.491689168917,3738433.2834827,-4258.1924060415,2612253.5399233,43.691689168917,0,0
82.587797215747,-164.65167398468,38.496119611961,3738433.2834827,-4258.1924060415,2612253.5399233,43.696119611961,0,0
82.587797644494,-164.66920357476,38.500550055005,3738433.2834827,-4258.1924060415,2612253.5399233,43.700550055006,0,0
82.587798073242,-164.68673316485,38.50498049805,3738433.2834827,-4258.1924060415,2612253.5399233,43.70498049805,0,0
82.58779850199,-164.70426275493,38.509410941094,3738433.2834827,-4258.1924060415,2612253.5399233,43.709410941094,0,0
82.587798930738,-164.72179234501,38.513841384138,3738433.2834827,-4258.1924060415,2612253.5399233,43.713841384138,0,0
82.587799359485,-164.73932193509,38.518271827183,3738433.2834827,-4258.1924060415,2612253.5399233,43.718271827183,0,0
82.587799788233,-164.75685152517,38.522702270227,3738433.2834827,-4258.1924060415,2612253.5399233,43.722702270227,0,0
82.587800216981,-164.77438111525,38.527132713271,3738433.2834827,-4258.1924060415,2612253.5399233,43.727132713271,0,0
82.587800645729,-164.79191070534,38.531563156316,3738433.2834827,-4258.1924060415,2612253.5399233,43.731563156316,0,0
82.587801074476,-164.80944029542,38.53599359936,3738433.2834827,-4258.1924060415,2612253.5399233,43.73599359936,0,0
82.587801503224,-164.8269698855,38.540424042404,3738433.2834827,-4258.1924060415,2612253.5399233,43.740424042404,0,0
82.587801931972,-164.84449947558,38.544854485449,3738433.2834827,-4258.1924060415,2612253.5399233,43.744854485449,0,0
82.58780236072,-164.86202906566,38.549284928493,3738433.2834827,-4258.1924060415,2612253.5399233,43.749284928493,0,0
82.587802789468,-164.87955865574,38.553715371537,3738433.2834827,-4258.1924060415,2612253.5399233,43.753715371537,0,0
82.587803218215,-164.89708824582,38.558145814581,3738433.2834827,-4258.1924060415,2612253.5399233,43.758145814581,0,0
82.587803646963,-164.91461783591,38.562576257626,3738433.2834827,-4258.1924060415,2612253.5399233,43.762576257626,0,0
82.587804075711,-164.93214742599,38.56700670067,3738433.2834827,-4258.1924060415,2612253.5399233,43.76700670067,0,0
82.587804504459,-164.94967701607,38.571437143714,3738433.2834827,-4258.1924060415,2612253.5399233,43.771437143714,0,0
82.587804933206,-164.96720660615,38.575867586759,3738433.2834827,-4258.1924060415,2612253.5399233,43.775867586759,0,0
82.587805361954,-164.98473619623,38.580298029803,3738433.2834827,-4258.1924060415,2612253.5399233,43.780298029803,0,0
82.587805790702,-165.00226578631,38.584728472847,3738433.2834827,-4258.1924060415,2612253.5399233,43.784728472847,0,0
82.58780621945,-165.01979537639,38.589158915892,3738433.2834827,-4258.1924060415,2612253.5399233,43.789158915892,0,0
82.587806648198,-165.03732496648,38.593589358936,3738433.2834827,-4258.1924060415,2612253.5399233,43.793589358936,0,0
82.587807076945,-165.05485455656,38.59801980198,3738433.2834827,-4258.1924060415,2612253.5399233,43.79801980198,0,0
82.587807505693,-165.07238414664,38.602450245024,3738433.2834827,-4258.1924060415,2612253.5399233,43.802450245025,0,0
82.587807934441,-165.08991373672,38.606880688069,3738433.2834827,-4258.1924060415,2612253.5399233,43.806880688069,0,0
82.587808363189,-165.1074433268,38.611311131113,3738433.2834827,-4258.1924060415,2612253.5399233,43.811311131113,0,0
82.587808791936,-165.12497291688,38.615741574157,3738433.2834827,-4258.1924060415,2612253.5399233,43.815741574157,0,0
82.587809220684,-165.14250250697,38.620172017202,3738433.2834827,-4258.1924060415,2612253.5399233,43.820172017202,0,0
82.587809649432,-165.16003209705,38.624602460246,3738433.2834827,-4258.1924060415,2612253.5399233,43.824602460246,0,0
82.58781007818,-165.17756168713,38.62903290329,3738433.2834827,-4258.1924060415,2612253.5399233,43.82903290329,0,0
82.587810506927,-165.19509127721,38.633463346335,3738433.2834827,-4258.1924060415,2612253.5399233,43.833463346335,0,0
82.587810935675,-165.21262086729,38.637893789379,3738433.2834827,-4258.1924060415,2612253.5399233,43.837893789379,0,0
82.587811364423,-165.23015045737,38.642324232423,3738433.2834827,-4258.1924060415,2612253.5399233,43.842324232423,0,0
82.587811793171,-165.24768004745,38.646754675468,3738433.2834827,-4258.1924060415,2612253.5399233,43.846754675468,0,0
82.587812221919,-165.26520963754,38.651185118512,3738433.2834827,-4258.1924060415,2612253.5399233,43.851185118512,0,0
82.587812650666,-165.28273922762,38.655615561556,3738433.2834827,-4258.1924060415,2612253.5399233,43.855615561556,0,0
82.587813079414,-165.3002688177,38.6600460046,3738433.2834827,-4258.1924060415,2612253.5399233,43.8600460046,0,0
82.587813508162,-165.31779840778,38.664476447645,3738433.2834827,-4258.1924060415,2612253.5399233,43.864476447645,0,0
82.58781393691,-165.33532799786,38.668906890689,3738433.2834827,-4258.1924060415,2612253.5399233,43.868906890689,0,0
82.587814365657,-165.35285758794,38.673337333733,3738433.2834827,-4258.1924060415,2612253.5399233,43.873337333733,0,0
82.587814794405,-165.37038717802,38.677767776778,3738433.2834827,-4258.1924060415,2612253.5399233,43.877767776778,0,0
82.587815223153,-165.38791676811,38.682198219822,3738433.2834827,-4258.1924060415,2612253.5399233,43.882198219822,0,0
82.587815651901,-165.40544635819,38.686628662866,3738433.2834827,-4258.1924060415,2612253.5399233,43.886628662866,0,0
82.587816080649,-165.42297594827,38.691059105911,3738433.2834827,-4258.1924060415,2612253.5399233,43.891059105911,0,0
82.587816509396,-165.44050553835,38.695489548955,3738433.2834827,-4258.1924060415,2612253.5399233,43.895489548955,0,0
82.587816938144,-165.45803512843,38.699919991999,3738433.2834827,-4258.1924060415,2612253.5399233,43.899919991999,0,0
82.587817366892,-165.47556471851,38.704350435044,3738433.2834827,-4258.1924060415,2612253.5399233,43.904350435044,0,0
82.58781779564,-165.49309430859,38.708780878088,3738433.2834827,-4258.1924060415,2612253.5399233,43.908780878088,0,0
82.587818224387,-165.51062389868,38.713211321132,3738433.2834827,-4258.1924060415,2612253.5399233,43.913211321132,0,0
82.587818653105,-165.52815348862,38.717641764176,3738508.9297027,-1918.1037953332,2617160.5495415,43.917641764176,0,0
82.587819081728,-165.54568307812,38.722072207221,3738508.9297027,-1918.1037953332,2617160.5495415,43.922072207221,0,0
82.587819510351,-165.56321266762,38.726502650265,3738508.9297027,-1918.1037953332,2617160.5495415,43.926502650265,0,0
82.587819938974,-165.58074225712,38.730933093309,3738508.9297027,-1918.1037953332,2617160.5495415,43.930933093309,0,0
82.587820367598,-165.59827184661,38.735363536354,3738508.9297027,-1918.1037953332,2617160.5495415,43.935363536354,0,0
82.587820796221,-165.61580143611,38.739793979398,3738508.9297027,-1918.1037953332,2617160.5495415,43.939793979398,0,0
82.58782122504,-165.63333102604,38.744224422442,3743038.0404226,-4915.2996905378,2621736.8995981,43.944224422442,0,0
82.587821653903,-165.65086061607,38.748654865487,3743038.0404226,-4915.2996905378,2621736.8995981,43.948654865487,0,0
82.587822082766,-165.6683902061,38.753085308531,3743038.0404226,-4915.2996905378,2621736.8995981,43.953085308531,0,0
82.587822511629,-165.68591979612,38.757515751575,3743038.0404226,-4915.2996905378,2621736.8995981,43.957515751575,0,0
82.587822940492,-165.70344938615,38.761946194619,3743038.0404226,-4915.2996905378,2621736.8995981,43.961946194619,0,0
82.587823369355,-165.72097897618,38.766376637664,3743038.0404226,-4915.2996905378,2621736.8995981,43.966376637664,0,0
82.587823798218,-165.7385085662,38.770807080708,3743038.0404226,-4915.2996905378,2621736.8995981,43.970807080708,0,0
82.587824227081,-165.75603815623,38.775237523752,3743038.0404226,-4915.2996905378,2621736.8995981,43.975237523752,0,0
82.587824655944,-165.77356774626,38.779667966797,3743038.0404226,-4915.2996905378,2621736.8995981,43.979667966797,0,0
82.587825084808,-165.79109733628,38.784098409841,3743038.0404226,-4915.2996905378,2621736.8995981,43.984098409841,0,0
82.587825513671,-165.80862692631,38.788528852885,3743038.0404226,-4915.2996905378,2621736.8995981,43.988528852885,0,0
82.587825942534,-165.82615651633,38.79295929593,3743038.0404226,-4915.2996905378,2621736.8995981,43.99295929593,0,0
82.587826371397,-165.84368610636,38.797389738974,3743038.0404226,-4915.2996905378,2621736.8995981,43.997389738974,0,0
82.58782680026,-165.86121569639,38.801820182018,3743038.0404226,-4915.2996905378,2621736.8995981,44.001820182018,0,0
82.587827229123,-165.87874528641,38.806250625063,3743038.0404226,-4915.2996905378,2621736.8995981,44.006250625063,0,0
82.587827657986,-165.89627487644,38.810681068107,3743038.0404226,-4915.2996905378,2621736.8995981,44.010681068107,0,0
82.587828086849,-165.91380446647,38.815111511151,3743038.0404226,-4915.2996905378,2621736.8995981,44.015111511151,0,0
82.587828515712,-165.93133405649,38.819541954195,3743038.0404226,-4915.2996905378,2621736.8995981,44.019541954195,0,0
82.587828944575,-165.94886364652,38.82397239724,3743038.0404226,-4915.2996905378,2621736.8995981,44.02397239724,0,0
82.587829373438,-165.96639323655,38.828402840284,3743038.0404226,-4915.2996905378,2621736.8995981,44.028402840284,0,0
82.587829802301,-165.98392282657,38.832833283328,3743038.0404226,-4915.2996905378,2621736.8995981,44.032833283328,0,0
82.587830231165,-166.0014524166,38.837263726373,3743038.0404226,-4915.2996905378,2621736.8995981,44.037263726373,0,0
82.587830660028,-166.01898200662,38.841694169417,3743038.0404226,-4915.2996905378,2621736.8995981,44.041694169417,0,0
82.587831088891,-166.03651159665,38.846124612461,3743038.0404226,-4915.2996905378,2621736.8995981,44.046124612461,0,0
82.587831517754,-166.05404118668,38.850555055506,3743038.0404226,-4915.2996905378,2621736.8995981,44.050555055506,0,0
82.587831946617,-166.0715707767,38.85498549855,3743038.0404226,-4915.2996905378,2621736.8995981,44.05498549855,0,0
82.58783237548,-166.08910036673,38.859415941594,3743038.0404226,-4915.2996905378,2621736.8995981,44.059415941594,0,0
82.587832804343,-166.10662995676,38.863846384638,3743038.0404226,-4915.2996905378,2621736.8995981,44.063846384638,0,0
82.587833233206,-166.12415954678,38.868276827683,3743038.0404226,-4915.2996905378,2621736.8995981,44.068276827683,0,0
82.587833662069,-166.14168913681,38.872707270727,3743038.0404226,-4915.2996905378,2621736.8995981,44.072707270727,0,0
82.587834090932,-166.15921872684,38.877137713771,3743038.0404226,-4915.2996905378,2621736.8995981,44.077137713771,0,0
82.587834519795,-166.17674831686,38.881568156816,3743038.0404226,-4915.2996905378,2621736.8995981,44.081568156816,0,0
82.587834948658,-166.19427790689,38.88599859986,3743038.0404226,-4915.2996905378,2621736.8995981,44.08599859986,0,0
82.587835377522,-166.21180749692,38.890429042904,3743038.0404226,-4915.2996905378,2621736.8995981,44.090429042904,0,0
82.587835806385,-166.22933708694,38.894859485949,3743038.0404226,-4915.2996905378,2621736.8995981,44.094859485949,0,0
82.587836235248,-166.24686667697,38.899289928993,3743038.0404226,-4915.2996905378,2621736.8995981,44.099289928993,0,0
82.587836664111,-166.26439626699,38.903720372037,3743038.0404226,-4915.2996905378,2621736.8995981,44.103720372037,0,0
82.587837092974,-166.28192585702,38.908150815082,3743038.0404226,-4915.2996905378,2621736.8995981,44.108150815082,0,0
82.587837521837,-166.29945544705,38.912581258126,3743038.0404226,-4915.2996905378,2621736.8995981,44.112581258126,0,0
82.5878379507,-166.31698503707,38.91701170117,3743038.0404226,-4915.2996905378,2621736.8995981,44.11701170117,0,0
82.587838379563,-166.3345146271,38.921442144214,3743038.0404226,-4915.2996905378,2621736.8995981,44.121442144214,0,0
82.587838808426,-166.35204421713,38.925872587259,3743038.0404226,-4915.2996905378,2621736.8995981,44.125872587259,0,0
82.587839237289,-166.36957380715,38.930303030303,3743038.0404226,-4915.2996905378,2621736.8995981,44.130303030303,0,0
82.587839666152,-166.38710339718,38.934733473347,3743038.0404226,-4915.2996905378,2621736.8995981,44.134733473347,0,0
82.587840095015,-166.40463298721,38.939163916392,3743038.0404226,-4915.2996905378,2621736.8995981,44.139163916392,0,0
82.587840523879,-166.42216257723,38.943594359436,3743038.0404226,-4915.2996905378,2621736.8995981,44.143594359436,0,0
82.587840952742,-166.43969216726,38.94802480248,3743038.0404226,-4915.2996905378,2621736.8995981,44.14802480248,0,0
82.587841381605,-166.45722175729,38.952455245525,3743038.0404226,-4915.2996905378,2621736.8995981,44.152455245525,0,0
82.587841810468,-166.47475134731,38.956885688569,3743038.0404226,-4915.2996905378,2621736.8995981,44.156885688569,0,0
82.587842239331,-166.49228093734,38.961316131613,3743038.0404226,-4915.2996905378,2621736.8995981,44.161316131613,0,0
82.587842668194,-166.50981052736,38.965746574657,3743038.0404226,-4915.2996905378,2621736.8995981,44.165746574657,0,0
82.587843097057,-166.52734011739,38.970177017702,3743038.0404226,-4915.2996905378,2621736.8995981,44.170177017702,0,0
82.58784352592,-166.54486970742,38.974607460746,3743038.0404226,-4915.2996905378,2621736.8995981,44.174607460746,0,0
82.587843954783,-166.56239929744,38.97903790379,3743038.0404226,-4915.2996905378,2621736.8995981,44.17903790379,0,0
82.587844383646,-166.57992888747,38.983468346835,3743038.0404226,-4915.2996905378,2621736.8995981,44.183468346835,0,0
82.587844812509,-166.5974584775,38.987898789879,3743038.0404226,-4915.2996905378,2621736.8995981,44.187898789879,0,0
82.587845241373,-166.61498806752,38.992329232923,3743038.0404226,-4915.2996905378,2621736.8995981,44.192329232923,0,0
82.587845670236,-166.63251765755,38.996759675968,3743038.0404226,-4915.2996905378,2621736.8995981,44.196759675968,0,0
82.587846099099,-166.65004724758,39.001190119012,3743038.0404226,-4915.2996905378,2621736.8995981,44.201190119012,0,0
82.587846527962,-166.6675768376,39.005620562056,3743038.0404226,-4915.2996905378,2621736.8995981,44.205620562056,0,0
82.587846956825,-166.68510642763,39.010051005101,3743038.0404226,-4915.2996905378,2621736.8995981,44.210051005101,0,0
82.587847385688,-166.70263601766,39.014481448145,3743038.0404226,-4915.2996905378,2621736.8995981,44.214481448145,0,0
82.587847814551,-166.72016560768,39.018911891189,3743038.0404226,-4915.2996905378,2621736.8995981,44.218911891189,0,0
82.587848243414,-166.73769519771,39.023342334233,3743038.0404226,-4915.2996905378,2621736.8995981,44.223342334233,0,0
82.587848672277,-166.75522478773,39.027772777278,3743038.0404226,-4915.2996905378,2621736.8995981,44.227772777278,0,0
82.58784910114,-166.77275437776,39.032203220322,3743038.0404226,-4915.2996905378,2621736.8995981,44.232203220322,0,0
82.587849530003,-166.79028396779,39.036633663366,3743038.0404226,-4915.2996905378,2621736.8995981,44.236633663366,0,0
82.587849958866,-166.80781355781,39.041064106411,3743038.0404226,-4915.2996905378,2621736.8995981,44.241064106411,0,0
82.58785038773,-166.82534314784,39.045494549455,3743038.0404226,-4915.2996905378,2621736.8995981,44.245494549455,0,0
82.587850816593,-166.84287273787,39.049924992499,3743038.0404226,-4915.2996905378,2621736.8995981,44.249924992499,0,0
82.587851245456,-166.86040232789,39.054355435544,3743038.0404226,-4915.2996905378,2621736.8995981,44.254355435544,0,0
82.587851674319,-166.87793191792,39.058785878588,3743038.0404226,-4915.2996905378,2621736.8995981,44.258785878588,0,0
82.587852103182,-166.89546150795,39.063216321632,3743038.0404226,-4915.2996905378,2621736.8995981,44.263216321632,0,0
82.587852532045,-166.91299109797,39.067646764676,3743038.0404226,-4915.2996905378,2621736.8995981,44.267646764676,0,0
82.587852960908,-166.930520688,39.072077207721,3743038.0404226,-4915.2996905378,2621736.8995981,44.272077207721,0,0
82.587853389771,-166.94805027802,39.076507650765,3743038.0404226,-4915.2996905378,2621736.8995981,44.276507650765,0,0
82.587853818634,-166.96557986805,39.080938093809,3743038.0404226,-4915.2996905378,2621736.8995981,44.280938093809,0,0
82.587854247497,-166.98310945808,39.085368536854,3743038.0404226,-4915.2996905378,2621736.8995981,44.285368536854,0,0
82.58785467636,-167.0006390481,39.089798979898,3743038.0404226,-4915.2996905378,2621736.8995981,44.289798979898,0,0
82.587855105223,-167.01816863813,39.094229422942,3743038.0404226,-4915.2996905378,2621736.8995981,44.294229422942,0,0
82.587855534087,-167.03569822816,39.098659865987,3743038.0404226,-4915.2996905378,2621736.8995981,44.298659865987,0,0
82.58785596295,-167.05322781818,39.103090309031,3743038.0404226,-4915.2996905378,2621736.8995981,44.303090309031,0,0
82.587856391813,-167.07075740821,39.107520752075,3743038.0404226,-4915.2996905378,2621736.8995981,44.307520752075,0,0
82.587856820676,-167.08828699824,39.11195119512,3743038.0404226,-4915.2996905378,2621736.8995981,44.31195119512,0,0
82.587857249539,-167.10581658826,39.116381638164,3743038.0404226,-4915.2996905378,2621736.8995981,44.316381638164,0,0
82.587857678402,-167.12334617829,39.120812081208,3743038.0404226,-4915.2996905378,2621736.8995981,44.320812081208,0,0
82.587858107265,-167.14087576832,39.125242524252,3743038.0404226,-4915.2996905378,2621736.8995981,44.325242524252,0,0
82.587858536128,-167.15840535834,39.129672967297,3743038.0404226,-4915.2996905378,2621736.8995981,44.329672967297,0,0
82.587858964991,-167.17593494837,39.134103410341,3743038.0404226,-4915.2996905378,2621736.8995981,44.334103410341,0,0
82.587859393854,-167.19346453839,39.138533853385,3743038.0404226,-4915.2996905378,2621736.8995981,44.338533853385,0,0
82.587859822717,-167.21099412842,39.14296429643,3743038.0404226,-4915.2996905378,2621736.8995981,44.34296429643,0,0
82.58786025158,-167.22852371845,39.147394739474,3743038.0404226,-4915.2996905378,2621736.8995981,44.347394739474,0,0
82.587860680444,-167.24605330847,39.151825182518,3743038.0404226,-4915.2996905378,2621736.8995981,44.351825182518,0,0
82.587861109307,-167.2635828985,39.156255625563,3743038.0404226,-4915.2996905378,2621736.8995981,44.356255625563,0,0
82.58786153817,-167.28111248853,39.160686068607,3743038.0404226,-4915.2996905378,2621736.8995981,44.360686068607,0,0
82.587861967033,-167.29864207855,39.165116511651,3743038.0404226,-4915.2996905378,2621736.8995981,44.365116511651,0,0
82.587862395896,-167.31617166858,39.169546954695,3743038.0404226,-4915.2996905378,2621736.8995981,44.369546954695,0,0
82.587862824759,-167.33370125861,39.17397739774,3743038.0404226,-4915.2996905378,2621736.8995981,44.37397739774,0,0
82.587863253622,-167.35123084863,39.178407840784,3743038.0404226,-4915.2996905378,2621736.8995981,44.378407840784,0,0
82.587863682485,-167.36876043866,39.182838283828,3743038.0404226,-4915.2996905378,2621736.8995981,44.382838283828,0,0
82.587864111348,-167.38629002869,39.187268726873,3743038.0404226,-4915.2996905378,2621736.8995981,44.387268726873,0,0
82.587864540211,-167.40381961871,39.191699169917,3743038.0404226,-4915.2996905378,2621736.8995981,44.391699169917,0,0
82.587864969074,-167.42134920874,39.196129612961,3743038.0404226,-4915.2996905378,2621736.8995981,44.396129612961,0,0
82.587865397938,-167.43887879876,39.200560056006,3743038.0404226,-4915.2996905378,2621736.8995981,44.400560056006,0,0
82.587865826801,-167.45640838879,39.20499049905,3743038.0404226,-4915.2996905378,2621736.8995981,44.40499049905,0,0
82.587866255664,-167.47393797882,39.209420942094,3743038.0404226,-4915.2996905378,2621736.8995981,44.409420942094,0,0
82.587866684527,-167.49146756884,39.213851385139,3743038.0404226,-4915.2996905378,2621736.8995981,44.413851385139,0,0
82.58786711339,-167.50899715887,39.218281828183,3743038.0404226,-4915.2996905378,2621736.8995981,44.418281828183,0,0
82.587867542253,-167.5265267489,39.222712271227,3743038.0404226,-4915.2996905378,2621736.8995981,44.422712271227,0,0
82.587867971116,-167.54405633892,39.227142714271,3743038.0404226,-4915.2996905378,2621736.8995981,44.427142714271,0,0
82.587868399979,-167.56158592895,39.231573157316,3743038.0404226,-4915.2996905378,2621736.8995981,44.431573157316,0,0
82.587868828842,-167.57911551898,39.23600360036,3743038.0404226,-4915.2996905378,2621736.8995981,44.43600360036,0,0
82.587869257705,-167.596645109,39.240434043404,3743038.0404226,-4915.2996905378,2621736.8995981,44.440434043404,0,0
82.587869686568,-167.61417469903,39.244864486449,3743038.0404226,-4915.2996905378,2621736.8995981,44.444864486449,0,0
82.587870115431,-167.63170428906,39.249294929493,3743038.0404226,-4915.2996905378,2621736.8995981,44.449294929493,0,0
82.587870544295,-167.64923387908,39.253725372537,3743038.0404226,-4915.2996905378,2621736.8995981,44.453725372537,0,0
82.587870973158,-167.66676346911,39.258155815582,3743038.0404226,-4915.2996905378,2621736.8995981,44.458155815582,0,0
82.587871402021,-167.68429305913,39.262586258626,3743038.0404226,-4915.2996905378,2621736.8995981,44.462586258626,0,0
82.587871830884,-167.70182264916,39.26701670167,3743038.0404226,-4915.2996905378,2621736.8995981,44.46701670167,0,0
82.587872259747,-167.71935223919,39.271447144714,3743038.0404226,-4915.2996905378,2621736.8995981,44.471447144714,0,0
82.58787268861,-167.73688182921,39.275877587759,3743038.0404226,-4915.2996905378,2621736.8995981,44.475877587759,0,0
82.587873117473,-167.75441141924,39.280308030803,3743038.0404226,-4915.2996905378,2621736.8995981,44.480308030803,0,0
82.587873546336,-167.77194100927,39.284738473847,3743038.0404226,-4915.2996905378,2621736.8995981,44.484738473847,0,0
82.587873975199,-167.78947059929,39.289168916892,3743038.0404226,-4915.2996905378,2621736.8995981,44.489168916892,0,0
82.587874404062,-167.80700018932,39.293599359936,3743038.0404226,-4915.2996905378,2621736.8995981,44.493599359936,0,0
82.587874832925,-167.82452977935,39.29802980298,3743038.0404226,-4915.2996905378,2621736.8995981,44.49802980298,0,0
82.587875261788,-167.84205936937,39.302460246025,3743038.0404226,-4915.2996905378,2621736.8995981,44.502460246025,0,0
82.587875690652,-167.8595889594,39.306890689069,3743038.0404226,-4915.2996905378,2621736.8995981,44.506890689069,0,0
82.587876119515,-167.87711854942,39.311321132113,3743038.0404226,-4915.2996905378,2621736.8995981,44.511321132113,0,0
82.587876548378,-167.89464813945,39.315751575158,3743038.0404226,-4915.2996905378,2621736.8995981,44.515751575158,0,0
82.587876977241,-167.91217772948,39.320182018202,3743038.0404226,-4915.2996905378,2621736.8995981,44.520182018202,0,0
82.587877406104,-167.9297073195,39.324612461246,3743038.0404226,-4915.2996905378,2621736.8995981,44.524612461246,0,0
82.587877834967,-167.94723690953,39.32904290429,3743038.0404226,-4915.2996905378,2621736.8995981,44.52904290429,0,0
82.587878263768,-167.96476649956,39.333473347335,3742484.8235582,4629.223979009,2622782.6179388,44.533473347335,0,0
82.587878692559,-167.98229608959,39.337903790379,3742484.8235582,4629.223979009,2622782.6179388,44.537903790379,0,0
82.58787912135,-167.99982567962,39.342334233423,3742484.8235582,4629.223979009,2622782.6179388,44.542334233423,0,0
82.587879550141,-168.01735526965,39.346764676468,3742484.8235582,4629.223979009,2622782.6179388,44.546764676468,0,0
82.587879978932,-168.03488485968,39.351195119512,3742484.8235582,4629.223979009,2622782.6179388,44.551195119512,0,0
82.587880407723,-168.05241444971,39.355625562556,3742484.8235582,4629.223979009,2622782.6179388,44.555625562556,0,0
82.587880836514,-168.06994403974,39.360056005601,3742484.8235582,4629.223979009,2622782.6179388,44.560056005601,0,0
82.587881265305,-168.08747362977,39.364486448645,3742484.8235582,4629.223979009,2622782.6179388,44.564486448645,0,0
82.587881694097,-168.1050032198,39.368916891689,3742484.8235582,4629.223979009,2622782.6179388,44.568916891689,0,0
82.587882122888,-168.12253280983,39.373347334733,3742484.8235582,4629.223979009,2622782.6179388,44.573347334733,0,0
82.587882551679,-168.14006239986,39.377777777778,3742484.8235582,4629.223979009,2622782.6179388,44.577777777778,0,0
82.58788298047,-168.15759198989,39.382208220822,3742484.8235582,4629.223979009,2622782.6179388,44.582208220822,0,0
82.587883409261,-168.17512157992,39.386638663866,3742484.8235582,4629.223979009,2622782.6179388,44.586638663866,0,0
82.587883838052,-168.19265116995,39.391069106911,3742484.8235582,4629.223979009,2622782.6179388,44.591069106911,0,0
82.587884266843,-168.21018075998,39.395499549955,3742484.8235582,4629.223979009,2622782.6179388,44.595499549955,0,0
82.587884695634,-168.22771035001,39.399929992999,3742484.8235582,4629.223979009,2622782.6179388,44.599929992999,0,0
82.587885124425,-168.24523994004,39.404360436044,3742484.8235582,4629.223979009,2622782.6179388,44.604360436044,0,0
82.587885553216,-168.26276953007,39.408790879088,3742484.8235582,4629.223979009,2622782.6179388,44.608790879088,0,0
82.587885982007,-168.2802991201,39.413221322132,3742484.8235582,4629.223979009,2622782.6179388,44.613221322132,0,0
82.587886410798,-168.29782871013,39.417651765177,3742484.8235582,4629.223979009,2622782.6179388,44.617651765177,0,0
82.587886839589,-168.31535830016,39.422082208221,3742484.8235582,4629.223979009,2622782.6179388,44.622082208221,0,0
82.58788726838,-168.33288789019,39.426512651265,3742484.8235582,4629.223979009,2622782.6179388,44.626512651265,0,0
82.587887697171,-168.35041748022,39.430943094309,3742484.8235582,4629.223979009,2622782.6179388,44.630943094309,0,0
82.587888125962,-168.36794707025,39.435373537354,3742484.8235582,4629.223979009,2622782.6179388,44.635373537354,0,0
82.587888554753,-168.38547666028,39.439803980398,3742484.8235582,4629.223979009,2622782.6179388,44.639803980398,0,0
82.587888983544,-168.40300625031,39.444234423442,3742484.8235582,4629.223979009,2622782.6179388,44.644234423442,0,0
82.587889412335,-168.42053584034,39.448664866487,3742484.8235582,4629.223979009,2622782.6179388,44.648664866487,0,0
82.587889841127,-168.43806543037,39.453095309531,3742484.8235582,4629.223979009,2622782.6179388,44.653095309531,0,0
82.587890269918,-168.4555950204,39.457525752575,3742484.8235582,4629.223979009,2622782.6179388,44.657525752575,0,0
82.587890698709,-168.47312461043,39.46195619562,3742484.8235582,4629.223979009,2622782.6179388,44.66195619562,0,0
82.5878911275,-168.49065420046,39.466386638664,3742484.8235582,4629.223979009,2622782.6179388,44.666386638664,0,0
82.587891556291,-168.50818379049,39.470817081708,3742484.8235582,4629.223979009,2622782.6179388,44.670817081708,0,0
82.587891985082,-168.52571338052,39.475247524752,3742484.8235582,4629.223979009,2622782.6179388,44.675247524752,0,0
82.587892413873,-168.54324297055,39.479677967797,3742484.8235582,4629.223979009,2622782.6179388,44.679677967797,0,0
82.587892842664,-168.56077256058,39.484108410841,3742484.8235582,4629.223979009,2622782.6179388,44.684108410841,0,0
82.587893271455,-168.57830215061,39.488538853885,3742484.8235582,4629.223979009,2622782.6179388,44.688538853885,0,0
82.587893700246,-168.59583174064,39.49296929693,3742484.8235582,4629.223979009,2622782.6179388,44.69296929693,0,0
82.587894129037,-168.61336133067,39.497399739974,3742484.8235582,4629.223979009,2622782.6179388,44.697399739974,0,0
82.587894557828,-168.6308909207,39.501830183018,3742484.8235582,4629.223979009,2622782.6179388,44.701830183018,0,0
82.587894986619,-168.64842051073,39.506260626063,3742484.8235582,4629.223979009,2622782.6179388,44.706260626063,0,0
82.58789541541,-168.66595010076,39.510691069107,3742484.8235582,4629.223979009,2622782.6179388,44.710691069107,0,0
82.587895844201,-168.68347969079,39.515121512151,3742484.8235582,4629.223979009,2622782.6179388,44.715121512151,0,0
82.587896272992,-168.70100928082,39.519551955196,3742484.8235582,4629.223979009,2622782.6179388,44.719551955196,0,0
82.587896701783,-168.71853887085,39.52398239824,3742484.8235582,4629.223979009,2622782.6179388,44.72398239824,0,0
82.587897130574,-168.73606846088,39.528412841284,3742484.8235582,4629.223979009,2622782.6179388,44.728412841284,0,0
82.587897559366,-168.75359805091,39.532843284328,3742484.8235582,4629.223979009,2622782.6179388,44.732843284328,0,0
82.587897988157,-168.77112764093,39.537273727373,3742484.8235582,4629.223979009,2622782.6179388,44.737273727373,0,0
82.587898416948,-168.78865723096,39.541704170417,3742484.8235582,4629.223979009,2622782.6179388,44.741704170417,0,0
82.587898845739,-168.80618682099,39.546134613461,3742484.8235582,4629.223979009,2622782.6179388,44.746134613461,0,0
82.58789927453,-168.82371641102,39.550565056506,3742484.8235582,4629.223979009,2622782.6179388,44.750565056506,0,0
82.587899703321,-168.84124600105,39.55499549955,3742484.8235582,4629.223979009,2622782.6179388,44.75499549955,0,0
82.587900132112,-168.85877559108,39.559425942594,3742484.8235582,4629.223979009,2622782.6179388,44.759425942594,0,0
82.587900560903,-168.87630518111,39.563856385639,3742484.8235582,4629.223979009,2622782.6179388,44.763856385639,0,0
82.587900989694,-168.89383477114,39.568286828683,3742484.8235582,4629.223979009,2622782.6179388,44.768286828683,0,0
82.587901418485,-168.91136436117,39.572717271727,3742484.8235582,4629.223979009,2622782.6179388,44.772717271727,0,0
82.587901847276,-168.9288939512,39.577147714771,3742484.8235582,4629.223979009,2622782.6179388,44.777147714771,0,0
82.587902276067,-168.94642354123,39.581578157816,3742484.8235582,4629.223979009,2622782.6179388,44.781578157816,0,0
82.587902704858,-168.96395313126,39.58600860086,3742484.8235582,4629.223979009,2622782.6179388,44.78600860086,0,0
82.587903133649,-168.98148272129,39.590439043904,3742484.8235582,4629.223979009,2622782.6179388,44.790439043904,0,0
82.58790356244,-168.99901231132,39.594869486949,3742484.8235582,4629.223979009,2622782.6179388,44.794869486949,0,0
82.587903991231,-169.01654190135,39.599299929993,3742484.8235582,4629.223979009,2622782.6179388,44.799299929993,0,0
82.587904420022,-169.03407149138,39.603730373037,3742484.8235582,4629.223979009,2622782.6179388,44.803730373037,0,0
82.587904848813,-169.05160108141,39.608160816082,3742484.8235582,4629.223979009,2622782.6179388,44.808160816082,0,0
82.587905277604,-169.06913067144,39.612591259126,3742484.8235582,4629.223979009,2622782.6179388,44.812591259126,0,0
82.587905706396,-169.08666026147,39.61702170217,3742484.8235582,4629.223979009,2622782.6179388,44.81702170217,0,0
82.587906135187,-169.1041898515,39.621452145215,3742484.8235582,4629.223979009,2622782.6179388,44.821452145215,0,0
82.587906563978,-169.12171944153,39.625882588259,3742484.8235582,4629.223979009,2622782.6179388,44.825882588259,0,0
82.587906992769,-169.13924903156,39.630313031303,3742484.8235582,4629.223979009,2622782.6179388,44.830313031303,0,0
82.58790742156,-169.15677862159,39.634743474347,3742484.8235582,4629.223979009,2622782.6179388,44.834743474347,0,0
82.587907850351,-169.17430821162,39.639173917392,3742484.8235582,4629.223979009,2622782.6179388,44.839173917392,0,0
82.587908279142,-169.19183780165,39.643604360436,3742484.8235582,4629.223979009,2622782.6179388,44.843604360436,0,0
82.587908707933,-169.20936739168,39.64803480348,3742484.8235582,4629.223979009,2622782.6179388,44.84803480348,0,0
82.587909136724,-169.22689698171,39.652465246525,3742484.8235582,4629.223979009,2622782.6179388,44.852465246525,0,0
82.587909565515,-169.24442657174,39.656895689569,3742484.8235582,4629.223979009,2622782.6179388,44.856895689569,0,0
82.587909994306,-169.26195616177,39.661326132613,3742484.8235582,4629.223979009,2622782.6179388,44.861326132613,0,0
82.587910423097,-169.2794857518,39.665756575658,3742484.8235582,4629.223979009,2622782.6179388,44.865756575658,0,0
82.587910851888,-169.29701534183,39.670187018702,3742484.8235582,4629.223979009,2622782.6179388,44.870187018702,0,0
82.587911280679,-169.31454493186,39.674617461746,3742484.8235582,4629.223979009,2622782.6179388,44.874617461746,0,0
82.58791170947,-169.33207452189,39.67904790479,3742484.8235582,4629.223979009,2622782.6179388,44.87904790479,0,0
82.587912138261,-169.34960411192,39.683478347835,3742484.8235582,4629.223979009,2622782.6179388,44.883478347835,0,0
82.587912567052,-169.36713370195,39.687908790879,3742484.8235582,4629.223979009,2622782.6179388,44.887908790879,0,0
82.587912995843,-169.38466329198,39.692339233923,3742484.8235582,4629.223979009,2622782.6179388,44.892339233923,0,0
82.587913424635,-169.40219288201,39.696769676968,3742484.8235582,4629.223979009,2622782.6179388,44.896769676968,0,0
82.587913853426,-169.41972247204,39.701200120012,3742484.8235582,4629.223979009,2622782.6179388,44.901200120012,0,0
82.587914282217,-169.43725206207,39.705630563056,3742484.8235582,4629.223979009,2622782.6179388,44.905630563056,0,0
82.587914711008,-169.4547816521,39.710061006101,3742484.8235582,4629.223979009,2622782.6179388,44.910061006101,0,0
82.587915139799,-169.47231124213,39.714491449145,3742484.8235582,4629.223979009,2622782.6179388,44.914491449145,0,0
82.58791556859,-169.48984083216,39.718921892189,3742484.8235582,4629.223979009,2622782.6179388,44.918921892189,0,0
82.587915997381,-169.50737042219,39.723352335234,3742484.8235582,4629.223979009,2622782.6179388,44.923352335234,0,0
82.587916426172,-169.52490001222,39.727782778278,3742484.8235582,4629.223979009,2622782.6179388,44.927782778278,0,0
82.587916854963,-169.54242960225,39.732213221322,3742484.8235582,4629.223979009,2622782.6179388,44.932213221322,0,0
82.587917283754,-169.55995919228,39.736643664366,3742484.8235582,4629.223979009,2622782.6179388,44.936643664366,0,0
82.587917712545,-169.57748878231,39.741074107411,3742484.8235582,4629.223979009,2622782.6179388,44.941074107411,0,0
82.587918141336,-169.59501837234,39.745504550455,3742484.8235582,4629.223979009,2622782.6179388,44.945504550455,0,0
82.587918570127,-169.61254796237,39.749934993499,3742484.8235582,4629.223979009,2622782.6179388,44.949934993499,0,0
82.587918998918,-169.6300775524,39.754365436544,3742484.8235582,4629.223979009,2622782.6179388,44.954365436544,0,0
82.587919427709,-169.64760714243,39.758795879588,3742484.8235582,4629.223979009,2622782.6179388,44.958795879588,0,0
82.5879198565,-169.66513673246,39.763226322632,3742484.8235582,4629.223979009,2622782.6179388,44.963226322632,0,0
82.587920285291,-169.68266632249,39.767656765677,3742484.8235582,4629.223979009,2622782.6179388,44.967656765677,0,0
82.587920714082,-169.70019591252,39.772087208721,3742484.8235582,4629.223979009,2622782.6179388,44.972087208721,0,0
82.587921142873,-169.71772550255,39.776517651765,3742484.8235582,4629.223979009,2622782.6179388,44.976517651765,0,0
82.587921571665,-169.73525509258,39.780948094809,3742484.8235582,4629.223979009,2622782.6179388,44.980948094809,0,0
82.587922000456,-169.75278468261,39.785378537854,3742484.8235582,4629.223979009,2622782.6179388,44.985378537854,0,0
82.587922429247,-169.77031427264,39.789808980898,3742484.8235582,4629.223979009,2622782.6179388,44.989808980898,0,0
82.587922858038,-169.78784386267,39.794239423942,3742484.8235582,4629.223979009,2622782.6179388,44.994239423942,0,0
82.587923286829,-169.8053734527,39.798669866987,3742484.8235582,4629.223979009,2622782.6179388,44.998669866987,0,0
82.58792371562,-169.82290304273,39.803100310031,3742484.8235582,4629.223979009,2622782.6179388,45.003100310031,0,0
82.587924144411,-169.84043263276,39.807530753075,3742484.8235582,4629.223979009,2622782.6179388,45.007530753075,0,0
82.587924573202,-169.85796222279,39.81196119612,3742484.8235582,4629.223979009,2622782.6179388,45.01196119612,0,0
82.587925001993,-169.87549181282,39.816391639164,3742484.8235582,4629.223979009,2622782.6179388,45.016391639164,0,0
82.587925430784,-169.89302140285,39.820822082208,3742484.8235582,4629.223979009,2622782.6179388,45.020822082208,0,0
82.587925859575,-169.91055099288,39.825252525253,3742484.8235582,4629.223979009,2622782.6179388,45.025252525253,0,0
82.587926288366,-169.92808058291,39.829682968297,3742484.8235582,4629.223979009,2622782.6179388,45.029682968297,0,0
82.587926717157,-169.94561017294,39.834113411341,3742484.8235582,4629.223979009,2622782.6179388,45.034113411341,0,0
82.587927145948,-169.96313976297,39.838543854385,3742484.8235582,4629.223979009,2622782.6179388,45.038543854385,0,0
82.587927574739,-169.980669353,39.84297429743,3742484.8235582,4629.223979009,2622782.6179388,45.04297429743,0,0
82.58792800353,-169.99819894303,39.847404740474,3742484.8235582,4629.223979009,2622782.6179388,45.047404740474,0,0
82.587928432321,-170.01572853306,39.851835183518,3742484.8235582,4629.223979009,2622782.6179388,45.051835183518,0,0
82.587928861112,-170.03325812309,39.856265626563,3742484.8235582,4629.223979009,2622782.6179388,45.056265626563,0,0
82.587929289904,-170.05078771312,39.860696069607,3742484.8235582,4629.223979009,2622782.6179388,45.060696069607,0,0
82.587929718695,-170.06831730315,39.865126512651,3742484.8235582,4629.223979009,2622782.6179388,45.065126512651,0,0
82.587930147486,-170.08584689318,39.869556955696,3742484.8235582,4629.223979009,2622782.6179388,45.069556955696,0,0
82.587930576277,-170.10337648321,39.87398739874,3742484.8235582,4629.223979009,2622782.6179388,45.07398739874,0,0
82.587931005068,-170.12090607324,39.878417841784,3742484.8235582,4629.223979009,2622782.6179388,45.078417841784,0,0
82.587931433859,-170.13843566327,39.882848284828,3742484.8235582,4629.223979009,2622782.6179388,45.082848284828,0,0
82.58793186265,-170.1559652533,39.887278727873,3742484.8235582,4629.223979009,2622782.6179388,45.087278727873,0,0
82.587932291441,-170.17349484333,39.891709170917,3742484.8235582,4629.223979009,2622782.6179388,45.091709170917,0,0
82.587932720232,-170.19102443336,39.896139613961,3742484.8235582,4629.223979009,2622782.6179388,45.096139613961,0,0
82.587933149023,-170.20855402339,39.900570057006,3742484.8235582,4629.223979009,2622782.6179388,45.100570057006,0,0
82.587933577814,-170.22608361342,39.90500050005,3742484.8235582,4629.223979009,2622782.6179388,45.10500050005,0,0
82.587934006605,-170.24361320345,39.909430943094,3742484.8235582,4629.223979009,2622782.6179388,45.109430943094,0,0
82.587934435396,-170.26114279348,39.913861386139,3742484.8235582,4629.223979009,2622782.6179388,45.113861386139,0,0
82.587934864187,-170.27867238351,39.918291829183,3742484.8235582,4629.223979009,2622782.6179388,45.118291829183,0,0
82.587935292978,-170.29620197354,39.922722272227,3742484.8235582,4629.223979009,2622782.6179388,45.122722272227,0,0
82.587935721769,-170.31373156357,39.927152715272,3742484.8235582,4629.223979009,2622782.6179388,45.127152715272,0,0
82.58793615056,-170.3312611536,39.931583158316,3742484.8235582,4629.223979009,2622782.6179388,45.131583158316,0,0
82.587936579351,-170.34879074363,39.93601360136,3742484.8235582,4629.223979009,2622782.6179388,45.13601360136,0,0
82.587937008142,-170.36632033366,39.940444044404,3742484.8235582,4629.223979009,2622782.6179388,45.140444044404,0,0
82.587937436934,-170.38384992369,39.944874487449,3742484.8235582,4629.223979009,2622782.6179388,45.144874487449,0,0
82.587937865725,-170.40137951371,39.949304930493,3742484.8235582,4629.223979009,2622782.6179388,45.149304930493,0,0
82.587938294516,-170.41890910374,39.953735373537,3742484.8235582,4629.223979009,2622782.6179388,45.153735373537,0,0
82.587938723307,-170.43643869377,39.958165816582,3742484.8235582,4629.223979009,2622782.6179388,45.158165816582,0,0
82.587939152098,-170.4539682838,39.962596259626,3742484.8235582,4629.223979009,2622782.6179388,45.162596259626,0,0
82.587939580889,-170.47149787383,39.96702670267,3742484.8235582,4629.223979009,2622782.6179388,45.16702670267,0,0
82.58794000968,-170.48902746386,39.971457145715,3742484.8235582,4629.223979009,2622782.6179388,45.171457145715,0,0
82.587940438471,-170.50655705389,39.975887588759,3742484.8235582,4629.223979009,2622782.6179388,45.175887588759,0,0
82.587940867262,-170.52408664392,39.980318031803,3742484.8235582,4629.223979009,2622782.6179388,45.180318031803,0,0
82.587941296053,-170.54161623395,39.984748474847,3742484.8235582,4629.223979009,2622782.6179388,45.184748474847,0,0
82.587941724844,-170.55914582398,39.989178917892,3742484.8235582,4629.223979009,2622782.6179388,45.189178917892,0,0
82.587942153635,-170.57667541401,39.993609360936,3742484.8235582,4629.223979009,2622782.6179388,45.193609360936,0,0
82.587942582426,-170.59420500404,39.99803980398,3742484.8235582,4629.223979009,2622782.6179388,45.19803980398,0,0
82.587943011217,-170.61173459407,40.002470247025,3742484.8235582,4629.223979009,2622782.6179388,45.202470247025,0,0
82.587943440008,-170.6292641841,40.006900690069,3742484.8235582,4629.223979009,2622782.6179388,45.206900690069,0,0
82.587943868799,-170.64679377413,40.011331133113,3742484.8235582,4629.223979009,2622782.6179388,45.211331133113,0,0
82.58794429759,-170.66432336416,40.015761576158,3742484.8235582,4629.223979009,2622782.6179388,45.215761576158,0,0
82.587944726381,-170.68185295419,40.020192019202,3742484.8235582,4629.223979009,2622782.6179388,45.220192019202,0,0
82.587945155173,-170.69938254422,40.024622462246,3742484.8235582,4629.223979009,2622782.6179388,45.224622462246,0,0
82.587945583964,-170.71691213425,40.029052905291,3742484.8235582,4629.223979009,2622782.6179388,45.229052905291,0,0
82.587946012755,-170.73444172428,40.033483348335,3742484.8235582,4629.223979009,2622782.6179388,45.233483348335,0,0
82.587946441546,-170.75197131431,40.037913791379,3742484.8235582,4629.223979009,2622782.6179388,45.237913791379,0,0
82.587946870337,-170.76950090434,40.042344234423,3742484.8235582,4629.223979009,2622782.6179388,45.242344234423,0,0
82.587947299128,-170.78703049437,40.046774677468,3742484.8235582,4629.223979009,2622782.6179388,45.246774677468,0,0
82.587947727919,-170.8045600844,40.051205120512,3742484.8235582,4629.223979009,2622782.6179388,45.251205120512,0,0
82.58794815671,-170.82208967443,40.055635563556,3742484.8235582,4629.223979009,2622782.6179388,45.255635563556,0,0
82.587948585501,-170.83961926446,40.060066006601,3742484.8235582,4629.223979009,2622782.6179388,45.260066006601,0,0
82.587949014292,-170.85714885449,40.064496449645,3742484.8235582,4629.223979009,2622782.6179388,45.264496449645,0,0
82.587949443083,-170.87467844452,40.068926892689,3742484.8235582,4629.223979009,2622782.6179388,45.268926892689,0,0
82.587949871874,-170.89220803455,40.073357335734,3742484.8235582,4629.223979009,2622782.6179388,45.273357335734,0,0
82.587950300665,-170.90973762458,40.077787778778,3742484.8235582,4629.223979009,2622782.6179388,45.277787778778,0,0
82.587950729456,-170.92726721461,40.082218221822,3742484.8235582,4629.223979009,2622782.6179388,45.282218221822,0,0
82.587951158247,-170.94479680464,40.086648664866,3742484.8235582,4629.223979009,2622782.6179388,45.286648664866,0,0
82.587951587038,-170.96232639467,40.091079107911,3742484.8235582,4629.223979009,2622782.6179388,45.291079107911,0,0
82.587952015829,-170.9798559847,40.095509550955,3742484.8235582,4629.223979009,2622782.6179388,45.295509550955,0,0
82.58795244462,-170.99738557473,40.099939993999,3742484.8235582,4629.223979009,2622782.6179388,45.299939993999,0,0
82.587952873411,-171.01491516476,40.104370437044,3742484.8235582,4629.223979009,2622782.6179388,45.304370437044,0,0
82.587953302203,-171.03244475479,40.108800880088,3742484.8235582,4629.223979009,2622782.6179388,45.308800880088,0,0
82.587953730994,-171.04997434482,40.113231323132,3742484.8235582,4629.223979009,2622782.6179388,45.313231323132,0,0
82.587954159785,-171.06750393485,40.117661766177,3742484.8235582,4629.223979009,2622782.6179388,45.317661766177,0,0
82.587954588576,-171.08503352488,40.122092209221,3742484.8235582,4629.223979009,2622782.6179388,45.322092209221,0,0
82.587955017367,-171.10256311491,40.126522652265,3742484.8235582,4629.223979009,2622782.6179388,45.326522652265,0,0
82.587955446158,-171.12009270494,40.13095309531,3742484.8235582,4629.223979009,2622782.6179388,45.33095309531,0,0
82.587955874949,-171.13762229497,40.135383538354,3742484.8235582,4629.223979009,2622782.6179388,45.335383538354,0,0
82.58795630374,-171.155151885,40.139813981398,3742484.8235582,4629.223979009,2622782.6179388,45.339813981398,0,0
82.587956732531,-171.17268147503,40.144244424442,3742484.8235582,4629.223979009,2622782.6179388,45.344244424442,0,0
82.587957161322,-171.19021106506,40.148674867487,3742484.8235582,4629.223979009,2622782.6179388,45.348674867487,0,0
82.587957590113,-171.20774065509,40.153105310531,3742484.8235582,4629.223979009,2622782.6179388,45.353105310531,0,0
82.587958018904,-171.22527024512,40.157535753575,3742484.8235582,4629.223979009,2622782.6179388,45.357535753575,0,0
82.587958447695,-171.24279983515,40.16196619662,3742484.8235582,4629.223979009,2622782.6179388,45.36196619662,0,0
82.587958876486,-171.26032942518,40.166396639664,3742484.8235582,4629.223979009,2622782.6179388,45.366396639664,0,0
82.587959305277,-171.27785901521,40.170827082708,3742484.8235582,4629.223979009,2622782.6179388,45.370827082708,0,0
82.587959734068,-171.29538860524,40.175257525753,3742484.8235582,4629.223979009,2622782.6179388,45.375257525753,0,0
82.587960162859,-171.31291819527,40.179687968797,3742484.8235582,4629.223979009,2622782.6179388,45.379687968797,0,0
82.58796059165,-171.3304477853,40.184118411841,3742484.8235582,4629.223979009,2622782.6179388,45.384118411841,0,0
82.587961020441,-171.34797737533,40.188548854885,3742484.8235582,4629.223979009,2622782.6179388,45.388548854885,0,0
82.587961449233,-171.36550696536,40.19297929793,3742484.8235582,4629.223979009,2622782.6179388,45.39297929793,0,0
82.587961878024,-171.38303655539,40.197409740974,3742484.8235582,4629.223979009,2622782.6179388,45.397409740974,0,0
82.587962306815,-171.40056614542,40.201840184018,3742484.8235582,4629.223979009,2622782.6179388,45.401840184018,0,0
82.587962735606,-171.41809573545,40.206270627063,3742484.8235582,4629.223979009,2622782.6179388,45.406270627063,0,0
82.587963164397,-171.43562532548,40.210701070107,3742484.8235582,4629.223979009,2622782.6179388,45.410701070107,0,0
82.587963593188,-171.45315491551,40.215131513151,3742484.8235582,4629.223979009,2622782.6179388,45.415131513151,0,0
82.587964021979,-171.47068450554,40.219561956196,3742484.8235582,4629.223979009,2622782.6179388,45.419561956196,0,0
82.58796445077,-171.48821409557,40.22399239924,3742484.8235582,4629.223979009,2622782.6179388,45.42399239924,0,0
82.587964879561,-171.5057436856,40.228422842284,3742484.8235582,4629.223979009,2622782.6179388,45.428422842284,0,0
82.587965308352,-171.52327327563,40.232853285329,3742484.8235582,4629.223979009,2622782.6179388,45.432853285329,0,0
82.587965737143,-171.54080286566,40.237283728373,3742484.8235582,4629.223979009,2622782.6179388,45.437283728373,0,0
82.587966165934,-171.55833245569,40.241714171417,3742484.8235582,4629.223979009,2622782.6179388,45.441714171417,0,0
82.587966594725,-171.57586204572,40.246144614461,3742484.8235582,4629.223979009,2622782.6179388,45.446144614461,0,0
82.587967023516,-171.59339163575,40.250575057506,3742484.8235582,4629.223979009,2622782.6179388,45.450575057506,0,0
82.587967452307,-171.61092122578,40.25500550055,3742484.8235582,4629.223979009,2622782.6179388,45.45500550055,0,0
82.587967881098,-171.62845081581,40.259435943594,3742484.8235582,4629.223979009,2622782.6179388,45.459435943594,0,0
82.587968309889,-171.64598040584,40.263866386639,3742484.8235582,4629.223979009,2622782.6179388,45.463866386639,0,0
82.58796873868,-171.66350999587,40.268296829683,3742484.8235582,4629.223979009,2622782.6179388,45.468296829683,0,0
82.587969167472,-171.6810395859,40.272727272727,3742484.8235582,4629.223979009,2622782.6179388,45.472727272727,0,0
82.587969596263,-171.69856917593,40.277157715772,3742484.8235582,4629.223979009,2622782.6179388,45.477157715772,0,0
82.587970025054,-171.71609876596,40.281588158816,3742484.8235582,4629.223979009,2622782.6179388,45.481588158816,0,0
82.587970453845,-171.73362835599,40.28601860186,3742484.8235582,4629.223979009,2622782.6179388,45.48601860186,0,0
82.587970882636,-171.75115794602,40.290449044904,3742484.8235582,4629.223979009,2622782.6179388,45.490449044904,0,0
82.587971311427,-171.76868753605,40.294879487949,3742484.8235582,4629.223979009,2622782.6179388,45.494879487949,0,0
82.587971740218,-171.78621712608,40.299309930993,3742484.8235582,4629.223979009,2622782.6179388,45.499309930993,0,0
82.587972169009,-171.80374671611,40.303740374037,3742484.8235582,4629.223979009,2622782.6179388,45.503740374037,0,0
82.5879725978,-171.82127630614,40.308170817082,3742484.8235582,4629.223979009,2622782.6179388,45.508170817082,0,0
82.587973026591,-171.83880589617,40.312601260126,3742484.8235582,4629.223979009,2622782.6179388,45.512601260126,0,0
82.587973455382,-171.8563354862,40.31703170317,3742484.8235582,4629.223979009,2622782.6179388,45.51703170317,0,0
82.587973884173,-171.87386507623,40.321462146215,3742484.8235582,4629.223979009,2622782.6179388,45.521462146215,0,0
82.587974312964,-171.89139466626,40.325892589259,3742484.8235582,4629.223979009,2622782.6179388,45.525892589259,0,0
82.587974741755,-171.90892425629,40.330323032303,3742484.8235582,4629.223979009,2622782.6179388,45.530323032303,0,0
82.587975170546,-171.92645384632,40.334753475348,3742484.8235582,4629.223979009,2622782.6179388,45.534753475348,0,0
82.587975599337,-171.94398343635,40.339183918392,3742484.8235582,4629.223979009,2622782.6179388,45.539183918392,0,0
82.587976028128,-171.96151302638,40.343614361436,3742484.8235582,4629.223979009,2622782.6179388,45.543614361436,0,0
82.587976456919,-171.97904261641,40.34804480448,3742484.8235582,4629.223979009,2622782.6179388,45.54804480448,0,0
82.587976885711,-171.99657220643,40.352475247525,3742484.8235582,4629.223979009,2622782.6179388,45.552475247525,0,0
82.587977314502,-172.01410179646,40.356905690569,3742484.8235582,4629.223979009,2622782.6179388,45.556905690569,0,0
82.587977743293,-172.03163138649,40.361336133613,3742484.8235582,4629.223979009,2622782.6179388,45.561336133613,0,0
82.587978172084,-172.04916097652,40.365766576658,3742484.8235582,4629.223979009,2622782.6179388,45.565766576658,0,0
82.587978600875,-172.06669056655,40.370197019702,3742484.8235582,4629.223979009,2622782.6179388,45.570197019702,0,0
82.587979029666,-172.08422015658,40.374627462746,3742484.8235582,4629.223979009,2622782.6179388,45.574627462746,0,0
82.587979458457,-172.10174974661,40.379057905791,3742484.8235582,4629.223979009,2622782.6179388,45.579057905791,0,0
82.587979887248,-172.11927933664,40.383488348835,3742484.8235582,4629.223979009,2622782.6179388,45.583488348835,0,0
82.587980316039,-172.13680892667,40.387918791879,3742484.8235582,4629.223979009,2622782.6179388,45.587918791879,0,0
82.58798074483,-172.1543385167,40.392349234923,3742484.8235582,4629.223979009,2622782.6179388,45.592349234923,0,0
82.587981173621,-172.17186810673,40.396779677968,3742484.8235582,4629.223979009,2622782.6179388,45.596779677968,0,0
82.587981602412,-172.18939769676,40.401210121012,3742484.8235582,4629.223979009,2622782.6179388,45.601210121012,0,0
82.587982031203,-172.20692728679,40.405640564056,3742484.8235582,4629.223979009,2622782.6179388,45.605640564056,0,0
82.587982459994,-172.22445687682,40.410071007101,3742484.8235582,4629.223979009,2622782.6179388,45.610071007101,0,0
82.587982888785,-172.24198646685,40.414501450145,3742484.8235582,4629.223979009,2622782.6179388,45.614501450145,0,0
82.587983317576,-172.25951605688,40.418931893189,3742484.8235582,4629.223979009,2622782.6179388,45.618931893189,0,0
82.587983746367,-172.27704564691,40.423362336234,3742484.8235582,4629.223979009,2622782.6179388,45.623362336234,0,0
82.587984175158,-172.29457523694,40.427792779278,3742484.8235582,4629.223979009,2622782.6179388,45.627792779278,0,0
82.587984603949,-172.31210482697,40.432223222322,3742484.8235582,4629.223979009,2622782.6179388,45.632223222322,0,0
82.587985032741,-172.329634417,40.436653665367,3742484.8235582,4629.223979009,2622782.6179388,45.636653665367,0,0
82.587985461532,-172.34716400703,40.441084108411,3742484.8235582,4629.223979009,2622782.6179388,45.641084108411,0,0
82.587985890323,-172.36469359706,40.445514551455,3742484.8235582,4629.223979009,2622782.6179388,45.645514551455,0,0
82.587986319114,-172.38222318709,40.449944994499,3742484.8235582,4629.223979009,2622782.6179388,45.649944994499,0,0
82.587986747905,-172.39975277712,40.454375437544,3742484.8235582,4629.223979009,2622782.6179388,45.654375437544,0,0
82.587987176696,-172.41728236715,40.458805880588,3742484.8235582,4629.223979009,2622782.6179388,45.658805880588,0,0
82.587987605487,-172.43481195718,40.463236323632,3742484.8235582,4629.223979009,2622782.6179388,45.663236323632,0,0
82.587988034278,-172.45234154721,40.467666766677,3742484.8235582,4629.223979009,2622782.6179388,45.667666766677,0,0
82.587988463069,-172.46987113724,40.472097209721,3742484.8235582,4629.223979009,2622782.6179388,45.672097209721,0,0
82.58798889186,-172.48740072727,40.476527652765,3742484.8235582,4629.223979009,2622782.6179388,45.676527652765,0,0
82.587989320651,-172.5049303173,40.48095809581,3742484.8235582,4629.223979009,2622782.6179388,45.68095809581,0,0
82.587989749442,-172.52245990733,40.485388538854,3742484.8235582,4629.223979009,2622782.6179388,45.685388538854,0,0
82.587990178233,-172.53998949736,40.489818981898,3742484.8235582,4629.223979009,2622782.6179388,45.689818981898,0,0
82.587990607024,-172.55751908739,40.494249424942,3742484.8235582,4629.223979009,2622782.6179388,45.694249424942,0,0
82.587991035815,-172.57504867742,40.498679867987,3742484.8235582,4629.223979009,2622782.6179388,45.698679867987,0,0
82.587991464606,-172.59257826745,40.503110311031,3742484.8235582,4629.223979009,2622782.6179388,45.703110311031,0,0
82.587991893397,-172.61010785748,40.507540754075,3742484.8235582,4629.223979009,2622782.6179388,45.707540754075,0,0
82.587992322188,-172.62763744751,40.51197119712,3742484.8235582,4629.223979009,2622782.6179388,45.71197119712,0,0
82.587992750979,-172.64516703754,40.516401640164,3742484.8235582,4629.223979009,2622782.6179388,45.716401640164,0,0
82.587993179771,-172.66269662757,40.520832083208,3742484.8235582,4629.223979009,2622782.6179388,45.720832083208,0,0
82.587993608562,-172.6802262176,40.525262526253,3742484.8235582,4629.223979009,2622782.6179388,45.725262526253,0,0
82.587994037353,-172.69775580763,40.529692969297,3742484.8235582,4629.223979009,2622782.6179388,45.729692969297,0,0
82.587994466144,-172.71528539766,40.534123412341,3742484.8235582,4629.223979009,2622782.6179388,45.734123412341,0,0
82.587994894935,-172.73281498769,40.538553855386,3742484.8235582,4629.223979009,2622782.6179388,45.738553855386,0,0
82.587995323726,-172.75034457772,40.54298429843,3742484.8235582,4629.223979009,2622782.6179388,45.74298429843,0,0
82.587995752517,-172.76787416775,40.547414741474,3742484.8235582,4629.223979009,2622782.6179388,45.747414741474,0,0
82.587996181308,-172.78540375778,40.551845184518,3742484.8235582,4629.223979009,2622782.6179388,45.751845184518,0,0
82.587996610099,-172.80293334781,40.556275627563,3742484.8235582,4629.223979009,2622782.6179388,45.756275627563,0,0
82.58799703889,-172.82046293784,40.560706070607,3742484.8235582,4629.223979009,2622782.6179388,45.760706070607,0,0
82.587997467681,-172.83799252787,40.565136513651,3742484.8235582,4629.223979009,2622782.6179388,45.765136513651,0,0
82.587997896472,-172.8555221179,40.569566956696,3742484.8235582,4629.223979009,2622782.6179388,45.769566956696,0,0
82.587998325263,-172.87305170793,40.57399739974,3742484.8235582,4629.223979009,2622782.6179388,45.77399739974,0,0
82.587998754054,-172.89058129796,40.578427842784,3742484.8235582,4629.223979009,2622782.6179388,45.778427842784,0,0
82.587999182845,-172.90811088799,40.582858285829,3742484.8235582,4629.223979009,2622782.6179388,45.782858285829,0,0
82.587999611636,-172.92564047802,40.587288728873,3742484.8235582,4629.223979009,2622782.6179388,45.787288728873,0,0
82.588000040427,-172.94317006805,40.591719171917,3742484.8235582,4629.223979009,2622782.6179388,45.791719171917,0,0
82.588000469218,-172.96069965808,40.596149614961,3742484.8235582,4629.223979009,2622782.6179388,45.796149614961,0,0
82.58800089801,-172.97822924811,40.600580058006,3742484.8235582,4629.223979009,2622782.6179388,45.800580058006,0,0
82.588001326801,-172.99575883814,40.60501050105,3742484.8235582,4629.223979009,2622782.6179388,45.80501050105,0,0
82.588001755592,-173.01328842817,40.609440944094,3742484.8235582,4629.223979009,2622782.6179388,45.809440944094,0,0
82.588002184383,-173.0308180182,40.613871387139,3742484.8235582,4629.223979009,2622782.6179388,45.813871387139,0,0
82.588002613174,-173.04834760823,40.618301830183,3742484.8235582,4629.223979009,2622782.6179388,45.818301830183,0,0
82.588003041965,-173.06587719826,40.622732273227,3742484.8235582,4629.223979009,2622782.6179388,45.822732273227,0,0
82.588003470756,-173.08340678829,40.627162716272,3742484.8235582,4629.223979009,2622782.6179388,45.827162716272,0,0
82.588003899547,-173.10093637832,40.631593159316,3742484.8235582,4629.223979009,2622782.6179388,45.831593159316,0,0
82.588004328338,-173.11846596835,40.63602360236,3742484.8235582,4629.223979009,2622782.6179388,45.83602360236,0,0
82.588004757129,-173.13599555838,40.640454045405,3742484.8235582,4629.223979009,2622782.6179388,45.840454045405,0,0
82.58800518592,-173.15352514841,40.644884488449,3742484.8235582,4629.223979009,2622782.6179388,45.844884488449,0,0
82.588005614711,-173.17105473844,40.649314931493,3742484.8235582,4629.223979009,2622782.6179388,45.849314931493,0,0
82.588006043502,-173.18858432847,40.653745374537,3742484.8235582,4629.223979009,2622782.6179388,45.853745374537,0,0
82.588006472293,-173.2061139185,40.658175817582,3742484.8235582,4629.223979009,2622782.6179388,45.858175817582,0,0
82.588006901084,-173.22364350853,40.662606260626,3742484.8235582,4629.223979009,2622782.6179388,45.862606260626,0,0
82.588007329875,-173.24117309856,40.66703670367,3742484.8235582,4629.223979009,2622782.6179388,45.86703670367,0,0
82.588007758666,-173.25870268859,40.671467146715,3742484.8235582,4629.223979009,2622782.6179388,45.871467146715,0,0
82.588008187457,-173.27623227862,40.675897589759,3742484.8235582,4629.223979009,2622782.6179388,45.875897589759,0,0
82.588008616249,-173.29376186865,40.680328032803,3742484.8235582,4629.223979009,2622782.6179388,45.880328032803,0,0
82.58800904504,-173.31129145868,40.684758475848,3742484.8235582,4629.223979009,2622782.6179388,45.884758475848,0,0
82.588009473831,-173.32882104871,40.689188918892,3742484.8235582,4629.223979009,2622782.6179388,45.889188918892,0,0
82.588009902622,-173.34635063874,40.693619361936,3742484.8235582,4629.223979009,2622782.6179388,45.893619361936,0,0
82.588010331413,-173.36388022877,40.69804980498,3742484.8235582,4629.223979009,2622782.6179388,45.89804980498,0,0
82.588010760204,-173.3814098188,40.702480248025,3742484.8235582,4629.223979009,2622782.6179388,45.902480248025,0,0
82.588011188995,-173.39893940883,40.706910691069,3742484.8235582,4629.223979009,2622782.6179388,45.906910691069,0,0
82.588011617786,-173.41646899886,40.711341134113,3742484.8235582,4629.223979009,2622782.6179388,45.911341134113,0,0
82.588012046577,-173.43399858889,40.715771577158,3742484.8235582,4629.223979009,2622782.6179388,45.915771577158,0,0
82.588012475368,-173.45152817892,40.720202020202,3742484.8235582,4629.223979009,2622782.6179388,45.920202020202,0,0
82.588012904159,-173.46905776895,40.724632463246,3742484.8235582,4629.223979009,2622782.6179388,45.924632463246,0,0
82.58801333295,-173.48658735898,40.729062906291,3742484.8235582,4629.223979009,2622782.6179388,45.929062906291,0,0
82.588013761741,-173.50411694901,40.733493349335,3742484.8235582,4629.223979009,2622782.6179388,45.933493349335,0,0
82.588014190532,-173.52164653904,40.737923792379,3742484.8235582,4629.223979009,2622782.6179388,45.937923792379,0,0
82.588014619323,-173.53917612907,40.742354235424,3742484.8235582,4629.223979009,2622782.6179388,45.942354235424,0,0
82.588015048114,-173.5567057191,40.746784678468,3742484.8235582,4629.223979009,2622782.6179388,45.946784678468,0,0
82.588015476905,-173.57423530913,40.751215121512,3742484.8235582,4629.223979009,2622782.6179388,45.951215121512,0,0
82.588015905696,-173.59176489916,40.755645564556,3742484.8235582,4629.223979009,2622782.6179388,45.955645564556,0,0
82.588016334487,-173.60929448919,40.760076007601,3742484.8235582,4629.223979009,2622782.6179388,45.960076007601,0,0
82.588016763279,-173.62682407921,40.764506450645,3742484.8235582,4629.223979009,2622782.6179388,45.964506450645,0,0
82.58801719207,-173.64435366924,40.768936893689,3742484.8235582,4629.223979009,2622782.6179388,45.968936893689,0,0
82.588017620861,-173.66188325927,40.773367336734,3742484.8235582,4629.223979009,2622782.6179388,45.973367336734,0,0
82.588018049652,-173.6794128493,40.777797779778,3742484.8235582,4629.223979009,2622782.6179388,45.977797779778,0,0
82.588018478443,-173.69694243933,40.782228222822,3742484.8235582,4629.223979009,2622782.6179388,45.982228222822,0,0
82.588018907234,-173.71447202936,40.786658665867,3742484.8235582,4629.223979009,2622782.6179388,45.986658665867,0,0
82.588019336025,-173.73200161939,40.791089108911,3742484.8235582,4629.223979009,2622782.6179388,45.991089108911,0,0
82.588019764816,-173.74953120942,40.795519551955,3742484.8235582,4629.223979009,2622782.6179388,45.995519551955,0,0
82.588020193607,-173.76706079945,40.799949994999,3742484.8235582,4629.223979009,2622782.6179388,45.999949994999,0,0
82.588020622398,-173.78459038948,40.804380438044,3742484.8235582,4629.223979009,2622782.6179388,46.004380438044,0,0
82.588021051189,-173.80211997951,40.808810881088,3742484.8235582,4629.223979009,2622782.6179388,46.008810881088,0,0
82.58802147998,-173.81964956954,40.813241324132,3742484.8235582,4629.223979009,2622782.6179388,46.013241324132,0,0
82.588021908771,-173.83717915957,40.817671767177,3742484.8235582,4629.223979009,2622782.6179388,46.017671767177,0,0
82.588022337562,-173.8547087496,40.822102210221,3742484.8235582,4629.223979009,2622782.6179388,46.022102210221,0,0
82.588022766353,-173.87223833963,40.826532653265,3742484.8235582,4629.223979009,2622782.6179388,46.026532653265,0,0
82.588023195144,-173.88976792966,40.83096309631,3742484.8235582,4629.223979009,2622782.6179388,46.03096309631,0,0
82.588023623935,-173.90729751969,40.835393539354,3742484.8235582,4629.223979009,2622782.6179388,46.035393539354,0,0
82.588024052726,-173.92482710972,40.839823982398,3742484.8235582,4629.223979009,2622782.6179388,46.039823982398,0,0
82.588024481518,-173.94235669975,40.844254425443,3742484.8235582,4629.223979009,2622782.6179388,46.044254425443,0,0
82.588024910309,-173.95988628978,40.848684868487,3742484.8235582,4629.223979009,2622782.6179388,46.048684868487,0,0
82.5880253391,-173.97741587981,40.853115311531,3742484.8235582,4629.223979009,2622782.6179388,46.053115311531,0,0
82.588025767891,-173.99494546984,40.857545754575,3742484.8235582,4629.223979009,2622782.6179388,46.057545754575,0,0
82.588026196682,-174.01247505987,40.86197619762,3742484.8235582,4629.223979009,2622782.6179388,46.06197619762,0,0
82.588026625473,-174.0300046499,40.866406640664,3742484.8235582,4629.223979009,2622782.6179388,46.066406640664,0,0
82.588027054264,-174.04753423993,40.870837083708,3742484.8235582,4629.223979009,2622782.6179388,46.070837083708,0,0
82.588027483055,-174.06506382996,40.875267526753,3742484.8235582,4629.223979009,2622782.6179388,46.075267526753,0,0
82.588027911846,-174.08259341999,40.879697969797,3742484.8235582,4629.223979009,2622782.6179388,46.079697969797,0,0
82.588028340637,-174.10012301002,40.884128412841,3742484.8235582,4629.223979009,2622782.6179388,46.084128412841,0,0
82.588028769428,-174.11765260005,40.888558855886,3742484.8235582,4629.223979009,2622782.6179388,46.088558855886,0,0
82.588029198435,-174.13518219045,40.89298929893,3750321.9956301,156.23686977044,2628702.1724721,46.09298929893,0,0
82.588029627694,-174.15271178128,40.897419741974,3750321.9956301,156.23686977044,2628702.1724721,46.097419741974,0,0
82.588030056954,-174.1702413721,40.901850185018,3750321.9956301,156.23686977044,2628702.1724721,46.101850185018,0,0
82.588030486213,-174.18777096293,40.906280628063,3750321.9956301,156.23686977044,2628702.1724721,46.106280628063,0,0
82.588030915473,-174.20530055376,40.910711071107,3750321.9956301,156.23686977044,2628702.1724721,46.110711071107,0,0
82.588031344732,-174.22283014459,40.915141514151,3750321.9956301,156.23686977044,2628702.1724721,46.115141514151,0,0
82.588031773991,-174.24035973541,40.919571957196,3750321.9956301,156.23686977044,2628702.1724721,46.119571957196,0,0
82.588032203251,-174.25788932624,40.92400240024,3750321.9956301,156.23686977044,2628702.1724721,46.12400240024,0,0
82.58803263251,-174.27541891707,40.928432843284,3750321.9956301,156.23686977044,2628702.1724721,46.128432843284,0,0
82.58803306177,-174.2929485079,40.932863286329,3750321.9956301,156.23686977044,2628702.1724721,46.132863286329,0,0
82.588033491029,-174.31047809872,40.937293729373,3750321.9956301,156.23686977044,2628702.1724721,46.137293729373,0,0
82.588033920289,-174.32800768955,40.941724172417,3750321.9956301,156.23686977044,2628702.1724721,46.141724172417,0,0
82.588034349548,-174.34553728038,40.946154615462,3750321.9956301,156.23686977044,2628702.1724721,46.146154615462,0,0
82.588034778807,-174.36306687121,40.950585058506,3750321.9956301,156.23686977044,2628702.1724721,46.150585058506,0,0
82.588035208067,-174.38059646203,40.95501550155,3750321.9956301,156.23686977044,2628702.1724721,46.15501550155,0,0
82.588035637326,-174.39812605286,40.959445944594,3750321.9956301,156.23686977044,2628702.1724721,46.159445944594,0,0
82.588036066586,-174.41565564369,40.963876387639,3750321.9956301,156.23686977044,2628702.1724721,46.163876387639,0,0
82.588036495845,-174.43318523452,40.968306830683,3750321.9956301,156.23686977044,2628702.1724721,46.168306830683,0,0
82.588036925105,-174.45071482534,40.972737273727,3750321.9956301,156.23686977044,2628702.1724721,46.172737273727,0,0
82.588037353729,-174.46824441561,40.977167716772,3742574.6786789,-884.93597132817,2636747.4066342,46.177167716772,0,0
82.588037782155,-174.4857740057,40.981598159816,3742574.6786789,-884.93597132817,2636747.4066342,46.181598159816,0,0
82.588038210582,-174.50330359579,40.98602860286,3742574.6786789,-884.93597132817,2636747.4066342,46.18602860286,0,0
82.588038639008,-174.52083318588,40.990459045905,3742574.6786789,-884.93597132817,2636747.4066342,46.190459045905,0,0
82.588039067435,-174.53836277597,40.994889488949,3742574.6786789,-884.93597132817,2636747.4066342,46.194889488949,0,0
82.588039495861,-174.55589236606,40.999319931993,3742574.6786789,-884.93597132817,2636747.4066342,46.199319931993,0,0
82.588039924287,-174.57342195615,41.003750375037,3742574.6786789,-884.93597132817,2636747.4066342,46.203750375038,0,0
82.588040352714,-174.59095154624,41.008180818082,3742574.6786789,-884.93597132817,2636747.4066342,46.208180818082,0,0
82.58804078114,-174.60848113633,41.012611261126,3742574.6786789,-884.93597132817,2636747.4066342,46.212611261126,0,0
82.588041209567,-174.62601072642,41.01704170417,3742574.6786789,-884.93597132817,2636747.4066342,46.21704170417,0,0
82.588041637993,-174.64354031651,41.021472147215,3742574.6786789,-884.93597132817,2636747.4066342,46.221472147215,0,0
82.58804206642,-174.6610699066,41.025902590259,3742574.6786789,-884.93597132817,2636747.4066342,46.225902590259,0,0
82.588042494846,-174.67859949669,41.030333033303,3742574.6786789,-884.93597132817,2636747.4066342,46.230333033303,0,0
82.588042923272,-174.69612908678,41.034763476348,3742574.6786789,-884.93597132817,2636747.4066342,46.234763476348,0,0
82.588043351699,-174.71365867687,41.039193919392,3742574.6786789,-884.93597132817,2636747.4066342,46.239193919392,0,0
82.588043780125,-174.73118826696,41.043624362436,3742574.6786789,-884.93597132817,2636747.4066342,46.243624362436,0,0
82.588044208552,-174.74871785705,41.048054805481,3742574.6786789,-884.93597132817,2636747.4066342,46.248054805481,0,0
82.588044636978,-174.76624744714,41.052485248525,3742574.6786789,-884.93597132817,2636747.4066342,46.252485248525,0,0
82.588045065404,-174.78377703723,41.056915691569,3742574.6786789,-884.93597132817,2636747.4066342,46.256915691569,0,0
82.588045493831,-174.80130662732,41.061346134613,3742574.6786789,-884.93597132817,2636747.4066342,46.261346134613,0,0
82.588045922257,-174.81883621741,41.065776577658,3742574.6786789,-884.93597132817,2636747.4066342,46.265776577658,0,0
82.588046350684,-174.8363658075,41.070207020702,3742574.6786789,-884.93597132817,2636747.4066342,46.270207020702,0,0
82.58804677911,-174.85389539759,41.074637463746,3742574.6786789,-884.93597132817,2636747.4066342,46.274637463746,0,0
82.588047207537,-174.87142498768,41.079067906791,3742574.6786789,-884.93597132817,2636747.4066342,46.279067906791,0,0
82.588047635963,-174.88895457777,41.083498349835,3742574.6786789,-884.93597132817,2636747.4066342,46.283498349835,0,0
82.588048064389,-174.90648416786,41.087928792879,3742574.6786789,-884.93597132817,2636747.4066342,46.287928792879,0,0
82.588048492816,-174.92401375796,41.092359235924,3742574.6786789,-884.93597132817,2636747.4066342,46.292359235924,0,0
82.588048921242,-174.94154334805,41.096789678968,3742574.6786789,-884.93597132817,2636747.4066342,46.296789678968,0,0
82.588049349669,-174.95907293814,41.101220122012,3742574.6786789,-884.93597132817,2636747.4066342,46.301220122012,0,0
82.588049778095,-174.97660252823,41.105650565057,3742574.6786789,-884.93597132817,2636747.4066342,46.305650565057,0,0
82.588050206521,-174.99413211832,41.110081008101,3742574.6786789,-884.93597132817,2636747.4066342,46.310081008101,0,0
82.588050634948,-175.01166170841,41.114511451145,3742574.6786789,-884.93597132817,2636747.4066342,46.314511451145,0,0
82.588051063374,-175.0291912985,41.118941894189,3742574.6786789,-884.93597132817,2636747.4066342,46.318941894189,0,0
82.588051491801,-175.04672088859,41.123372337234,3742574.6786789,-884.93597132817,2636747.4066342,46.323372337234,0,0
82.588051920227,-175.06425047868,41.127802780278,3742574.6786789,-884.93597132817,2636747.4066342,46.327802780278,0,0
82.588052348654,-175.08178006877,41.132233223322,3742574.6786789,-884.93597132817,2636747.4066342,46.332233223322,0,0
82.58805277708,-175.09930965886,41.136663666367,3742574.6786789,-884.93597132817,2636747.4066342,46.336663666367,0,0
82.588053205506,-175.11683924895,41.141094109411,3742574.6786789,-884.93597132817,2636747.4066342,46.341094109411,0,0
82.588053633933,-175.13436883904,41.145524552455,3742574.6786789,-884.93597132817,2636747.4066342,46.345524552455,0,0
82.588054062359,-175.15189842913,41.1499549955,3742574.6786789,-884.93597132817,2636747.4066342,46.3499549955,0,0
82.588054490786,-175.16942801922,41.154385438544,3742574.6786789,-884.93597132817,2636747.4066342,46.354385438544,0,0
82.588054919212,-175.18695760931,41.158815881588,3742574.6786789,-884.93597132817,2636747.4066342,46.358815881588,0,0
82.588055347638,-175.2044871994,41.163246324632,3742574.6786789,-884.93597132817,2636747.4066342,46.363246324632,0,0
82.588055776065,-175.22201678949,41.167676767677,3742574.6786789,-884.93597132817,2636747.4066342,46.367676767677,0,0
82.588056204491,-175.23954637958,41.172107210721,3742574.6786789,-884.93597132817,2636747.4066342,46.372107210721,0,0
82.588056632918,-175.25707596967,41.176537653765,3742574.6786789,-884.93597132817,2636747.4066342,46.376537653765,0,0
82.588057061344,-175.27460555976,41.18096809681,3742574.6786789,-884.93597132817,2636747.4066342,46.38096809681,0,0
82.588057489771,-175.29213514985,41.185398539854,3742574.6786789,-884.93597132817,2636747.4066342,46.385398539854,0,0
82.588057918197,-175.30966473994,41.189828982898,3742574.6786789,-884.93597132817,2636747.4066342,46.389828982898,0,0
82.588058346623,-175.32719433003,41.194259425943,3742574.6786789,-884.93597132817,2636747.4066342,46.394259425943,0,0
82.58805877505,-175.34472392012,41.198689868987,3742574.6786789,-884.93597132817,2636747.4066342,46.398689868987,0,0
82.588059203476,-175.36225351021,41.203120312031,3742574.6786789,-884.93597132817,2636747.4066342,46.403120312031,0,0
82.588059631903,-175.3797831003,41.207550755076,3742574.6786789,-884.93597132817,2636747.4066342,46.407550755076,0,0
82.588060060329,-175.39731269039,41.21198119812,3742574.6786789,-884.93597132817,2636747.4066342,46.41198119812,0,0
82.588060488755,-175.41484228048,41.216411641164,3742574.6786789,-884.93597132817,2636747.4066342,46.416411641164,0,0
82.588060917182,-175.43237187057,41.220842084208,3742574.6786789,-884.93597132817,2636747.4066342,46.420842084208,0,0
82.588061345608,-175.44990146066,41.225272527253,3742574.6786789,-884.93597132817,2636747.4066342,46.425272527253,0,0
82.588061774035,-175.46743105075,41.229702970297,3742574.6786789,-884.93597132817,2636747.4066342,46.429702970297,0,0
82.588062202461,-175.48496064084,41.234133413341,3742574.6786789,-884.93597132817,2636747.4066342,46.434133413341,0,0
82.588062630887,-175.50249023093,41.238563856386,3742574.6786789,-884.93597132817,2636747.4066342,46.438563856386,0,0
82.588063059314,-175.52001982102,41.24299429943,3742574.6786789,-884.93597132817,2636747.4066342,46.44299429943,0,0
82.58806348774,-175.53754941111,41.247424742474,3742574.6786789,-884.93597132817,2636747.4066342,46.447424742474,0,0
82.588063916167,-175.5550790012,41.251855185519,3742574.6786789,-884.93597132817,2636747.4066342,46.451855185519,0,0
82.588064344593,-175.57260859129,41.256285628563,3742574.6786789,-884.93597132817,2636747.4066342,46.456285628563,0,0
82.58806477302,-175.59013818138,41.260716071607,3742574.6786789,-884.93597132817,2636747.4066342,46.460716071607,0,0
82.588065201446,-175.60766777147,41.265146514651,3742574.6786789,-884.93597132817,2636747.4066342,46.465146514651,0,0
82.588065629872,-175.62519736156,41.269576957696,3742574.6786789,-884.93597132817,2636747.4066342,46.469576957696,0,0
82.588066058299,-175.64272695165,41.27400740074,3742574.6786789,-884.93597132817,2636747.4066342,46.47400740074,0,0
82.588066486725,-175.66025654174,41.278437843784,3742574.6786789,-884.93597132817,2636747.4066342,46.478437843784,0,0
82.588066915152,-175.67778613183,41.282868286829,3742574.6786789,-884.93597132817,2636747.4066342,46.482868286829,0,0
82.588067343578,-175.69531572192,41.287298729873,3742574.6786789,-884.93597132817,2636747.4066342,46.487298729873,0,0
82.588067772004,-175.71284531201,41.291729172917,3742574.6786789,-884.93597132817,2636747.4066342,46.491729172917,0,0
82.588068200431,-175.7303749021,41.296159615962,3742574.6786789,-884.93597132817,2636747.4066342,46.496159615962,0,0
82.588068628857,-175.74790449219,41.300590059006,3742574.6786789,-884.93597132817,2636747.4066342,46.500590059006,0,0
82.588069057284,-175.76543408228,41.30502050205,3742574.6786789,-884.93597132817,2636747.4066342,46.50502050205,0,0
82.58806948571,-175.78296367238,41.309450945095,3742574.6786789,-884.93597132817,2636747.4066342,46.509450945095,0,0
82.588069914137,-175.80049326247,41.313881388139,3742574.6786789,-884.93597132817,2636747.4066342,46.513881388139,0,0
82.588070342563,-175.81802285256,41.318311831183,3742574.6786789,-884.93597132817,2636747.4066342,46.518311831183,0,0
82.588070770989,-175.83555244265,41.322742274227,3742574.6786789,-884.93597132817,2636747.4066342,46.522742274227,0,0
82.588071199416,-175.85308203274,41.327172717272,3742574.6786789,-884.93597132817,2636747.4066342,46.527172717272,0,0
82.588071627842,-175.87061162283,41.331603160316,3742574.6786789,-884.93597132817,2636747.4066342,46.531603160316,0,0
82.588072056269,-175.88814121292,41.33603360336,3742574.6786789,-884.93597132817,2636747.4066342,46.53603360336,0,0
82.588072484695,-175.90567080301,41.340464046405,3742574.6786789,-884.93597132817,2636747.4066342,46.540464046405,0,0
82.588072913121,-175.9232003931,41.344894489449,3742574.6786789,-884.93597132817,2636747.4066342,46.544894489449,0,0
82.588073341548,-175.94072998319,41.349324932493,3742574.6786789,-884.93597132817,2636747.4066342,46.549324932493,0,0
82.588073769974,-175.95825957328,41.353755375538,3742574.6786789,-884.93597132817,2636747.4066342,46.553755375538,0,0
82.588074198401,-175.97578916337,41.358185818582,3742574.6786789,-884.93597132817,2636747.4066342,46.558185818582,0,0
82.588074626827,-175.99331875346,41.362616261626,3742574.6786789,-884.93597132817,2636747.4066342,46.562616261626,0,0
82.588075055254,-176.01084834355,41.36704670467,3742574.6786789,-884.93597132817,2636747.4066342,46.56704670467,0,0
82.58807548368,-176.02837793364,41.371477147715,3742574.6786789,-884.93597132817,2636747.4066342,46.571477147715,0,0
82.588075912106,-176.04590752373,41.375907590759,3742574.6786789,-884.93597132817,2636747.4066342,46.575907590759,0,0
82.588076340533,-176.06343711382,41.380338033803,3742574.6786789,-884.93597132817,2636747.4066342,46.580338033803,0,0
82.588076768959,-176.08096670391,41.384768476848,3742574.6786789,-884.93597132817,2636747.4066342,46.584768476848,0,0
82.588077197386,-176.098496294,41.389198919892,3742574.6786789,-884.93597132817,2636747.4066342,46.589198919892,0,0
82.588077625812,-176.11602588409,41.393629362936,3742574.6786789,-884.93597132817,2636747.4066342,46.593629362936,0,0
82.588078054238,-176.13355547418,41.398059805981,3742574.6786789,-884.93597132817,2636747.4066342,46.598059805981,0,0
82.588078482665,-176.15108506427,41.402490249025,3742574.6786789,-884.93597132817,2636747.4066342,46.602490249025,0,0
82.588078911091,-176.16861465436,41.406920692069,3742574.6786789,-884.93597132817,2636747.4066342,46.606920692069,0,0
82.588079339518,-176.18614424445,41.411351135114,3742574.6786789,-884.93597132817,2636747.4066342,46.611351135114,0,0
82.588079767944,-176.20367383454,41.415781578158,3742574.6786789,-884.93597132817,2636747.4066342,46.615781578158,0,0
82.58808019637,-176.22120342463,41.420212021202,3742574.6786789,-884.93597132817,2636747.4066342,46.620212021202,0,0
82.588080624797,-176.23873301472,41.424642464246,3742574.6786789,-884.93597132817,2636747.4066342,46.624642464246,0,0
82.588081053223,-176.25626260481,41.429072907291,3742574.6786789,-884.93597132817,2636747.4066342,46.629072907291,0,0
82.58808148165,-176.2737921949,41.433503350335,3742574.6786789,-884.93597132817,2636747.4066342,46.633503350335,0,0
82.588081910076,-176.29132178499,41.437933793379,3742574.6786789,-884.93597132817,2636747.4066342,46.637933793379,0,0
82.588082338503,-176.30885137508,41.442364236424,3742574.6786789,-884.93597132817,2636747.4066342,46.642364236424,0,0
82.588082766929,-176.32638096517,41.446794679468,3742574.6786789,-884.93597132817,2636747.4066342,46.646794679468,0,0
82.588083195355,-176.34391055526,41.451225122512,3742574.6786789,-884.93597132817,2636747.4066342,46.651225122512,0,0
82.588083623782,-176.36144014535,41.455655565557,3742574.6786789,-884.93597132817,2636747.4066342,46.655655565557,0,0
82.588084052208,-176.37896973544,41.460086008601,3742574.6786789,-884.93597132817,2636747.4066342,46.660086008601,0,0
82.588084480635,-176.39649932553,41.464516451645,3742574.6786789,-884.93597132817,2636747.4066342,46.664516451645,0,0
82.588084909061,-176.41402891562,41.468946894689,3742574.6786789,-884.93597132817,2636747.4066342,46.668946894689,0,0
82.588085337487,-176.43155850571,41.473377337734,3742574.6786789,-884.93597132817,2636747.4066342,46.673377337734,0,0
82.588085765914,-176.4490880958,41.477807780778,3742574.6786789,-884.93597132817,2636747.4066342,46.677807780778,0,0
82.58808619434,-176.46661768589,41.482238223822,3742574.6786789,-884.93597132817,2636747.4066342,46.682238223822,0,0
82.588086622767,-176.48414727598,41.486668666867,3742574.6786789,-884.93597132817,2636747.4066342,46.686668666867,0,0
82.588087051193,-176.50167686607,41.491099109911,3742574.6786789,-884.93597132817,2636747.4066342,46.691099109911,0,0
82.58808747962,-176.51920645616,41.495529552955,3742574.6786789,-884.93597132817,2636747.4066342,46.695529552955,0,0
82.588087908046,-176.53673604625,41.499959996,3742574.6786789,-884.93597132817,2636747.4066342,46.699959996,0,0
82.588088336472,-176.55426563634,41.504390439044,3742574.6786789,-884.93597132817,2636747.4066342,46.704390439044,0,0
82.588088764899,-176.57179522643,41.508820882088,3742574.6786789,-884.93597132817,2636747.4066342,46.708820882088,0,0
82.588089193325,-176.58932481652,41.513251325133,3742574.6786789,-884.93597132817,2636747.4066342,46.713251325133,0,0
82.588089621752,-176.60685440661,41.517681768177,3742574.6786789,-884.93597132817,2636747.4066342,46.717681768177,0,0
82.588090050178,-176.62438399671,41.522112211221,3742574.6786789,-884.93597132817,2636747.4066342,46.722112211221,0,0
82.588090478604,-176.6419135868,41.526542654265,3742574.6786789,-884.93597132817,2636747.4066342,46.726542654265,0,0
82.588090907031,-176.65944317689,41.53097309731,3742574.6786789,-884.93597132817,2636747.4066342,46.73097309731,0,0
82.588091335457,-176.67697276698,41.535403540354,3742574.6786789,-884.93597132817,2636747.4066342,46.735403540354,0,0
82.588091763884,-176.69450235707,41.539833983398,3742574.6786789,-884.93597132817,2636747.4066342,46.739833983398,0,0
82.58809219231,-176.71203194716,41.544264426443,3742574.6786789,-884.93597132817,2636747.4066342,46.744264426443,0,0
82.588092620737,-176.72956153725,41.548694869487,3742574.6786789,-884.93597132817,2636747.4066342,46.748694869487,0,0
82.588093049163,-176.74709112734,41.553125312531,3742574.6786789,-884.93597132817,2636747.4066342,46.753125312531,0,0
82.588093477589,-176.76462071743,41.557555755576,3742574.6786789,-884.93597132817,2636747.4066342,46.757555755576,0,0
82.588093906016,-176.78215030752,41.56198619862,3742574.6786789,-884.93597132817,2636747.4066342,46.76198619862,0,0
82.588094334442,-176.79967989761,41.566416641664,3742574.6786789,-884.93597132817,2636747.4066342,46.766416641664,0,0
82.588094762869,-176.8172094877,41.570847084708,3742574.6786789,-884.93597132817,2636747.4066342,46.770847084708,0,0
82.588095191295,-176.83473907779,41.575277527753,3742574.6786789,-884.93597132817,2636747.4066342,46.775277527753,0,0
82.588095619721,-176.85226866788,41.579707970797,3742574.6786789,-884.93597132817,2636747.4066342,46.779707970797,0,0
82.588096048148,-176.86979825797,41.584138413841,3742574.6786789,-884.93597132817,2636747.4066342,46.784138413841,0,0
82.588096476574,-176.88732784806,41.588568856886,3742574.6786789,-884.93597132817,2636747.4066342,46.788568856886,0,0
82.588096905001,-176.90485743815,41.59299929993,3742574.6786789,-884.93597132817,2636747.4066342,46.79299929993,0,0
82.588097333427,-176.92238702824,41.597429742974,3742574.6786789,-884.93597132817,2636747.4066342,46.797429742974,0,0
82.588097761854,-176.93991661833,41.601860186019,3742574.6786789,-884.93597132817,2636747.4066342,46.801860186019,0,0
82.58809819028,-176.95744620842,41.606290629063,3742574.6786789,-884.93597132817,2636747.4066342,46.806290629063,0,0
82.588098618706,-176.97497579851,41.610721072107,3742574.6786789,-884.93597132817,2636747.4066342,46.810721072107,0,0
82.588099047133,-176.9925053886,41.615151515152,3742574.6786789,-884.93597132817,2636747.4066342,46.815151515152,0,0
82.588099475559,-177.01003497869,41.619581958196,3742574.6786789,-884.93597132817,2636747.4066342,46.819581958196,0,0
82.588099903986,-177.02756456878,41.62401240124,3742574.6786789,-884.93597132817,2636747.4066342,46.82401240124,0,0
82.588100332412,-177.04509415887,41.628442844284,3742574.6786789,-884.93597132817,2636747.4066342,46.828442844284,0,0
82.588100760838,-177.06262374896,41.632873287329,3742574.6786789,-884.93597132817,2636747.4066342,46.832873287329,0,0
82.588101189265,-177.08015333905,41.637303730373,3742574.6786789,-884.93597132817,2636747.4066342,46.837303730373,0,0
82.588101617691,-177.09768292914,41.641734173417,3742574.6786789,-884.93597132817,2636747.4066342,46.841734173417,0,0
82.588102046118,-177.11521251923,41.646164616462,3742574.6786789,-884.93597132817,2636747.4066342,46.846164616462,0,0
82.588102474544,-177.13274210932,41.650595059506,3742574.6786789,-884.93597132817,2636747.4066342,46.850595059506,0,0
82.588102902971,-177.15027169941,41.65502550255,3742574.6786789,-884.93597132817,2636747.4066342,46.85502550255,0,0
82.588103331397,-177.1678012895,41.659455945595,3742574.6786789,-884.93597132817,2636747.4066342,46.859455945595,0,0
82.588103759823,-177.18533087959,41.663886388639,3742574.6786789,-884.93597132817,2636747.4066342,46.863886388639,0,0
82.58810418825,-177.20286046968,41.668316831683,3742574.6786789,-884.93597132817,2636747.4066342,46.868316831683,0,0
82.588104616676,-177.22039005977,41.672747274727,3742574.6786789,-884.93597132817,2636747.4066342,46.872747274727,0,0
82.588105045103,-177.23791964986,41.677177717772,3742574.6786789,-884.93597132817,2636747.4066342,46.877177717772,0,0
82.588105473529,-177.25544923995,41.681608160816,3742574.6786789,-884.93597132817,2636747.4066342,46.881608160816,0,0
82.588105901955,-177.27297883004,41.68603860386,3742574.6786789,-884.93597132817,2636747.4066342,46.88603860386,0,0
82.588106330382,-177.29050842013,41.690469046905,3742574.6786789,-884.93597132817,2636747.4066342,46.890469046905,0,0
82.588106758808,-177.30803801022,41.694899489949,3742574.6786789,-884.93597132817,2636747.4066342,46.894899489949,0,0
82.588107187235,-177.32556760031,41.699329932993,3742574.6786789,-884.93597132817,2636747.4066342,46.899329932993,0,0
82.588107615661,-177.3430971904,41.703760376038,3742574.6786789,-884.93597132817,2636747.4066342,46.903760376038,0,0
82.588108044087,-177.36062678049,41.708190819082,3742574.6786789,-884.93597132817,2636747.4066342,46.908190819082,0,0
82.588108472514,-177.37815637058,41.712621262126,3742574.6786789,-884.93597132817,2636747.4066342,46.912621262126,0,0
82.58810890094,-177.39568596067,41.717051705171,3742574.6786789,-884.93597132817,2636747.4066342,46.917051705171,0,0
82.588109329367,-177.41321555076,41.721482148215,3742574.6786789,-884.93597132817,2636747.4066342,46.921482148215,0,0
82.588109757793,-177.43074514085,41.725912591259,3742574.6786789,-884.93597132817,2636747.4066342,46.925912591259,0,0
82.58811018622,-177.44827473094,41.730343034303,3742574.6786789,-884.93597132817,2636747.4066342,46.930343034303,0,0
82.588110614646,-177.46580432103,41.734773477348,3742574.6786789,-884.93597132817,2636747.4066342,46.934773477348,0,0
82.588111043072,-177.48333391113,41.739203920392,3742574.6786789,-884.93597132817,2636747.4066342,46.939203920392,0,0
82.588111471499,-177.50086350122,41.743634363436,3742574.6786789,-884.93597132817,2636747.4066342,46.943634363436,0,0
82.588111899925,-177.51839309131,41.748064806481,3742574.6786789,-884.93597132817,2636747.4066342,46.948064806481,0,0
82.588112328352,-177.5359226814,41.752495249525,3742574.6786789,-884.93597132817,2636747.4066342,46.952495249525,0,0
82.588112756778,-177.55345227149,41.756925692569,3742574.6786789,-884.93597132817,2636747.4066342,46.956925692569,0,0
82.588113185204,-177.57098186158,41.761356135614,3742574.6786789,-884.93597132817,2636747.4066342,46.961356135614,0,0
82.588113613631,-177.58851145167,41.765786578658,3742574.6786789,-884.93597132817,2636747.4066342,46.965786578658,0,0
82.588114042057,-177.60604104176,41.770217021702,3742574.6786789,-884.93597132817,2636747.4066342,46.970217021702,0,0
82.588114470484,-177.62357063185,41.774647464746,3742574.6786789,-884.93597132817,2636747.4066342,46.974647464746,0,0
82.58811489891,-177.64110022194,41.779077907791,3742574.6786789,-884.93597132817,2636747.4066342,46.979077907791,0,0
82.588115327337,-177.65862981203,41.783508350835,3742574.6786789,-884.93597132817,2636747.4066342,46.983508350835,0,0
82.588115755763,-177.67615940212,41.787938793879,3742574.6786789,-884.93597132817,2636747.4066342,46.987938793879,0,0
82.588116184189,-177.69368899221,41.792369236924,3742574.6786789,-884.93597132817,2636747.4066342,46.992369236924,0,0
82.588116612616,-177.7112185823,41.796799679968,3742574.6786789,-884.93597132817,2636747.4066342,46.996799679968,0,0
82.588117041042,-177.72874817239,41.801230123012,3742574.6786789,-884.93597132817,2636747.4066342,47.001230123012,0,0
82.588117469469,-177.74627776248,41.805660566057,3742574.6786789,-884.93597132817,2636747.4066342,47.005660566057,0,0
82.588117897895,-177.76380735257,41.810091009101,3742574.6786789,-884.93597132817,2636747.4066342,47.010091009101,0,0
82.588118326321,-177.78133694266,41.814521452145,3742574.6786789,-884.93597132817,2636747.4066342,47.014521452145,0,0
82.588118754748,-177.79886653275,41.81895189519,3742574.6786789,-884.93597132817,2636747.4066342,47.01895189519,0,0
82.588119183174,-177.81639612284,41.823382338234,3742574.6786789,-884.93597132817,2636747.4066342,47.023382338234,0,0
82.588119611601,-177.83392571293,41.827812781278,3742574.6786789,-884.93597132817,2636747.4066342,47.027812781278,0,0
82.588120040027,-177.85145530302,41.832243224322,3742574.6786789,-884.93597132817,2636747.4066342,47.032243224322,0,0
82.588120468454,-177.86898489311,41.836673667367,3742574.6786789,-884.93597132817,2636747.4066342,47.036673667367,0,0
82.58812089688,-177.8865144832,41.841104110411,3742574.6786789,-884.93597132817,2636747.4066342,47.041104110411,0,0
82.588121325306,-177.90404407329,41.845534553455,3742574.6786789,-884.93597132817,2636747.4066342,47.045534553455,0,0
82.588121753733,-177.92157366338,41.8499649965,3742574.6786789,-884.93597132817,2636747.4066342,47.0499649965,0,0
82.588122182159,-177.93910325347,41.854395439544,3742574.6786789,-884.93597132817,2636747.4066342,47.054395439544,0,0
82.588122610586,-177.95663284356,41.858825882588,3742574.6786789,-884.93597132817,2636747.4066342,47.058825882588,0,0
82.588123039012,-177.97416243365,41.863256325633,3742574.6786789,-884.93597132817,2636747.4066342,47.063256325633,0,0
82.588123467438,-177.99169202374,41.867686768677,3742574.6786789,-884.93597132817,2636747.4066342,47.067686768677,0,0
82.588123895865,-178.00922161383,41.872117211721,3742574.6786789,-884.93597132817,2636747.4066342,47.072117211721,0,0
82.588124324291,-178.02675120392,41.876547654765,3742574.6786789,-884.93597132817,2636747.4066342,47.076547654765,0,0
82.588124752718,-178.04428079401,41.88097809781,3742574.6786789,-884.93597132817,2636747.4066342,47.08097809781,0,0
82.588125181144,-178.0618103841,41.885408540854,3742574.6786789,-884.93597132817,2636747.4066342,47.085408540854,0,0
82.588125609571,-178.07933997419,41.889838983898,3742574.6786789,-884.93597132817,2636747.4066342,47.089838983898,0,0
82.588126037997,-178.09686956428,41.894269426943,3742574.6786789,-884.93597132817,2636747.4066342,47.094269426943,0,0
82.588126466423,-178.11439915437,41.898699869987,3742574.6786789,-884.93597132817,2636747.4066342,47.098699869987,0,0
82.58812689485,-178.13192874446,41.903130313031,3742574.6786789,-884.93597132817,2636747.4066342,47.103130313031,0,0
82.588127323276,-178.14945833455,41.907560756076,3742574.6786789,-884.93597132817,2636747.4066342,47.107560756076,0,0
82.588127751703,-178.16698792464,41.91199119912,3742574.6786789,-884.93597132817,2636747.4066342,47.11199119912,0,0
82.588128180129,-178.18451751473,41.916421642164,3742574.6786789,-884.93597132817,2636747.4066342,47.116421642164,0,0
82.588128608555,-178.20204710482,41.920852085209,3742574.6786789,-884.93597132817,2636747.4066342,47.120852085209,0,0
82.588129036982,-178.21957669491,41.925282528253,3742574.6786789,-884.93597132817,2636747.4066342,47.125282528253,0,0
82.588129465408,-178.237106285,41.929712971297,3742574.6786789,-884.93597132817,2636747.4066342,47.129712971297,0,0
82.588129893835,-178.25463587509,41.934143414341,3742574.6786789,-884.93597132817,2636747.4066342,47.134143414341,0,0
82.588130322261,-178.27216546518,41.938573857386,3742574.6786789,-884.93597132817,2636747.4066342,47.138573857386,0,0
82.588130750687,-178.28969505527,41.94300430043,3742574.6786789,-884.93597132817,2636747.4066342,47.14300430043,0,0
82.588131179114,-178.30722464536,41.947434743474,3742574.6786789,-884.93597132817,2636747.4066342,47.147434743474,0,0
82.58813160754,-178.32475423546,41.951865186519,3742574.6786789,-884.93597132817,2636747.4066342,47.151865186519,0,0
82.588132035967,-178.34228382555,41.956295629563,3742574.6786789,-884.93597132817,2636747.4066342,47.156295629563,0,0
82.588132464393,-178.35981341564,41.960726072607,3742574.6786789,-884.93597132817,2636747.4066342,47.160726072607,0,0
82.58813289282,-178.37734300573,41.965156515652,3742574.6786789,-884.93597132817,2636747.4066342,47.165156515652,0,0
82.588133321246,-178.39487259582,41.969586958696,3742574.6786789,-884.93597132817,2636747.4066342,47.169586958696,0,0
82.588133749672,-178.41240218591,41.97401740174,3742574.6786789,-884.93597132817,2636747.4066342,47.17401740174,0,0
82.588134178099,-178.429931776,41.978447844784,3742574.6786789,-884.93597132817,2636747.4066342,47.178447844784,0,0
82.588134606525,-178.44746136609,41.982878287829,3742574.6786789,-884.93597132817,2636747.4066342,47.182878287829,0,0
82.588135034952,-178.46499095618,41.987308730873,3742574.6786789,-884.93597132817,2636747.4066342,47.187308730873,0,0
82.588135463378,-178.48252054627,41.991739173917,3742574.6786789,-884.93597132817,2636747.4066342,47.191739173917,0,0
82.588135891804,-178.50005013636,41.996169616962,3742574.6786789,-884.93597132817,2636747.4066342,47.196169616962,0,0
82.588136320231,-178.51757972645,42.000600060006,3742574.6786789,-884.93597132817,2636747.4066342,47.200600060006,0,0
82.588136748657,-178.53510931654,42.00503050305,3742574.6786789,-884.93597132817,2636747.4066342,47.20503050305,0,0
82.588137177084,-178.55263890663,42.009460946095,3742574.6786789,-884.93597132817,2636747.4066342,47.209460946095,0,0
82.58813760551,-178.57016849672,42.013891389139,3742574.6786789,-884.93597132817,2636747.4066342,47.213891389139,0,0
82.588138033937,-178.58769808681,42.018321832183,3742574.6786789,-884.93597132817,2636747.4066342,47.218321832183,0,0
82.588138462363,-178.6052276769,42.022752275228,3742574.6786789,-884.93597132817,2636747.4066342,47.222752275228,0,0
82.588138890789,-178.62275726699,42.027182718272,3742574.6786789,-884.93597132817,2636747.4066342,47.227182718272,0,0
82.588139319216,-178.64028685708,42.031613161316,3742574.6786789,-884.93597132817,2636747.4066342,47.231613161316,0,0
82.588139747642,-178.65781644717,42.03604360436,3742574.6786789,-884.93597132817,2636747.4066342,47.23604360436,0,0
82.588140176069,-178.67534603726,42.040474047405,3742574.6786789,-884.93597132817,2636747.4066342,47.240474047405,0,0
82.588140604495,-178.69287562735,42.044904490449,3742574.6786789,-884.93597132817,2636747.4066342,47.244904490449,0,0
82.588141032921,-178.71040521744,42.049334933493,3742574.6786789,-884.93597132817,2636747.4066342,47.249334933493,0,0
82.588141461348,-178.72793480753,42.053765376538,3742574.6786789,-884.93597132817,2636747.4066342,47.253765376538,0,0
82.588141889774,-178.74546439762,42.058195819582,3742574.6786789,-884.93597132817,2636747.4066342,47.258195819582,0,0
82.588142318201,-178.76299398771,42.062626262626,3742574.6786789,-884.93597132817,2636747.4066342,47.262626262626,0,0
82.588142746627,-178.7805235778,42.067056705671,3742574.6786789,-884.93597132817,2636747.4066342,47.267056705671,0,0
82.588143175054,-178.79805316789,42.071487148715,3742574.6786789,-884.93597132817,2636747.4066342,47.271487148715,0,0
82.58814360348,-178.81558275798,42.075917591759,3742574.6786789,-884.93597132817,2636747.4066342,47.275917591759,0,0
82.588144031906,-178.83311234807,42.080348034803,3742574.6786789,-884.93597132817,2636747.4066342,47.280348034803,0,0
82.588144460333,-178.85064193816,42.084778477848,3742574.6786789,-884.93597132817,2636747.4066342,47.284778477848,0,0
82.588144888759,-178.86817152825,42.089208920892,3742574.6786789,-884.93597132817,2636747.4066342,47.289208920892,0,0
82.588145317186,-178.88570111834,42.093639363936,3742574.6786789,-884.93597132817,2636747.4066342,47.293639363936,0,0
82.588145745612,-178.90323070843,42.098069806981,3742574.6786789,-884.93597132817,2636747.4066342,47.298069806981,0,0
82.588146174038,-178.92076029852,42.102500250025,3742574.6786789,-884.93597132817,2636747.4066342,47.302500250025,0,0
82.588146602465,-178.93828988861,42.106930693069,3742574.6786789,-884.93597132817,2636747.4066342,47.306930693069,0,0
82.588147030891,-178.9558194787,42.111361136114,3742574.6786789,-884.93597132817,2636747.4066342,47.311361136114,0,0
82.588147459318,-178.97334906879,42.115791579158,3742574.6786789,-884.93597132817,2636747.4066342,47.315791579158,0,0
82.588147887744,-178.99087865888,42.120222022202,3742574.6786789,-884.93597132817,2636747.4066342,47.320222022202,0,0
82.588148316171,-179.00840824897,42.124652465247,3742574.6786789,-884.93597132817,2636747.4066342,47.324652465247,0,0
82.588148744597,-179.02593783906,42.129082908291,3742574.6786789,-884.93597132817,2636747.4066342,47.329082908291,0,0
82.588149173023,-179.04346742915,42.133513351335,3742574.6786789,-884.93597132817,2636747.4066342,47.333513351335,0,0
82.58814960145,-179.06099701924,42.137943794379,3742574.6786789,-884.93597132817,2636747.4066342,47.337943794379,0,0
82.588150029876,-179.07852660933,42.142374237424,3742574.6786789,-884.93597132817,2636747.4066342,47.342374237424,0,0
82.588150458303,-179.09605619942,42.146804680468,3742574.6786789,-884.93597132817,2636747.4066342,47.346804680468,0,0
82.588150886729,-179.11358578951,42.151235123512,3742574.6786789,-884.93597132817,2636747.4066342,47.351235123512,0,0
82.588151315155,-179.1311153796,42.155665566557,3742574.6786789,-884.93597132817,2636747.4066342,47.355665566557,0,0
82.588151743582,-179.14864496969,42.160096009601,3742574.6786789,-884.93597132817,2636747.4066342,47.360096009601,0,0
82.588152172008,-179.16617455978,42.164526452645,3742574.6786789,-884.93597132817,2636747.4066342,47.364526452645,0,0
82.588152600435,-179.18370414988,42.16895689569,3742574.6786789,-884.93597132817,2636747.4066342,47.36895689569,0,0
82.588153028861,-179.20123373997,42.173387338734,3742574.6786789,-884.93597132817,2636747.4066342,47.373387338734,0,0
82.588153457288,-179.21876333006,42.177817781778,3742574.6786789,-884.93597132817,2636747.4066342,47.377817781778,0,0
82.588153885714,-179.23629292015,42.182248224822,3742574.6786789,-884.93597132817,2636747.4066342,47.382248224822,0,0
82.58815431414,-179.25382251024,42.186678667867,3742574.6786789,-884.93597132817,2636747.4066342,47.386678667867,0,0
82.588154742567,-179.27135210033,42.191109110911,3742574.6786789,-884.93597132817,2636747.4066342,47.391109110911,0,0
82.588155170993,-179.28888169042,42.195539553955,3742574.6786789,-884.93597132817,2636747.4066342,47.395539553955,0,0
82.58815559942,-179.30641128051,42.199969997,3742574.6786789,-884.93597132817,2636747.4066342,47.399969997,0,0
82.588156027846,-179.3239408706,42.204400440044,3742574.6786789,-884.93597132817,2636747.4066342,47.404400440044,0,0
82.588156456272,-179.34147046069,42.208830883088,3742574.6786789,-884.93597132817,2636747.4066342,47.408830883088,0,0
82.588156884699,-179.35900005078,42.213261326133,3742574.6786789,-884.93597132817,2636747.4066342,47.413261326133,0,0
82.588157313125,-179.37652964087,42.217691769177,3742574.6786789,-884.93597132817,2636747.4066342,47.417691769177,0,0
82.588157741552,-179.39405923096,42.222122212221,3742574.6786789,-884.93597132817,2636747.4066342,47.422122212221,0,0
82.588158169978,-179.41158882105,42.226552655266,3742574.6786789,-884.93597132817,2636747.4066342,47.426552655266,0,0
82.588158598404,-179.42911841114,42.23098309831,3742574.6786789,-884.93597132817,2636747.4066342,47.43098309831,0,0
82.588159026831,-179.44664800123,42.235413541354,3742574.6786789,-884.93597132817,2636747.4066342,47.435413541354,0,0
82.588159455257,-179.46417759132,42.239843984398,3742574.6786789,-884.93597132817,2636747.4066342,47.439843984398,0,0
82.588159883684,-179.48170718141,42.244274427443,3742574.6786789,-884.93597132817,2636747.4066342,47.444274427443,0,0
82.58816031211,-179.4992367715,42.248704870487,3742574.6786789,-884.93597132817,2636747.4066342,47.448704870487,0,0
82.588160740537,-179.51676636159,42.253135313531,3742574.6786789,-884.93597132817,2636747.4066342,47.453135313531,0,0
82.588161168963,-179.53429595168,42.257565756576,3742574.6786789,-884.93597132817,2636747.4066342,47.457565756576,0,0
82.588161597389,-179.55182554177,42.26199619962,3742574.6786789,-884.93597132817,2636747.4066342,47.46199619962,0,0
82.588162025816,-179.56935513186,42.266426642664,3742574.6786789,-884.93597132817,2636747.4066342,47.466426642664,0,0
82.588162454242,-179.58688472195,42.270857085709,3742574.6786789,-884.93597132817,2636747.4066342,47.470857085709,0,0
82.588162882669,-179.60441431204,42.275287528753,3742574.6786789,-884.93597132817,2636747.4066342,47.475287528753,0,0
82.588163311095,-179.62194390213,42.279717971797,3742574.6786789,-884.93597132817,2636747.4066342,47.479717971797,0,0
82.588163739521,-179.63947349222,42.284148414841,3742574.6786789,-884.93597132817,2636747.4066342,47.484148414841,0,0
82.588164167948,-179.65700308231,42.288578857886,3742574.6786789,-884.93597132817,2636747.4066342,47.488578857886,0,0
82.588164596374,-179.6745326724,42.29300930093,3742574.6786789,-884.93597132817,2636747.4066342,47.49300930093,0,0
82.588165024801,-179.69206226249,42.297439743974,3742574.6786789,-884.93597132817,2636747.4066342,47.497439743974,0,0
82.588165453227,-179.70959185258,42.301870187019,3742574.6786789,-884.93597132817,2636747.4066342,47.501870187019,0,0
82.588165881654,-179.72712144267,42.306300630063,3742574.6786789,-884.93597132817,2636747.4066342,47.506300630063,0,0
82.58816631008,-179.74465103276,42.310731073107,3742574.6786789,-884.93597132817,2636747.4066342,47.510731073107,0,0
82.588166738506,-179.76218062285,42.315161516152,3742574.6786789,-884.93597132817,2636747.4066342,47.515161516152,0,0
82.588167166933,-179.77971021294,42.319591959196,3742574.6786789,-884.93597132817,2636747.4066342,47.519591959196,0,0
82.588167595359,-179.79723980303,42.32402240224,3742574.6786789,-884.93597132817,2636747.4066342,47.52402240224,0,0
82.588168023786,-179.81476939312,42.328452845285,3742574.6786789,-884.93597132817,2636747.4066342,47.528452845285,0,0
82.588168452212,-179.83229898321,42.332883288329,3742574.6786789,-884.93597132817,2636747.4066342,47.532883288329,0,0
82.588168880638,-179.8498285733,42.337313731373,3742574.6786789,-884.93597132817,2636747.4066342,47.537313731373,0,0
82.588169309065,-179.86735816339,42.341744174417,3742574.6786789,-884.93597132817,2636747.4066342,47.541744174417,0,0
82.588169737491,-179.88488775348,42.346174617462,3742574.6786789,-884.93597132817,2636747.4066342,47.546174617462,0,0
82.588170165918,-179.90241734357,42.350605060506,3742574.6786789,-884.93597132817,2636747.4066342,47.550605060506,0,0
82.588170594344,-179.91994693366,42.35503550355,3742574.6786789,-884.93597132817,2636747.4066342,47.55503550355,0,0
82.588171022771,-179.93747652375,42.359465946595,3742574.6786789,-884.93597132817,2636747.4066342,47.559465946595,0,0
82.588171451197,-179.95500611384,42.363896389639,3742574.6786789,-884.93597132817,2636747.4066342,47.563896389639,0,0
82.588171879623,-179.97253570393,42.368326832683,3742574.6786789,-884.93597132817,2636747.4066342,47.568326832683,0,0
82.58817230805,-179.99006529402,42.372757275728,3742574.6786789,-884.93597132817,2636747.4066342,47.572757275728,0,0
82.588172736476,-180.00759488411,42.377187718772,3742574.6786789,-884.93597132817,2636747.4066342,47.577187718772,0,0
82.588173164903,-180.02512447421,42.381618161816,3742574.6786789,-884.93597132817,2636747.4066342,47.581618161816,0,0
82.588173593329,-180.0426540643,42.38604860486,3742574.6786789,-884.93597132817,2636747.4066342,47.58604860486,0,0
82.588174021755,-180.06018365439,42.390479047905,3742574.6786789,-884.93597132817,2636747.4066342,47.590479047905,0,0
82.588174450182,-180.07771324448,42.394909490949,3742574.6786789,-884.93597132817,2636747.4066342,47.594909490949,0,0
82.588174878608,-180.09524283457,42.399339933993,3742574.6786789,-884.93597132817,2636747.4066342,47.599339933993,0,0
82.588175307035,-180.11277242466,42.403770377038,3742574.6786789,-884.93597132817,2636747.4066342,47.603770377038,0,0
82.588175735461,-180.13030201475,42.408200820082,3742574.6786789,-884.93597132817,2636747.4066342,47.608200820082,0,0
82.588176163887,-180.14783160484,42.412631263126,3742574.6786789,-884.93597132817,2636747.4066342,47.612631263126,0,0
82.588176592314,-180.16536119493,42.417061706171,3742574.6786789,-884.93597132817,2636747.4066342,47.617061706171,0,0
82.58817702074,-180.18289078502,42.421492149215,3742574.6786789,-884.93597132817,2636747.4066342,47.621492149215,0,0
82.588177449167,-180.20042037511,42.425922592259,3742574.6786789,-884.93597132817,2636747.4066342,47.625922592259,0,0
82.588177877918,-180.21794996514,42.430353035304,3750788.5982131,-232.38867015614,2639558.0119379,47.630353035304,0,0
82.588178306926,-180.23547955512,42.434783478348,3750788.5982131,-232.38867015614,2639558.0119379,47.634783478348,0,0
82.588178735934,-180.2530091451,42.439213921392,3750788.5982131,-232.38867015614,2639558.0119379,47.639213921392,0,0
82.588179164941,-180.27053873508,42.443644364436,3750788.5982131,-232.38867015614,2639558.0119379,47.643644364436,0,0
82.588179593949,-180.28806832507,42.448074807481,3750788.5982131,-232.38867015614,2639558.0119379,47.648074807481,0,0
82.588180022957,-180.30559791505,42.452505250525,3750788.5982131,-232.38867015614,2639558.0119379,47.652505250525,0,0
82.588180451964,-180.32312750503,42.456935693569,3750788.5982131,-232.38867015614,2639558.0119379,47.656935693569,0,0
82.588180880972,-180.34065709501,42.461366136614,3750788.5982131,-232.38867015614,2639558.0119379,47.661366136614,0,0
82.58818130998,-180.358186685,42.465796579658,3750788.5982131,-232.38867015614,2639558.0119379,47.665796579658,0,0
82.588181738987,-180.37571627498,42.470227022702,3750788.5982131,-232.38867015614,2639558.0119379,47.670227022702,0,0
82.588182167995,-180.39324586496,42.474657465747,3750788.5982131,-232.38867015614,2639558.0119379,47.674657465747,0,0
82.588182597003,-180.41077545494,42.479087908791,3750788.5982131,-232.38867015614,2639558.0119379,47.679087908791,0,0
82.58818302601,-180.42830504493,42.483518351835,3750788.5982131,-232.38867015614,2639558.0119379,47.683518351835,0,0
82.588183455018,-180.44583463491,42.487948794879,3750788.5982131,-232.38867015614,2639558.0119379,47.687948794879,0,0
82.588183884026,-180.46336422489,42.492379237924,3750788.5982131,-232.38867015614,2639558.0119379,47.692379237924,0,0
82.588184313033,-180.48089381488,42.496809680968,3750788.5982131,-232.38867015614,2639558.0119379,47.696809680968,0,0
82.588184742041,-180.49842340486,42.501240124012,3750788.5982131,-232.38867015614,2639558.0119379,47.701240124012,0,0
82.588185171049,-180.51595299484,42.505670567057,3750788.5982131,-232.38867015614,2639558.0119379,47.705670567057,0,0
82.588185600057,-180.53348258482,42.510101010101,3750788.5982131,-232.38867015614,2639558.0119379,47.710101010101,0,0
82.588186029064,-180.55101217481,42.514531453145,3750788.5982131,-232.38867015614,2639558.0119379,47.714531453145,0,0
82.588186458072,-180.56854176479,42.51896189619,3750788.5982131,-232.38867015614,2639558.0119379,47.71896189619,0,0
82.58818688708,-180.58607135477,42.523392339234,3750788.5982131,-232.38867015614,2639558.0119379,47.723392339234,0,0
82.588187316087,-180.60360094475,42.527822782278,3750788.5982131,-232.38867015614,2639558.0119379,47.727822782278,0,0
82.588187745095,-180.62113053474,42.532253225323,3750788.5982131,-232.38867015614,2639558.0119379,47.732253225323,0,0
82.588188174103,-180.63866012472,42.536683668367,3750788.5982131,-232.38867015614,2639558.0119379,47.736683668367,0,0
82.58818860311,-180.6561897147,42.541114111411,3750788.5982131,-232.38867015614,2639558.0119379,47.741114111411,0,0
82.588189032118,-180.67371930468,42.545544554455,3750788.5982131,-232.38867015614,2639558.0119379,47.745544554455,0,0
82.588189461126,-180.69124889467,42.5499749975,3750788.5982131,-232.38867015614,2639558.0119379,47.7499749975,0,0
82.588189890133,-180.70877848465,42.554405440544,3750788.5982131,-232.38867015614,2639558.0119379,47.754405440544,0,0
82.588190319141,-180.72630807463,42.558835883588,3750788.5982131,-232.38867015614,2639558.0119379,47.758835883588,0,0
82.588190748149,-180.74383766461,42.563266326633,3750788.5982131,-232.38867015614,2639558.0119379,47.763266326633,0,0
82.588191177156,-180.7613672546,42.567696769677,3750788.5982131,-232.38867015614,2639558.0119379,47.767696769677,0,0
82.588191606164,-180.77889684458,42.572127212721,3750788.5982131,-232.38867015614,2639558.0119379,47.772127212721,0,0
82.588192035172,-180.79642643456,42.576557655766,3750788.5982131,-232.38867015614,2639558.0119379,47.776557655766,0,0
82.588192464179,-180.81395602454,42.58098809881,3750788.5982131,-232.38867015614,2639558.0119379,47.78098809881,0,0
82.588192893187,-180.83148561453,42.585418541854,3750788.5982131,-232.38867015614,2639558.0119379,47.785418541854,0,0
82.588193322195,-180.84901520451,42.589848984898,3750788.5982131,-232.38867015614,2639558.0119379,47.789848984898,0,0
82.588193751202,-180.86654479449,42.594279427943,3750788.5982131,-232.38867015614,2639558.0119379,47.794279427943,0,0
82.58819418021,-180.88407438447,42.598709870987,3750788.5982131,-232.38867015614,2639558.0119379,47.798709870987,0,0
82.588194609218,-180.90160397446,42.603140314031,3750788.5982131,-232.38867015614,2639558.0119379,47.803140314031,0,0
82.588195038225,-180.91913356444,42.607570757076,3750788.5982131,-232.38867015614,2639558.0119379,47.807570757076,0,0
82.588195467233,-180.93666315442,42.61200120012,3750788.5982131,-232.38867015614,2639558.0119379,47.81200120012,0,0
82.588195896241,-180.9541927444,42.616431643164,3750788.5982131,-232.38867015614,2639558.0119379,47.816431643164,0,0
82.588196325248,-180.97172233439,42.620862086209,3750788.5982131,-232.38867015614,2639558.0119379,47.820862086209,0,0
82.588196754256,-180.98925192437,42.625292529253,3750788.5982131,-232.38867015614,2639558.0119379,47.825292529253,0,0
82.588197183264,-181.00678151435,42.629722972297,3750788.5982131,-232.38867015614,2639558.0119379,47.829722972297,0,0
82.588197612271,-181.02431110433,42.634153415342,3750788.5982131,-232.38867015614,2639558.0119379,47.834153415342,0,0
82.588198041279,-181.04184069432,42.638583858386,3750788.5982131,-232.38867015614,2639558.0119379,47.838583858386,0,0
82.588198470287,-181.0593702843,42.64301430143,3750788.5982131,-232.38867015614,2639558.0119379,47.84301430143,0,0
82.588198899294,-181.07689987428,42.647444744474,3750788.5982131,-232.38867015614,2639558.0119379,47.847444744474,0,0
82.588199328302,-181.09442946426,42.651875187519,3750788.5982131,-232.38867015614,2639558.0119379,47.851875187519,0,0
82.58819975731,-181.11195905425,42.656305630563,3750788.5982131,-232.38867015614,2639558.0119379,47.856305630563,0,0
82.588200186317,-181.12948864423,42.660736073607,3750788.5982131,-232.38867015614,2639558.0119379,47.860736073607,0,0
82.588200615325,-181.14701823421,42.665166516652,3750788.5982131,-232.38867015614,2639558.0119379,47.865166516652,0,0
82.588201044333,-181.16454782419,42.669596959696,3750788.5982131,-232.38867015614,2639558.0119379,47.869596959696,0,0
82.58820147334,-181.18207741418,42.67402740274,3750788.5982131,-232.38867015614,2639558.0119379,47.87402740274,0,0
82.588201902348,-181.19960700416,42.678457845785,3750788.5982131,-232.38867015614,2639558.0119379,47.878457845785,0,0
82.588202331356,-181.21713659414,42.682888288829,3750788.5982131,-232.38867015614,2639558.0119379,47.882888288829,0,0
82.588202760364,-181.23466618412,42.687318731873,3750788.5982131,-232.38867015614,2639558.0119379,47.887318731873,0,0
82.588203189371,-181.25219577411,42.691749174917,3750788.5982131,-232.38867015614,2639558.0119379,47.891749174917,0,0
82.588203618379,-181.26972536409,42.696179617962,3750788.5982131,-232.38867015614,2639558.0119379,47.896179617962,0,0
82.588204047387,-181.28725495407,42.700610061006,3750788.5982131,-232.38867015614,2639558.0119379,47.900610061006,0,0
82.588204476394,-181.30478454405,42.70504050405,3750788.5982131,-232.38867015614,2639558.0119379,47.90504050405,0,0
82.588204905402,-181.32231413404,42.709470947095,3750788.5982131,-232.38867015614,2639558.0119379,47.909470947095,0,0
82.58820533441,-181.33984372402,42.713901390139,3750788.5982131,-232.38867015614,2639558.0119379,47.913901390139,0,0
82.588205763417,-181.357373314,42.718331833183,3750788.5982131,-232.38867015614,2639558.0119379,47.918331833183,0,0
82.588206192425,-181.37490290398,42.722762276228,3750788.5982131,-232.38867015614,2639558.0119379,47.922762276228,0,0
82.588206621433,-181.39243249397,42.727192719272,3750788.5982131,-232.38867015614,2639558.0119379,47.927192719272,0,0
82.58820705044,-181.40996208395,42.731623162316,3750788.5982131,-232.38867015614,2639558.0119379,47.931623162316,0,0
82.588207479448,-181.42749167393,42.736053605361,3750788.5982131,-232.38867015614,2639558.0119379,47.936053605361,0,0
82.588207908456,-181.44502126391,42.740484048405,3750788.5982131,-232.38867015614,2639558.0119379,47.940484048405,0,0
82.588208337463,-181.4625508539,42.744914491449,3750788.5982131,-232.38867015614,2639558.0119379,47.944914491449,0,0
82.588208766471,-181.48008044388,42.749344934493,3750788.5982131,-232.38867015614,2639558.0119379,47.949344934493,0,0
82.588209195479,-181.49761003386,42.753775377538,3750788.5982131,-232.38867015614,2639558.0119379,47.953775377538,0,0
82.588209624486,-181.51513962384,42.758205820582,3750788.5982131,-232.38867015614,2639558.0119379,47.958205820582,0,0
82.588210053494,-181.53266921383,42.762636263626,3750788.5982131,-232.38867015614,2639558.0119379,47.962636263626,0,0
82.588210482502,-181.55019880381,42.767066706671,3750788.5982131,-232.38867015614,2639558.0119379,47.967066706671,0,0
82.588210911509,-181.56772839379,42.771497149715,3750788.5982131,-232.38867015614,2639558.0119379,47.971497149715,0,0
82.588211340517,-181.58525798377,42.775927592759,3750788.5982131,-232.38867015614,2639558.0119379,47.975927592759,0,0
82.588211769525,-181.60278757376,42.780358035804,3750788.5982131,-232.38867015614,2639558.0119379,47.980358035804,0,0
82.588212198532,-181.62031716374,42.784788478848,3750788.5982131,-232.38867015614,2639558.0119379,47.984788478848,0,0
82.58821262754,-181.63784675372,42.789218921892,3750788.5982131,-232.38867015614,2639558.0119379,47.989218921892,0,0
82.588213056548,-181.6553763437,42.793649364936,3750788.5982131,-232.38867015614,2639558.0119379,47.993649364936,0,0
82.588213485555,-181.67290593369,42.798079807981,3750788.5982131,-232.38867015614,2639558.0119379,47.998079807981,0,0
82.588213914563,-181.69043552367,42.802510251025,3750788.5982131,-232.38867015614,2639558.0119379,48.002510251025,0,0
82.588214343571,-181.70796511365,42.806940694069,3750788.5982131,-232.38867015614,2639558.0119379,48.006940694069,0,0
82.588214772578,-181.72549470363,42.811371137114,3750788.5982131,-232.38867015614,2639558.0119379,48.011371137114,0,0
82.588215201586,-181.74302429362,42.815801580158,3750788.5982131,-232.38867015614,2639558.0119379,48.015801580158,0,0
82.588215630594,-181.7605538836,42.820232023202,3750788.5982131,-232.38867015614,2639558.0119379,48.020232023202,0,0
82.588216059601,-181.77808347358,42.824662466247,3750788.5982131,-232.38867015614,2639558.0119379,48.024662466247,0,0
82.588216488609,-181.79561306356,42.829092909291,3750788.5982131,-232.38867015614,2639558.0119379,48.029092909291,0,0
82.588216917617,-181.81314265355,42.833523352335,3750788.5982131,-232.38867015614,2639558.0119379,48.033523352335,0,0
82.588217346624,-181.83067224353,42.83795379538,3750788.5982131,-232.38867015614,2639558.0119379,48.03795379538,0,0
82.588217775632,-181.84820183351,42.842384238424,3750788.5982131,-232.38867015614,2639558.0119379,48.042384238424,0,0
82.58821820464,-181.86573142349,42.846814681468,3750788.5982131,-232.38867015614,2639558.0119379,48.046814681468,0,0
82.588218633648,-181.88326101348,42.851245124512,3750788.5982131,-232.38867015614,2639558.0119379,48.051245124512,0,0
82.588219062655,-181.90079060346,42.855675567557,3750788.5982131,-232.38867015614,2639558.0119379,48.055675567557,0,0
82.588219491663,-181.91832019344,42.860106010601,3750788.5982131,-232.38867015614,2639558.0119379,48.060106010601,0,0
82.588219920671,-181.93584978343,42.864536453645,3750788.5982131,-232.38867015614,2639558.0119379,48.064536453645,0,0
82.588220349678,-181.95337937341,42.86896689669,3750788.5982131,-232.38867015614,2639558.0119379,48.06896689669,0,0
82.588220778686,-181.97090896339,42.873397339734,3750788.5982131,-232.38867015614,2639558.0119379,48.073397339734,0,0
82.588221207694,-181.98843855337,42.877827782778,3750788.5982131,-232.38867015614,2639558.0119379,48.077827782778,0,0
82.588221636701,-182.00596814336,42.882258225823,3750788.5982131,-232.38867015614,2639558.0119379,48.082258225823,0,0
82.588222065709,-182.02349773334,42.886688668867,3750788.5982131,-232.38867015614,2639558.0119379,48.086688668867,0,0
82.588222494717,-182.04102732332,42.891119111911,3750788.5982131,-232.38867015614,2639558.0119379,48.091119111911,0,0
82.588222923724,-182.0585569133,42.895549554955,3750788.5982131,-232.38867015614,2639558.0119379,48.095549554955,0,0
82.588223352732,-182.07608650329,42.899979998,3750788.5982131,-232.38867015614,2639558.0119379,48.099979998,0,0
82.58822378174,-182.09361609327,42.904410441044,3750788.5982131,-232.38867015614,2639558.0119379,48.104410441044,0,0
82.588224210747,-182.11114568325,42.908840884088,3750788.5982131,-232.38867015614,2639558.0119379,48.108840884088,0,0
82.588224639755,-182.12867527323,42.913271327133,3750788.5982131,-232.38867015614,2639558.0119379,48.113271327133,0,0
82.588225068763,-182.14620486322,42.917701770177,3750788.5982131,-232.38867015614,2639558.0119379,48.117701770177,0,0
82.58822549777,-182.1637344532,42.922132213221,3750788.5982131,-232.38867015614,2639558.0119379,48.122132213221,0,0
82.588225926778,-182.18126404318,42.926562656266,3750788.5982131,-232.38867015614,2639558.0119379,48.126562656266,0,0
82.588226355786,-182.19879363316,42.93099309931,3750788.5982131,-232.38867015614,2639558.0119379,48.13099309931,0,0
82.588226784793,-182.21632322315,42.935423542354,3750788.5982131,-232.38867015614,2639558.0119379,48.135423542354,0,0
82.588227213801,-182.23385281313,42.939853985399,3750788.5982131,-232.38867015614,2639558.0119379,48.139853985399,0,0
82.588227642809,-182.25138240311,42.944284428443,3750788.5982131,-232.38867015614,2639558.0119379,48.144284428443,0,0
82.588228071816,-182.26891199309,42.948714871487,3750788.5982131,-232.38867015614,2639558.0119379,48.148714871487,0,0
82.588228500824,-182.28644158308,42.953145314531,3750788.5982131,-232.38867015614,2639558.0119379,48.153145314531,0,0
82.588228929832,-182.30397117306,42.957575757576,3750788.5982131,-232.38867015614,2639558.0119379,48.157575757576,0,0
82.588229358839,-182.32150076304,42.96200620062,3750788.5982131,-232.38867015614,2639558.0119379,48.16200620062,0,0
82.588229787847,-182.33903035302,42.966436643664,3750788.5982131,-232.38867015614,2639558.0119379,48.166436643664,0,0
82.588230216855,-182.35655994301,42.970867086709,3750788.5982131,-232.38867015614,2639558.0119379,48.170867086709,0,0
82.588230645862,-182.37408953299,42.975297529753,3750788.5982131,-232.38867015614,2639558.0119379,48.175297529753,0,0
82.58823107487,-182.39161912297,42.979727972797,3750788.5982131,-232.38867015614,2639558.0119379,48.179727972797,0,0
82.588231503878,-182.40914871295,42.984158415842,3750788.5982131,-232.38867015614,2639558.0119379,48.184158415842,0,0
82.588231932885,-182.42667830294,42.988588858886,3750788.5982131,-232.38867015614,2639558.0119379,48.188588858886,0,0
82.588232361893,-182.44420789292,42.99301930193,3750788.5982131,-232.38867015614,2639558.0119379,48.19301930193,0,0
82.588232790901,-182.4617374829,42.997449744974,3750788.5982131,-232.38867015614,2639558.0119379,48.197449744974,0,0
82.588233219908,-182.47926707288,43.001880188019,3750788.5982131,-232.38867015614,2639558.0119379,48.201880188019,0,0
82.588233648916,-182.49679666287,43.006310631063,3750788.5982131,-232.38867015614,2639558.0119379,48.206310631063,0,0
82.588234077924,-182.51432625285,43.010741074107,3750788.5982131,-232.38867015614,2639558.0119379,48.210741074107,0,0
82.588234506931,-182.53185584283,43.015171517152,3750788.5982131,-232.38867015614,2639558.0119379,48.215171517152,0,0
82.588234935939,-182.54938543281,43.019601960196,3750788.5982131,-232.38867015614,2639558.0119379,48.219601960196,0,0
82.588235364947,-182.5669150228,43.02403240324,3750788.5982131,-232.38867015614,2639558.0119379,48.22403240324,0,0
82.588235793955,-182.58444461278,43.028462846285,3750788.5982131,-232.38867015614,2639558.0119379,48.228462846285,0,0
82.588236222962,-182.60197420276,43.032893289329,3750788.5982131,-232.38867015614,2639558.0119379,48.232893289329,0,0
82.58823665197,-182.61950379274,43.037323732373,3750788.5982131,-232.38867015614,2639558.0119379,48.237323732373,0,0
82.588237080978,-182.63703338273,43.041754175418,3750788.5982131,-232.38867015614,2639558.0119379,48.241754175418,0,0
82.588237509985,-182.65456297271,43.046184618462,3750788.5982131,-232.38867015614,2639558.0119379,48.246184618462,0,0
82.588237938993,-182.67209256269,43.050615061506,3750788.5982131,-232.38867015614,2639558.0119379,48.250615061506,0,0
82.588238368001,-182.68962215267,43.05504550455,3750788.5982131,-232.38867015614,2639558.0119379,48.25504550455,0,0
82.588238797008,-182.70715174266,43.059475947595,3750788.5982131,-232.38867015614,2639558.0119379,48.259475947595,0,0
82.588239226016,-182.72468133264,43.063906390639,3750788.5982131,-232.38867015614,2639558.0119379,48.263906390639,0,0
82.588239655024,-182.74221092262,43.068336833683,3750788.5982131,-232.38867015614,2639558.0119379,48.268336833683,0,0
82.588240084031,-182.7597405126,43.072767276728,3750788.5982131,-232.38867015614,2639558.0119379,48.272767276728,0,0
82.588240513039,-182.77727010259,43.077197719772,3750788.5982131,-232.38867015614,2639558.0119379,48.277197719772,0,0
82.588240942047,-182.79479969257,43.081628162816,3750788.5982131,-232.38867015614,2639558.0119379,48.281628162816,0,0
82.588241371054,-182.81232928255,43.086058605861,3750788.5982131,-232.38867015614,2639558.0119379,48.286058605861,0,0
82.588241800062,-182.82985887253,43.090489048905,3750788.5982131,-232.38867015614,2639558.0119379,48.290489048905,0,0
82.58824222907,-182.84738846252,43.094919491949,3750788.5982131,-232.38867015614,2639558.0119379,48.294919491949,0,0
82.588242658077,-182.8649180525,43.099349934993,3750788.5982131,-232.38867015614,2639558.0119379,48.299349934994,0,0
82.588243087085,-182.88244764248,43.103780378038,3750788.5982131,-232.38867015614,2639558.0119379,48.303780378038,0,0
82.588243516093,-182.89997723246,43.108210821082,3750788.5982131,-232.38867015614,2639558.0119379,48.308210821082,0,0
82.5882439451,-182.91750682245,43.112641264126,3750788.5982131,-232.38867015614,2639558.0119379,48.312641264126,0,0
82.588244374108,-182.93503641243,43.117071707171,3750788.5982131,-232.38867015614,2639558.0119379,48.317071707171,0,0
82.588244803116,-182.95256600241,43.121502150215,3750788.5982131,-232.38867015614,2639558.0119379,48.321502150215,0,0
82.588245232123,-182.97009559239,43.125932593259,3750788.5982131,-232.38867015614,2639558.0119379,48.325932593259,0,0
82.588245661131,-182.98762518238,43.130363036304,3750788.5982131,-232.38867015614,2639558.0119379,48.330363036304,0,0
82.588246090139,-183.00515477236,43.134793479348,3750788.5982131,-232.38867015614,2639558.0119379,48.334793479348,0,0
82.588246519146,-183.02268436234,43.139223922392,3750788.5982131,-232.38867015614,2639558.0119379,48.339223922392,0,0
82.588246948154,-183.04021395232,43.143654365437,3750788.5982131,-232.38867015614,2639558.0119379,48.343654365437,0,0
82.588247377162,-183.05774354231,43.148084808481,3750788.5982131,-232.38867015614,2639558.0119379,48.348084808481,0,0
82.588247806169,-183.07527313229,43.152515251525,3750788.5982131,-232.38867015614,2639558.0119379,48.352515251525,0,0
82.588248235177,-183.09280272227,43.156945694569,3750788.5982131,-232.38867015614,2639558.0119379,48.356945694569,0,0
82.588248664185,-183.11033231225,43.161376137614,3750788.5982131,-232.38867015614,2639558.0119379,48.361376137614,0,0
82.588249093192,-183.12786190224,43.165806580658,3750788.5982131,-232.38867015614,2639558.0119379,48.365806580658,0,0
82.5882495222,-183.14539149222,43.170237023702,3750788.5982131,-232.38867015614,2639558.0119379,48.370237023702,0,0
82.588249951208,-183.1629210822,43.174667466747,3750788.5982131,-232.38867015614,2639558.0119379,48.374667466747,0,0
82.588250380215,-183.18045067218,43.179097909791,3750788.5982131,-232.38867015614,2639558.0119379,48.379097909791,0,0
82.588250809223,-183.19798026217,43.183528352835,3750788.5982131,-232.38867015614,2639558.0119379,48.383528352835,0,0
82.588251238231,-183.21550985215,43.18795879588,3750788.5982131,-232.38867015614,2639558.0119379,48.38795879588,0,0
82.588251667238,-183.23303944213,43.192389238924,3750788.5982131,-232.38867015614,2639558.0119379,48.392389238924,0,0
82.588252096246,-183.25056903211,43.196819681968,3750788.5982131,-232.38867015614,2639558.0119379,48.396819681968,0,0
82.588252525254,-183.2680986221,43.201250125012,3750788.5982131,-232.38867015614,2639558.0119379,48.401250125013,0,0
82.588252954262,-183.28562821208,43.205680568057,3750788.5982131,-232.38867015614,2639558.0119379,48.405680568057,0,0
82.588253383269,-183.30315780206,43.210111011101,3750788.5982131,-232.38867015614,2639558.0119379,48.410111011101,0,0
82.588253812277,-183.32068739204,43.214541454145,3750788.5982131,-232.38867015614,2639558.0119379,48.414541454145,0,0
82.588254241285,-183.33821698203,43.21897189719,3750788.5982131,-232.38867015614,2639558.0119379,48.41897189719,0,0
82.588254670292,-183.35574657201,43.223402340234,3750788.5982131,-232.38867015614,2639558.0119379,48.423402340234,0,0
82.5882550993,-183.37327616199,43.227832783278,3750788.5982131,-232.38867015614,2639558.0119379,48.427832783278,0,0
82.588255528308,-183.39080575198,43.232263226323,3750788.5982131,-232.38867015614,2639558.0119379,48.432263226323,0,0
82.588255957315,-183.40833534196,43.236693669367,3750788.5982131,-232.38867015614,2639558.0119379,48.436693669367,0,0
82.588256386323,-183.42586493194,43.241124112411,3750788.5982131,-232.38867015614,2639558.0119379,48.441124112411,0,0
82.588256815331,-183.44339452192,43.245554555456,3750788.5982131,-232.38867015614,2639558.0119379,48.445554555456,0,0
82.588257244338,-183.46092411191,43.2499849985,3750788.5982131,-232.38867015614,2639558.0119379,48.4499849985,0,0
82.588257673346,-183.47845370189,43.254415441544,3750788.5982131,-232.38867015614,2639558.0119379,48.454415441544,0,0
82.588258102354,-183.49598329187,43.258845884588,3750788.5982131,-232.38867015614,2639558.0119379,48.458845884588,0,0
82.588258531361,-183.51351288185,43.263276327633,3750788.5982131,-232.38867015614,2639558.0119379,48.463276327633,0,0
82.588258960369,-183.53104247184,43.267706770677,3750788.5982131,-232.38867015614,2639558.0119379,48.467706770677,0,0
82.588259389377,-183.54857206182,43.272137213721,3750788.5982131,-232.38867015614,2639558.0119379,48.472137213721,0,0
82.588259818384,-183.5661016518,43.276567656766,3750788.5982131,-232.38867015614,2639558.0119379,48.476567656766,0,0
82.588260247392,-183.58363124178,43.28099809981,3750788.5982131,-232.38867015614,2639558.0119379,48.48099809981,0,0
82.5882606764,-183.60116083177,43.285428542854,3750788.5982131,-232.38867015614,2639558.0119379,48.485428542854,0,0
82.588261105407,-183.61869042175,43.289858985899,3750788.5982131,-232.38867015614,2639558.0119379,48.489858985899,0,0
82.588261534415,-183.63622001173,43.294289428943,3750788.5982131,-232.38867015614,2639558.0119379,48.494289428943,0,0
82.588261963423,-183.65374960171,43.298719871987,3750788.5982131,-232.38867015614,2639558.0119379,48.498719871987,0,0
82.58826239243,-183.6712791917,43.303150315032,3750788.5982131,-232.38867015614,2639558.0119379,48.503150315032,0,0
82.588262821438,-183.68880878168,43.307580758076,3750788.5982131,-232.38867015614,2639558.0119379,48.507580758076,0,0
82.588263250446,-183.70633837166,43.31201120112,3750788.5982131,-232.38867015614,2639558.0119379,48.51201120112,0,0
82.588263679453,-183.72386796164,43.316441644164,3750788.5982131,-232.38867015614,2639558.0119379,48.516441644164,0,0
82.588264108461,-183.74139755163,43.320872087209,3750788.5982131,-232.38867015614,2639558.0119379,48.520872087209,0,0
82.588264537469,-183.75892714161,43.325302530253,3750788.5982131,-232.38867015614,2639558.0119379,48.525302530253,0,0
82.588264966476,-183.77645673159,43.329732973297,3750788.5982131,-232.38867015614,2639558.0119379,48.529732973297,0,0
82.588265395484,-183.79398632157,43.334163416342,3750788.5982131,-232.38867015614,2639558.0119379,48.534163416342,0,0
82.588265824492,-183.81151591156,43.338593859386,3750788.5982131,-232.38867015614,2639558.0119379,48.538593859386,0,0
82.588266253499,-183.82904550154,43.34302430243,3750788.5982131,-232.38867015614,2639558.0119379,48.54302430243,0,0
82.588266682507,-183.84657509152,43.347454745475,3750788.5982131,-232.38867015614,2639558.0119379,48.547454745475,0,0
82.588267111515,-183.8641046815,43.351885188519,3750788.5982131,-232.38867015614,2639558.0119379,48.551885188519,0,0
82.588267540522,-183.88163427149,43.356315631563,3750788.5982131,-232.38867015614,2639558.0119379,48.556315631563,0,0
82.58826796953,-183.89916386147,43.360746074607,3750788.5982131,-232.38867015614,2639558.0119379,48.560746074607,0,0
82.588268398538,-183.91669345145,43.365176517652,3750788.5982131,-232.38867015614,2639558.0119379,48.565176517652,0,0
82.588268827546,-183.93422304143,43.369606960696,3750788.5982131,-232.38867015614,2639558.0119379,48.569606960696,0,0
82.588269256553,-183.95175263142,43.37403740374,3750788.5982131,-232.38867015614,2639558.0119379,48.57403740374,0,0
82.588269685561,-183.9692822214,43.378467846785,3750788.5982131,-232.38867015614,2639558.0119379,48.578467846785,0,0
82.588270114569,-183.98681181138,43.382898289829,3750788.5982131,-232.38867015614,2639558.0119379,48.582898289829,0,0
82.588270543576,-184.00434140136,43.387328732873,3750788.5982131,-232.38867015614,2639558.0119379,48.587328732873,0,0
82.588270972584,-184.02187099135,43.391759175918,3750788.5982131,-232.38867015614,2639558.0119379,48.591759175918,0,0
82.588271401592,-184.03940058133,43.396189618962,3750788.5982131,-232.38867015614,2639558.0119379,48.596189618962,0,0
82.588271830599,-184.05693017131,43.400620062006,3750788.5982131,-232.38867015614,2639558.0119379,48.600620062006,0,0
82.588272259607,-184.07445976129,43.405050505051,3750788.5982131,-232.38867015614,2639558.0119379,48.605050505051,0,0
82.588272688615,-184.09198935128,43.409480948095,3750788.5982131,-232.38867015614,2639558.0119379,48.609480948095,0,0
82.588273117622,-184.10951894126,43.413911391139,3750788.5982131,-232.38867015614,2639558.0119379,48.613911391139,0,0
82.58827354663,-184.12704853124,43.418341834183,3750788.5982131,-232.38867015614,2639558.0119379,48.618341834183,0,0
82.588273975638,-184.14457812122,43.422772277228,3750788.5982131,-232.38867015614,2639558.0119379,48.622772277228,0,0
82.588274404645,-184.16210771121,43.427202720272,3750788.5982131,-232.38867015614,2639558.0119379,48.627202720272,0,0
82.588274833653,-184.17963730119,43.431633163316,3750788.5982131,-232.38867015614,2639558.0119379,48.631633163316,0,0
82.588275262661,-184.19716689117,43.436063606361,3750788.5982131,-232.38867015614,2639558.0119379,48.636063606361,0,0
82.588275691668,-184.21469648115,43.440494049405,3750788.5982131,-232.38867015614,2639558.0119379,48.640494049405,0,0
82.588276120676,-184.23222607114,43.444924492449,3750788.5982131,-232.38867015614,2639558.0119379,48.644924492449,0,0
82.588276549684,-184.24975566112,43.449354935494,3750788.5982131,-232.38867015614,2639558.0119379,48.649354935494,0,0
82.588276978691,-184.2672852511,43.453785378538,3750788.5982131,-232.38867015614,2639558.0119379,48.653785378538,0,0
82.588277407699,-184.28481484108,43.458215821582,3750788.5982131,-232.38867015614,2639558.0119379,48.658215821582,0,0
82.588277836707,-184.30234443107,43.462646264626,3750788.5982131,-232.38867015614,2639558.0119379,48.662646264626,0,0
82.588278265714,-184.31987402105,43.467076707671,3750788.5982131,-232.38867015614,2639558.0119379,48.667076707671,0,0
82.588278694722,-184.33740361103,43.471507150715,3750788.5982131,-232.38867015614,2639558.0119379,48.671507150715,0,0
82.58827912373,-184.35493320101,43.475937593759,3750788.5982131,-232.38867015614,2639558.0119379,48.675937593759,0,0
82.588279552737,-184.372462791,43.480368036804,3750788.5982131,-232.38867015614,2639558.0119379,48.680368036804,0,0
82.588279981745,-184.38999238098,43.484798479848,3750788.5982131,-232.38867015614,2639558.0119379,48.684798479848,0,0
82.588280410753,-184.40752197096,43.489228922892,3750788.5982131,-232.38867015614,2639558.0119379,48.689228922892,0,0
82.58828083976,-184.42505156094,43.493659365937,3750788.5982131,-232.38867015614,2639558.0119379,48.693659365937,0,0
82.588281268768,-184.44258115093,43.498089808981,3750788.5982131,-232.38867015614,2639558.0119379,48.698089808981,0,0
82.588281697776,-184.46011074091,43.502520252025,3750788.5982131,-232.38867015614,2639558.0119379,48.702520252025,0,0
82.588282126783,-184.47764033089,43.50695069507,3750788.5982131,-232.38867015614,2639558.0119379,48.70695069507,0,0
82.588282555791,-184.49516992087,43.511381138114,3750788.5982131,-232.38867015614,2639558.0119379,48.711381138114,0,0
82.588282984799,-184.51269951086,43.515811581158,3750788.5982131,-232.38867015614,2639558.0119379,48.715811581158,0,0
82.588283413806,-184.53022910084,43.520242024202,3750788.5982131,-232.38867015614,2639558.0119379,48.720242024202,0,0
82.588283842814,-184.54775869082,43.524672467247,3750788.5982131,-232.38867015614,2639558.0119379,48.724672467247,0,0
82.588284271822,-184.5652882808,43.529102910291,3750788.5982131,-232.38867015614,2639558.0119379,48.729102910291,0,0
82.588284700829,-184.58281787079,43.533533353335,3750788.5982131,-232.38867015614,2639558.0119379,48.733533353335,0,0
82.588285129837,-184.60034746077,43.53796379638,3750788.5982131,-232.38867015614,2639558.0119379,48.73796379638,0,0
82.588285558845,-184.61787705075,43.542394239424,3750788.5982131,-232.38867015614,2639558.0119379,48.742394239424,0,0
82.588285987853,-184.63540664073,43.546824682468,3750788.5982131,-232.38867015614,2639558.0119379,48.746824682468,0,0
82.58828641686,-184.65293623072,43.551255125513,3750788.5982131,-232.38867015614,2639558.0119379,48.751255125513,0,0
82.588286845868,-184.6704658207,43.555685568557,3750788.5982131,-232.38867015614,2639558.0119379,48.755685568557,0,0
82.588287274876,-184.68799541068,43.560116011601,3750788.5982131,-232.38867015614,2639558.0119379,48.760116011601,0,0
82.588287703883,-184.70552500066,43.564546454645,3750788.5982131,-232.38867015614,2639558.0119379,48.764546454645,0,0
82.588288132891,-184.72305459065,43.56897689769,3750788.5982131,-232.38867015614,2639558.0119379,48.76897689769,0,0
82.588288561899,-184.74058418063,43.573407340734,3750788.5982131,-232.38867015614,2639558.0119379,48.773407340734,0,0
82.588288990906,-184.75811377061,43.577837783778,3750788.5982131,-232.38867015614,2639558.0119379,48.777837783778,0,0
82.588289419914,-184.7756433606,43.582268226823,3750788.5982131,-232.38867015614,2639558.0119379,48.782268226823,0,0
82.588289848922,-184.79317295058,43.586698669867,3750788.5982131,-232.38867015614,2639558.0119379,48.786698669867,0,0
82.588290277929,-184.81070254056,43.591129112911,3750788.5982131,-232.38867015614,2639558.0119379,48.791129112911,0,0
82.588290706937,-184.82823213054,43.595559555956,3750788.5982131,-232.38867015614,2639558.0119379,48.795559555956,0,0
82.588291135945,-184.84576172053,43.599989999,3750788.5982131,-232.38867015614,2639558.0119379,48.799989999,0,0
82.588291564952,-184.86329131051,43.604420442044,3750788.5982131,-232.38867015614,2639558.0119379,48.804420442044,0,0
82.58829199396,-184.88082090049,43.608850885089,3750788.5982131,-232.38867015614,2639558.0119379,48.808850885089,0,0
82.588292422968,-184.89835049047,43.613281328133,3750788.5982131,-232.38867015614,2639558.0119379,48.813281328133,0,0
82.588292851975,-184.91588008046,43.617711771177,3750788.5982131,-232.38867015614,2639558.0119379,48.817711771177,0,0
82.588293280983,-184.93340967044,43.622142214221,3750788.5982131,-232.38867015614,2639558.0119379,48.822142214221,0,0
82.588293709991,-184.95093926042,43.626572657266,3750788.5982131,-232.38867015614,2639558.0119379,48.826572657266,0,0
82.588294138998,-184.9684688504,43.63100310031,3750788.5982131,-232.38867015614,2639558.0119379,48.83100310031,0,0
82.588294568006,-184.98599844039,43.635433543354,3750788.5982131,-232.38867015614,2639558.0119379,48.835433543354,0,0
82.588294997014,-185.00352803037,43.639863986399,3750788.5982131,-232.38867015614,2639558.0119379,48.839863986399,0,0
82.588295426021,-185.02105762035,43.644294429443,3750788.5982131,-232.38867015614,2639558.0119379,48.844294429443,0,0
82.588295855029,-185.03858721033,43.648724872487,3750788.5982131,-232.38867015614,2639558.0119379,48.848724872487,0,0
82.588296284037,-185.05611680032,43.653155315532,3750788.5982131,-232.38867015614,2639558.0119379,48.853155315532,0,0
82.588296713044,-185.0736463903,43.657585758576,3750788.5982131,-232.38867015614,2639558.0119379,48.857585758576,0,0
82.588297142052,-185.09117598028,43.66201620162,3750788.5982131,-232.38867015614,2639558.0119379,48.86201620162,0,0
82.58829757106,-185.10870557026,43.666446644664,3750788.5982131,-232.38867015614,2639558.0119379,48.866446644664,0,0
82.588298000067,-185.12623516025,43.670877087709,3750788.5982131,-232.38867015614,2639558.0119379,48.870877087709,0,0
82.588298429075,-185.14376475023,43.675307530753,3750788.5982131,-232.38867015614,2639558.0119379,48.875307530753,0,0
82.588298858083,-185.16129434021,43.679737973797,3750788.5982131,-232.38867015614,2639558.0119379,48.879737973797,0,0
82.58829928709,-185.17882393019,43.684168416842,3750788.5982131,-232.38867015614,2639558.0119379,48.884168416842,0,0
82.588299716098,-185.19635352018,43.688598859886,3750788.5982131,-232.38867015614,2639558.0119379,48.888598859886,0,0
82.588300145106,-185.21388311016,43.69302930293,3750788.5982131,-232.38867015614,2639558.0119379,48.89302930293,0,0
82.588300574113,-185.23141270014,43.697459745975,3750788.5982131,-232.38867015614,2639558.0119379,48.897459745975,0,0
82.588301003121,-185.24894229012,43.701890189019,3750788.5982131,-232.38867015614,2639558.0119379,48.901890189019,0,0
82.588301432129,-185.26647188011,43.706320632063,3750788.5982131,-232.38867015614,2639558.0119379,48.906320632063,0,0
82.588301861137,-185.28400147009,43.710751075108,3750788.5982131,-232.38867015614,2639558.0119379,48.910751075108,0,0
82.588302290144,-185.30153106007,43.715181518152,3750788.5982131,-232.38867015614,2639558.0119379,48.915181518152,0,0
82.588302719152,-185.31906065005,43.719611961196,3750788.5982131,-232.38867015614,2639558.0119379,48.919611961196,0,0
82.58830314816,-185.33659024004,43.72404240424,3750788.5982131,-232.38867015614,2639558.0119379,48.92404240424,0,0
82.588303577167,-185.35411983002,43.728472847285,3750788.5982131,-232.38867015614,2639558.0119379,48.928472847285,0,0
82.588304006175,-185.37164942,43.732903290329,3750788.5982131,-232.38867015614,2639558.0119379,48.932903290329,0,0
82.588304435183,-185.38917900998,43.737333733373,3750788.5982131,-232.38867015614,2639558.0119379,48.937333733373,0,0
82.58830486419,-185.40670859997,43.741764176418,3750788.5982131,-232.38867015614,2639558.0119379,48.941764176418,0,0
82.588305293198,-185.42423818995,43.746194619462,3750788.5982131,-232.38867015614,2639558.0119379,48.946194619462,0,0
82.588305722206,-185.44176777993,43.750625062506,3750788.5982131,-232.38867015614,2639558.0119379,48.950625062506,0,0
82.588306151213,-185.45929736991,43.755055505551,3750788.5982131,-232.38867015614,2639558.0119379,48.955055505551,0,0
82.588306580221,-185.4768269599,43.759485948595,3750788.5982131,-232.38867015614,2639558.0119379,48.959485948595,0,0
82.588307009229,-185.49435654988,43.763916391639,3750788.5982131,-232.38867015614,2639558.0119379,48.963916391639,0,0
82.588307438236,-185.51188613986,43.768346834683,3750788.5982131,-232.38867015614,2639558.0119379,48.968346834683,0,0
82.588307867244,-185.52941572984,43.772777277728,3750788.5982131,-232.38867015614,2639558.0119379,48.972777277728,0,0
82.588308296252,-185.54694531983,43.777207720772,3750788.5982131,-232.38867015614,2639558.0119379,48.977207720772,0,0
82.588308725259,-185.56447490981,43.781638163816,3750788.5982131,-232.38867015614,2639558.0119379,48.981638163816,0,0
82.588309154267,-185.58200449979,43.786068606861,3750788.5982131,-232.38867015614,2639558.0119379,48.986068606861,0,0
82.588309583275,-185.59953408977,43.790499049905,3750788.5982131,-232.38867015614,2639558.0119379,48.990499049905,0,0
82.588310012282,-185.61706367976,43.794929492949,3750788.5982131,-232.38867015614,2639558.0119379,48.994929492949,0,0
82.58831044129,-185.63459326974,43.799359935994,3750788.5982131,-232.38867015614,2639558.0119379,48.999359935994,0,0
82.588310870298,-185.65212285972,43.803790379038,3750788.5982131,-232.38867015614,2639558.0119379,49.003790379038,0,0
82.588311299305,-185.6696524497,43.808220822082,3750788.5982131,-232.38867015614,2639558.0119379,49.008220822082,0,0
82.588311728313,-185.68718203969,43.812651265127,3750788.5982131,-232.38867015614,2639558.0119379,49.012651265127,0,0
82.588312157321,-185.70471162967,43.817081708171,3750788.5982131,-232.38867015614,2639558.0119379,49.017081708171,0,0
82.588312586328,-185.72224121965,43.821512151215,3750788.5982131,-232.38867015614,2639558.0119379,49.021512151215,0,0
82.588313015336,-185.73977080963,43.825942594259,3750788.5982131,-232.38867015614,2639558.0119379,49.025942594259,0,0
82.588313444344,-185.75730039962,43.830373037304,3750788.5982131,-232.38867015614,2639558.0119379,49.030373037304,0,0
82.588313873351,-185.7748299896,43.834803480348,3750788.5982131,-232.38867015614,2639558.0119379,49.034803480348,0,0
82.588314302359,-185.79235957958,43.839233923392,3750788.5982131,-232.38867015614,2639558.0119379,49.039233923392,0,0
82.588314731367,-185.80988916956,43.843664366437,3750788.5982131,-232.38867015614,2639558.0119379,49.043664366437,0,0
82.588315160374,-185.82741875955,43.848094809481,3750788.5982131,-232.38867015614,2639558.0119379,49.048094809481,0,0
82.588315589382,-185.84494834953,43.852525252525,3750788.5982131,-232.38867015614,2639558.0119379,49.052525252525,0,0
82.58831601839,-185.86247793951,43.85695569557,3750788.5982131,-232.38867015614,2639558.0119379,49.05695569557,0,0
82.588316447397,-185.88000752949,43.861386138614,3750788.5982131,-232.38867015614,2639558.0119379,49.061386138614,0,0
82.588316876405,-185.89753711948,43.865816581658,3750788.5982131,-232.38867015614,2639558.0119379,49.065816581658,0,0
82.588317305413,-185.91506670946,43.870247024702,3750788.5982131,-232.38867015614,2639558.0119379,49.070247024702,0,0
82.58831773442,-185.93259629944,43.874677467747,3750788.5982131,-232.38867015614,2639558.0119379,49.074677467747,0,0
82.588318163428,-185.95012588942,43.879107910791,3750788.5982131,-232.38867015614,2639558.0119379,49.079107910791,0,0
82.588318592436,-185.96765547941,43.883538353835,3750788.5982131,-232.38867015614,2639558.0119379,49.083538353835,0,0
82.588319021444,-185.98518506939,43.88796879688,3750788.5982131,-232.38867015614,2639558.0119379,49.08796879688,0,0
82.588319450451,-186.00271465937,43.892399239924,3750788.5982131,-232.38867015614,2639558.0119379,49.092399239924,0,0
82.588319879459,-186.02024424935,43.896829682968,3750788.5982131,-232.38867015614,2639558.0119379,49.096829682968,0,0
82.588320308467,-186.03777383934,43.901260126013,3750788.5982131,-232.38867015614,2639558.0119379,49.101260126013,0,0
82.588320737474,-186.05530342932,43.905690569057,3750788.5982131,-232.38867015614,2639558.0119379,49.105690569057,0,0
82.588321166482,-186.0728330193,43.910121012101,3750788.5982131,-232.38867015614,2639558.0119379,49.110121012101,0,0
82.58832159549,-186.09036260928,43.914551455146,3750788.5982131,-232.38867015614,2639558.0119379,49.114551455146,0,0
82.588322024497,-186.10789219927,43.91898189819,3750788.5982131,-232.38867015614,2639558.0119379,49.11898189819,0,0
82.588322453505,-186.12542178925,43.923412341234,3750788.5982131,-232.38867015614,2639558.0119379,49.123412341234,0,0
82.588322882513,-186.14295137923,43.927842784278,3750788.5982131,-232.38867015614,2639558.0119379,49.127842784278,0,0
82.58832331152,-186.16048096921,43.932273227323,3750788.5982131,-232.38867015614,2639558.0119379,49.132273227323,0,0
82.588323740528,-186.1780105592,43.936703670367,3750788.5982131,-232.38867015614,2639558.0119379,49.136703670367,0,0
82.588324169536,-186.19554014918,43.941134113411,3750788.5982131,-232.38867015614,2639558.0119379,49.141134113411,0,0
82.588324598543,-186.21306973916,43.945564556456,3750788.5982131,-232.38867015614,2639558.0119379,49.145564556456,0,0
82.588325027551,-186.23059932915,43.9499949995,3750788.5982131,-232.38867015614,2639558.0119379,49.1499949995,0,0
82.588325456559,-186.24812891913,43.954425442544,3750788.5982131,-232.38867015614,2639558.0119379,49.154425442544,0,0
82.588325885566,-186.26565850911,43.958855885589,3750788.5982131,-232.38867015614,2639558.0119379,49.158855885589,0,0
82.588326314574,-186.28318809909,43.963286328633,3750788.5982131,-232.38867015614,2639558.0119379,49.163286328633,0,0
82.588326743582,-186.30071768908,43.967716771677,3750788.5982131,-232.38867015614,2639558.0119379,49.167716771677,0,0
82.588327172589,-186.31824727906,43.972147214721,3750788.5982131,-232.38867015614,2639558.0119379,49.172147214721,0,0
82.588327601597,-186.33577686904,43.976577657766,3750788.5982131,-232.38867015614,2639558.0119379,49.176577657766,0,0
82.588328030605,-186.35330645902,43.98100810081,3750788.5982131,-232.38867015614,2639558.0119379,49.18100810081,0,0
82.588328459612,-186.37083604901,43.985438543854,3750788.5982131,-232.38867015614,2639558.0119379,49.185438543854,0,0
82.58832888862,-186.38836563899,43.989868986899,3750788.5982131,-232.38867015614,2639558.0119379,49.189868986899,0,0
82.588329317628,-186.40589522897,43.994299429943,3750788.5982131,-232.38867015614,2639558.0119379,49.194299429943,0,0
82.588329746635,-186.42342481895,43.998729872987,3750788.5982131,-232.38867015614,2639558.0119379,49.198729872987,0,0
82.588330175643,-186.44095440894,44.003160316032,3750788.5982131,-232.38867015614,2639558.0119379,49.203160316032,0,0
82.588330604651,-186.45848399892,44.007590759076,3750788.5982131,-232.38867015614,2639558.0119379,49.207590759076,0,0
82.588331033658,-186.4760135889,44.01202120212,3750788.5982131,-232.38867015614,2639558.0119379,49.21202120212,0,0
82.588331462666,-186.49354317888,44.016451645165,3750788.5982131,-232.38867015614,2639558.0119379,49.216451645165,0,0
82.588331891674,-186.51107276887,44.020882088209,3750788.5982131,-232.38867015614,2639558.0119379,49.220882088209,0,0
82.588332320681,-186.52860235885,44.025312531253,3750788.5982131,-232.38867015614,2639558.0119379,49.225312531253,0,0
82.588332749689,-186.54613194883,44.029742974297,3750788.5982131,-232.38867015614,2639558.0119379,49.229742974297,0,0
82.588333178697,-186.56366153881,44.034173417342,3750788.5982131,-232.38867015614,2639558.0119379,49.234173417342,0,0
82.588333607704,-186.5811911288,44.038603860386,3750788.5982131,-232.38867015614,2639558.0119379,49.238603860386,0,0
82.588334036712,-186.59872071878,44.04303430343,3750788.5982131,-232.38867015614,2639558.0119379,49.24303430343,0,0
82.58833446572,-186.61625030876,44.047464746475,3750788.5982131,-232.38867015614,2639558.0119379,49.247464746475,0,0
82.588334894727,-186.63377989874,44.051895189519,3750788.5982131,-232.38867015614,2639558.0119379,49.251895189519,0,0
82.588335323735,-186.65130948873,44.056325632563,3750788.5982131,-232.38867015614,2639558.0119379,49.256325632563,0,0
82.588335752743,-186.66883907871,44.060756075608,3750788.5982131,-232.38867015614,2639558.0119379,49.260756075608,0,0
82.588336181751,-186.68636866869,44.065186518652,3750788.5982132,-232.38867015614,2639558.0119379,49.265186518652,0,0
82.588336610758,-186.70389825867,44.069616961696,3750788.5982132,-232.38867015614,2639558.0119379,49.269616961696,0,0
82.588337039766,-186.72142784866,44.07404740474,3750788.5982132,-232.38867015614,2639558.0119379,49.27404740474,0,0
82.588337468774,-186.73895743864,44.078477847785,3750788.5982132,-232.38867015614,2639558.0119379,49.278477847785,0,0
82.588337897781,-186.75648702862,44.082908290829,3750788.5982132,-232.38867015614,2639558.0119379,49.282908290829,0,0
82.588338326789,-186.7740166186,44.087338733873,3750788.5982132,-232.38867015614,2639558.0119379,49.287338733873,0,0
82.588338755797,-186.79154620859,44.091769176918,3750788.5982132,-232.38867015614,2639558.0119379,49.291769176918,0,0
82.588339184804,-186.80907579857,44.096199619962,3750788.5982132,-232.38867015614,2639558.0119379,49.296199619962,0,0
82.588339613812,-186.82660538855,44.100630063006,3750788.5982132,-232.38867015614,2639558.0119379,49.300630063006,0,0
82.58834004282,-186.84413497853,44.105060506051,3750788.5982132,-232.38867015614,2639558.0119379,49.305060506051,0,0
82.588340471827,-186.86166456852,44.109490949095,3750788.5982132,-232.38867015614,2639558.0119379,49.309490949095,0,0
82.588340900835,-186.8791941585,44.113921392139,3750788.5982132,-232.38867015614,2639558.0119379,49.313921392139,0,0
82.588341329843,-186.89672374848,44.118351835184,3750788.5982132,-232.38867015614,2639558.0119379,49.318351835184,0,0
82.58834175885,-186.91425333846,44.122782278228,3750788.5982132,-232.38867015614,2639558.0119379,49.322782278228,0,0
82.588342187858,-186.93178292845,44.127212721272,3750788.5982132,-232.38867015614,2639558.0119379,49.327212721272,0,0
82.588342616866,-186.94931251843,44.131643164316,3750788.5982132,-232.38867015614,2639558.0119379,49.331643164316,0,0
82.588343045873,-186.96684210841,44.136073607361,3750788.5982132,-232.38867015614,2639558.0119379,49.336073607361,0,0
82.588343474881,-186.98437169839,44.140504050405,3750788.5982132,-232.38867015614,2639558.0119379,49.340504050405,0,0
82.588343903889,-187.00190128838,44.144934493449,3750788.5982132,-232.38867015614,2639558.0119379,49.344934493449,0,0
82.588344332896,-187.01943087836,44.149364936494,3750788.5982132,-232.38867015614,2639558.0119379,49.349364936494,0,0
82.588344761904,-187.03696046834,44.153795379538,3750788.5982132,-232.38867015614,2639558.0119379,49.353795379538,0,0
82.588345190912,-187.05449005832,44.158225822582,3750788.5982132,-232.38867015614,2639558.0119379,49.358225822582,0,0
82.588345619919,-187.07201964831,44.162656265627,3750788.5982132,-232.38867015614,2639558.0119379,49.362656265627,0,0
82.588346048927,-187.08954923829,44.167086708671,3750788.5982132,-232.38867015614,2639558.0119379,49.367086708671,0,0
82.588346477935,-187.10707882827,44.171517151715,3750788.5982132,-232.38867015614,2639558.0119379,49.371517151715,0,0
82.588346906942,-187.12460841825,44.175947594759,3750788.5982132,-232.38867015614,2639558.0119379,49.375947594759,0,0
82.58834733595,-187.14213800824,44.180378037804,3750788.5982132,-232.38867015614,2639558.0119379,49.380378037804,0,0
82.588347764958,-187.15966759822,44.184808480848,3750788.5982132,-232.38867015614,2639558.0119379,49.384808480848,0,0
82.588348193965,-187.1771971882,44.189238923892,3750788.5982132,-232.38867015614,2639558.0119379,49.389238923892,0,0
82.588348622973,-187.19472677818,44.193669366937,3750788.5982132,-232.38867015614,2639558.0119379,49.393669366937,0,0
82.588349051981,-187.21225636817,44.198099809981,3750788.5982132,-232.38867015614,2639558.0119379,49.398099809981,0,0
82.588349480988,-187.22978595815,44.202530253025,3750788.5982132,-232.38867015614,2639558.0119379,49.402530253025,0,0
82.588349909996,-187.24731554813,44.20696069607,3750788.5982132,-232.38867015614,2639558.0119379,49.40696069607,0,0
82.588350339004,-187.26484513811,44.211391139114,3750788.5982132,-232.38867015614,2639558.0119379,49.411391139114,0,0
82.588350768011,-187.2823747281,44.215821582158,3750788.5982132,-232.38867015614,2639558.0119379,49.415821582158,0,0
82.588351197019,-187.29990431808,44.220252025203,3750788.5982132,-232.38867015614,2639558.0119379,49.420252025203,0,0
82.588351626027,-187.31743390806,44.224682468247,3750788.5982132,-232.38867015614,2639558.0119379,49.424682468247,0,0
82.588352055035,-187.33496349804,44.229112911291,3750788.5982132,-232.38867015614,2639558.0119379,49.429112911291,0,0
82.588352484042,-187.35249308803,44.233543354335,3750788.5982132,-232.38867015614,2639558.0119379,49.433543354335,0,0
82.58835291305,-187.37002267801,44.23797379738,3750788.5982132,-232.38867015614,2639558.0119379,49.43797379738,0,0
82.588353342058,-187.38755226799,44.242404240424,3750788.5982132,-232.38867015614,2639558.0119379,49.442404240424,0,0
82.588353771065,-187.40508185797,44.246834683468,3750788.5982132,-232.38867015614,2639558.0119379,49.446834683468,0,0
82.588354200073,-187.42261144796,44.251265126513,3750788.5982132,-232.38867015614,2639558.0119379,49.451265126513,0,0
82.588354629081,-187.44014103794,44.255695569557,3750788.5982132,-232.38867015614,2639558.0119379,49.455695569557,0,0
82.588355058088,-187.45767062792,44.260126012601,3750788.5982132,-232.38867015614,2639558.0119379,49.460126012601,0,0
82.588355487096,-187.4752002179,44.264556455646,3750788.5982132,-232.38867015614,2639558.0119379,49.464556455646,0,0
82.588355916104,-187.49272980789,44.26898689869,3750788.5982132,-232.38867015614,2639558.0119379,49.46898689869,0,0
82.588356345111,-187.51025939787,44.273417341734,3750788.5982132,-232.38867015614,2639558.0119379,49.473417341734,0,0
82.588356774119,-187.52778898785,44.277847784778,3750788.5982132,-232.38867015614,2639558.0119379,49.477847784778,0,0
82.588357203127,-187.54531857783,44.282278227823,3750788.5982132,-232.38867015614,2639558.0119379,49.482278227823,0,0
82.588357632134,-187.56284816782,44.286708670867,3750788.5982132,-232.38867015614,2639558.0119379,49.486708670867,0,0
82.588358061142,-187.5803777578,44.291139113911,3750788.5982132,-232.38867015614,2639558.0119379,49.491139113911,0,0
82.58835849015,-187.59790734778,44.295569556956,3750788.5982132,-232.38867015614,2639558.0119379,49.495569556956,0,0
82.588358919157,-187.61543693776,44.3,3750788.5982132,-232.38867015614,2639558.0119379,49.5,0,0
