disp_x,disp_y,id,stress_xx,stress_xy,stress_yy,x,y,z
60.981878650166,-0.50717141122187,0,257144.43333353,-27781.001833864,5286590.7373367,5.2,0,0
60.981878673725,-0.51084555461112,0.0044304430443045,257144.43333353,-27781.001833864,5286590.7373367,5.2044304430443,0,0
60.981878697284,-0.51451969800037,0.008860886088609,257144.43333353,-27781.001833864,5286590.7373367,5.2088608860886,0,0
60.981878720843,-0.51819384138963,0.013291329132914,257144.43333353,-27781.001833864,5286590.7373367,5.2132913291329,0,0
60.981878744402,-0.52186798477888,0.017721772177218,257144.43333353,-27781.001833864,5286590.7373367,5.2177217721772,0,0
60.981878768723,-0.52554212051901,0.022152215221523,227065.42734536,19512.988094357,5155062.277924,5.2221522152215,0,0
60.981878793382,-0.5292162528681,0.026582658265826,227065.42734536,19512.988094357,5155062.277924,5.2265826582658,0,0
60.98187881804,-0.53289038521719,0.031013101310131,227065.42734536,19512.988094357,5155062.277924,5.2310131013101,0,0
60.981878842699,-0.53656451756628,0.035443544354435,227065.42734536,19512.988094357,5155062.277924,5.2354435443544,0,0
60.981878867358,-0.54023864991538,0.03987398739874,227065.42734536,19512.988094357,5155062.277924,5.2398739873987,0,0
60.981878892016,-0.54391278226447,0.044304430443044,227065.42734536,19512.988094357,5155062.277924,5.244304430443,0,0
60.981878916675,-0.54758691461356,0.048734873487349,227065.42734536,19512.988094357,5155062.277924,5.2487348734873,0,0
60.981878941333,-0.55126104696265,0.053165316531653,227065.42734536,19512.988094357,5155062.277924,5.2531653165317,0,0
60.981878965992,-0.55493517931174,0.057595759575958,227065.42734536,19512.988094357,5155062.277924,5.257595759576,0,0
60.98187899065,-0.55860931166083,0.062026202620262,227065.42734536,19512.988094357,5155062.277924,5.2620262026203,0,0
60.981879015309,-0.56228344400993,0.066456645664567,227065.42734536,19512.988094357,5155062.277924,5.2664566456646,0,0
60.981879039967,-0.56595757635902,0.070887088708871,227065.42734536,19512.988094357,5155062.277924,5.2708870887089,0,0
60.981879064626,-0.56963170870811,0.075317531753175,227065.42734536,19512.988094357,5155062.277924,5.2753175317532,0,0
60.981879089285,-0.5733058410572,0.079747974797479,227065.42734536,19512.988094357,5155062.277924,5.2797479747975,0,0
60.981879113943,-0.57697997340629,0.084178417841784,227065.42734536,19512.988094357,5155062.277924,5.2841784178418,0,0
60.981879138602,-0.58065410575538,0.088608860886088,227065.42734536,19512.988094357,5155062.277924,5.2886088608861,0,0
60.981879164216,-0.58432823907182,0.093039303930393,358000.19453884,-10808.962043234,5141914.7187653,5.2930393039304,0,0
60.981879199683,-0.58800238236125,0.097469746974697,358000.19453884,-10808.962043234,5141914.7187653,5.2974697469747,0,0
60.98187923515,-0.59167652565069,0.101900190019,358000.19453884,-10808.962043234,5141914.7187653,5.301900190019,0,0
60.981879270617,-0.59535066894012,0.10633063306331,358000.19453884,-10808.962043234,5141914.7187653,5.3063306330633,0,0
60.981879306085,-0.59902481222956,0.11076107610761,358000.19453884,-10808.962043234,5141914.7187653,5.3107610761076,0,0
60.981879341552,-0.60269895551899,0.11519151915192,358000.19453884,-10808.962043234,5141914.7187653,5.3151915191519,0,0
60.981879377019,-0.60637309880843,0.11962196219622,358000.19453884,-10808.962043234,5141914.7187653,5.3196219621962,0,0
60.981879412486,-0.61004724209786,0.12405240524052,358000.19453884,-10808.962043234,5141914.7187653,5.3240524052405,0,0
60.981879447953,-0.6137213853873,0.12848284828483,358000.19453884,-10808.962043234,5141914.7187653,5.3284828482848,0,0
60.98187948342,-0.61739552867673,0.13291329132913,358000.19453884,-10808.962043234,5141914.7187653,5.3329132913291,0,0
60.981879518887,-0.62106967196617,0.13734373437344,358000.19453884,-10808.962043234,5141914.7187653,5.3373437343734,0,0
60.981879554354,-0.6247438152556,0.14177417741774,358000.19453884,-10808.962043234,5141914.7187653,5.3417741774177,0,0
60.981879589822,-0.62841795854504,0.14620462046205,358000.19453884,-10808.962043234,5141914.7187653,5.346204620462,0,0
60.981879625289,-0.63209210183447,0.15063506350635,358000.19453884,-10808.962043234,5141914.7187653,5.3506350635064,0,0
60.981879660756,-0.63576624512391,0.15506550655066,358000.19453884,-10808.962043234,5141914.7187653,5.3550655065507,0,0
60.981879696223,-0.63944038841335,0.15949594959496,358000.19453884,-10808.962043234,5141914.7187653,5.359495949595,0,0
60.98187973169,-0.64311453170278,0.16392639263926,358000.19453884,-10808.962043234,5141914.7187653,5.3639263926393,0,0
60.981879767157,-0.64678867499222,0.16835683568357,358000.19453884,-10808.962043234,5141914.7187653,5.3683568356836,0,0
60.981879802624,-0.65046281828165,0.17278727872787,358000.19453884,-10808.962043234,5141914.7187653,5.3727872787279,0,0
60.981879838091,-0.65413696157109,0.17721772177218,358000.19453884,-10808.962043234,5141914.7187653,5.3772177217722,0,0
60.981879873559,-0.65781110486052,0.18164816481648,358000.19453884,-10808.962043234,5141914.7187653,5.3816481648165,0,0
60.981879910259,-0.66148524341149,0.18607860786079,361066.06258005,39819.883847565,5020948.5763813,5.3860786078608,0,0
60.981879949191,-0.66515937338156,0.19050905090509,361066.06258005,39819.883847565,5020948.5763813,5.3905090509051,0,0
60.981879988124,-0.66883350335162,0.19493949394939,361066.06258005,39819.883847565,5020948.5763813,5.3949394939494,0,0
60.981880027057,-0.67250763332169,0.1993699369937,361066.06258005,39819.883847565,5020948.5763813,5.3993699369937,0,0
60.98188006599,-0.67618176329176,0.203800380038,361066.06258005,39819.883847565,5020948.5763813,5.403800380038,0,0
60.981880104923,-0.67985589326182,0.20823082308231,361066.06258005,39819.883847565,5020948.5763813,5.4082308230823,0,0
60.981880143855,-0.68353002323189,0.21266126612661,361066.06258005,39819.883847565,5020948.5763813,5.4126612661266,0,0
60.981880182788,-0.68720415320195,0.21709170917092,361066.06258005,39819.883847565,5020948.5763813,5.4170917091709,0,0
60.981880221721,-0.69087828317202,0.22152215221522,361066.06258005,39819.883847565,5020948.5763813,5.4215221522152,0,0
60.981880260654,-0.69455241314209,0.22595259525953,361066.06258005,39819.883847565,5020948.5763813,5.4259525952595,0,0
60.981880299586,-0.69822654311215,0.23038303830383,361066.06258005,39819.883847565,5020948.5763813,5.4303830383038,0,0
60.981880341457,-0.70190067619266,0.23481348134813,486965.86263769,7147.7097885421,5009889.7481719,5.4348134813481,0,0
60.98188039074,-0.70557481712218,0.23924392439244,486965.86263769,7147.7097885421,5009889.7481719,5.4392439243924,0,0
60.981880440024,-0.70924895805171,0.24367436743674,486965.86263769,7147.7097885421,5009889.7481719,5.4436743674367,0,0
60.981880489308,-0.71292309898123,0.24810481048105,486965.86263769,7147.7097885421,5009889.7481719,5.448104810481,0,0
60.981880538591,-0.71659723991076,0.25253525352535,486965.86263769,7147.7097885421,5009889.7481719,5.4525352535254,0,0
60.981880587875,-0.72027138084028,0.25696569656966,486965.86263769,7147.7097885421,5009889.7481719,5.4569656965697,0,0
60.981880637158,-0.72394552176981,0.26139613961396,486965.86263769,7147.7097885421,5009889.7481719,5.461396139614,0,0
60.981880686442,-0.72761966269933,0.26582658265827,486965.86263769,7147.7097885421,5009889.7481719,5.4658265826583,0,0
60.981880735725,-0.73129380362886,0.27025702570257,486965.86263769,7147.7097885421,5009889.7481719,5.4702570257026,0,0
60.981880785009,-0.73496794455838,0.27468746874687,486965.86263769,7147.7097885421,5009889.7481719,5.4746874687469,0,0
60.981880834292,-0.73864208548791,0.27911791179118,486965.86263769,7147.7097885421,5009889.7481719,5.4791179117912,0,0
60.981880883576,-0.74231622641743,0.28354835483548,486965.86263769,7147.7097885421,5009889.7481719,5.4835483548355,0,0
60.98188093286,-0.74599036734696,0.28797879787979,486965.86263769,7147.7097885421,5009889.7481719,5.4879787978798,0,0
60.981880982143,-0.74966450827648,0.29240924092409,486965.86263769,7147.7097885421,5009889.7481719,5.4924092409241,0,0
60.981881031427,-0.75333864920601,0.2968396839684,486965.86263769,7147.7097885421,5009889.7481719,5.4968396839684,0,0
60.98188108071,-0.75701279013553,0.3012701270127,486965.86263769,7147.7097885421,5009889.7481719,5.5012701270127,0,0
60.981881129994,-0.76068693106506,0.30570057005701,486965.86263769,7147.7097885421,5009889.7481719,5.505700570057,0,0
60.981881179277,-0.76436107199458,0.31013101310131,486965.86263769,7147.7097885421,5009889.7481719,5.5101310131013,0,0
60.981881228561,-0.7680352129241,0.31456145614561,486965.86263769,7147.7097885421,5009889.7481719,5.5145614561456,0,0
60.981881277845,-0.77170935385363,0.31899189918992,486965.86263769,7147.7097885421,5009889.7481719,5.5189918991899,0,0
60.981881327128,-0.77538349478315,0.32342234223422,486965.86263769,7147.7097885421,5009889.7481719,5.5234223422342,0,0
60.981881376412,-0.77905763571268,0.32785278527853,486965.86263769,7147.709788542,5009889.7481719,5.5278527852785,0,0
60.981881425695,-0.7827317766422,0.33228322832283,486965.86263769,7147.709788542,5009889.7481719,5.5322832283228,0,0
60.981881474979,-0.78640591757173,0.33671367136714,486965.86263769,7147.709788542,5009889.7481719,5.5367136713671,0,0
60.981881524262,-0.79008005850125,0.34114411441144,486965.86263769,7147.709788542,5009889.7481719,5.5411441144114,0,0
60.981881573546,-0.79375419943078,0.34557455745575,486965.86263769,7147.709788542,5009889.7481719,5.5455745574557,0,0
60.981881622829,-0.7974283403603,0.35000500050005,486965.86263769,7147.709788542,5009889.7481719,5.5500050005001,0,0
60.981881673733,-0.80110247638914,0.35443544354435,500761.58670588,50592.142444168,4898387.8121093,5.5544354435444,0,0
60.981881727087,-0.80477660500035,0.35886588658866,500761.58670588,50592.142444168,4898387.8121093,5.5588658865887,0,0
60.981881780441,-0.80845073361156,0.36329632963296,500761.58670588,50592.142444168,4898387.8121093,5.563296329633,0,0
60.981881833795,-0.81212486222276,0.36772677267727,500761.58670588,50592.142444168,4898387.8121093,5.5677267726773,0,0
60.98188188715,-0.81579899083397,0.37215721572157,500761.58670588,50592.142444168,4898387.8121093,5.5721572157216,0,0
60.981881940504,-0.81947311944518,0.37658765876588,500761.58670588,50592.142444168,4898387.8121093,5.5765876587659,0,0
60.981881993858,-0.82314724805639,0.38101810181018,500761.58670588,50592.142444168,4898387.8121093,5.5810181018102,0,0
60.981882048694,-0.8268213782456,0.38544854485449,617694.51765567,19737.605186572,4888708.9750843,5.5854485448545,0,0
60.981882111646,-0.83049551707824,0.38987898789879,617694.51765567,19737.605186572,4888708.9750843,5.5898789878988,0,0
60.981882174598,-0.83416965591089,0.39430943094309,617694.51765567,19737.605186572,4888708.9750843,5.5943094309431,0,0
60.98188223755,-0.83784379474353,0.3987398739874,617694.51765567,19737.605186572,4888708.9750843,5.5987398739874,0,0
60.981882300503,-0.84151793357617,0.4031703170317,617694.51765567,19737.605186572,4888708.9750843,5.6031703170317,0,0
60.981882363455,-0.84519207240882,0.40760076007601,617694.51765567,19737.605186572,4888708.9750843,5.607600760076,0,0
60.981882426407,-0.84886621124146,0.41203120312031,617694.51765567,19737.605186572,4888708.9750843,5.6120312031203,0,0
60.981882489359,-0.85254035007411,0.41646164616462,617694.51765567,19737.605186572,4888708.9750843,5.6164616461646,0,0
60.981882552311,-0.85621448890675,0.42089208920892,617694.51765567,19737.605186572,4888708.9750843,5.6208920892089,0,0
60.981882615263,-0.8598886277394,0.42532253225323,617694.51765567,19737.605186572,4888708.9750843,5.6253225322532,0,0
60.981882678215,-0.86356276657204,0.42975297529753,617694.51765567,19737.605186572,4888708.9750843,5.6297529752975,0,0
60.981882741167,-0.86723690540468,0.43418341834183,617694.51765567,19737.605186572,4888708.9750843,5.6341834183418,0,0
60.981882804119,-0.87091104423733,0.43861386138614,617694.51765567,19737.605186572,4888708.9750843,5.6386138613861,0,0
60.981882867071,-0.87458518306997,0.44304430443044,617694.51765567,19737.605186572,4888708.9750843,5.6430443044304,0,0
60.981882930023,-0.87825932190262,0.44747474747475,617694.51765567,19737.605186572,4888708.9750843,5.6474747474747,0,0
60.981882992975,-0.88193346073526,0.45190519051905,617694.51765567,19737.605186572,4888708.9750843,5.6519051905191,0,0
60.981883055928,-0.88560759956791,0.45633563356336,617694.51765567,19737.605186572,4888708.9750843,5.6563356335634,0,0
60.98188311888,-0.88928173840055,0.46076607660766,617694.51765567,19737.605186572,4888708.9750843,5.6607660766077,0,0
60.981883181832,-0.8929558772332,0.46519651965196,617694.51765567,19737.605186572,4888708.9750843,5.665196519652,0,0
60.981883244784,-0.89663001606584,0.46962696269627,617694.51765567,19737.605186572,4888708.9750843,5.6696269626963,0,0
60.981883307736,-0.90030415489848,0.47405740574057,617694.51765567,19737.605186572,4888708.9750843,5.6740574057406,0,0
60.981883370688,-0.90397829373113,0.47848784878488,617694.51765567,19737.605186572,4888708.9750843,5.6784878487849,0,0
60.98188343364,-0.90765243256377,0.48291829182918,617694.51765567,19737.605186572,4888708.9750843,5.6829182918292,0,0
60.981883496592,-0.91132657139642,0.48734873487349,617694.51765567,19737.605186572,4888708.9750843,5.6873487348735,0,0
60.981883559544,-0.91500071022906,0.49177917791779,617694.51765567,19737.605186572,4888708.9750843,5.6917791779178,0,0
60.981883622496,-0.91867484906171,0.4962096209621,617694.51765567,19737.605186572,4888708.9750843,5.6962096209621,0,0
60.981883685448,-0.92234898789435,0.5006400640064,617694.51765567,19737.605186572,4888708.9750843,5.7006400640064,0,0
60.9818837484,-0.926023126727,0.50507050705071,617694.51765567,19737.605186572,4888708.9750843,5.7050705070507,0,0
60.981883811353,-0.92969726555964,0.50950095009501,617694.51765567,19737.605186572,4888708.9750843,5.709500950095,0,0
60.981883874305,-0.93337140439228,0.51393139313931,617694.51765567,19737.605186572,4888708.9750843,5.7139313931393,0,0
60.981883937257,-0.93704554322493,0.51836183618362,617694.51765567,19737.605186572,4888708.9750843,5.7183618361836,0,0
60.981884000209,-0.94071968205757,0.52279227922792,617694.51765567,19737.605186572,4888708.9750843,5.7227922792279,0,0
60.981884063161,-0.94439382089022,0.52722272227223,617694.51765567,19737.605186572,4888708.9750843,5.7272227222722,0,0
60.981884126113,-0.94806795972286,0.53165316531653,617694.51765567,19737.605186572,4888708.9750843,5.7316531653165,0,0
60.981884191772,-0.95174209066272,0.53608360836084,629676.09600985,59098.218298688,4775237.9937053,5.7360836083608,0,0
60.981884258702,-0.95541621789406,0.54051405140514,629676.09600985,59098.218298688,4775237.9937053,5.7405140514051,0,0
60.98188433269,-0.95909035300626,0.54494449444945,733082.87071977,30883.762870155,4757353.3842568,5.7449444944494,0,0
60.981884408356,-0.96276448999234,0.54937493749375,733082.87071977,30883.762870155,4757353.3842568,5.7493749374937,0,0
60.981884484022,-0.96643862697842,0.55380538053805,733082.87071977,30883.762870155,4757353.3842568,5.7538053805381,0,0
60.981884559689,-0.97011276396451,0.55823582358236,733082.87071977,30883.762870155,4757353.3842568,5.7582358235824,0,0
60.981884635355,-0.97378690095059,0.56266626662666,733082.87071977,30883.762870155,4757353.3842568,5.7626662666267,0,0
60.981884711021,-0.97746103793667,0.56709670967097,733082.87071977,30883.762870155,4757353.3842568,5.767096709671,0,0
60.981884786687,-0.98113517492275,0.57152715271527,733082.87071977,30883.762870155,4757353.3842568,5.7715271527153,0,0
60.981884862353,-0.98480931190883,0.57595759575958,733082.87071977,30883.762870155,4757353.3842568,5.7759575957596,0,0
60.98188493802,-0.98848344889491,0.58038803880388,733082.87071977,30883.762870155,4757353.3842568,5.7803880388039,0,0
60.981885013686,-0.99215758588099,0.58481848184818,733082.87071977,30883.762870155,4757353.3842568,5.7848184818482,0,0
60.981885089352,-0.99583172286708,0.58924892489249,733082.87071977,30883.762870155,4757353.3842568,5.7892489248925,0,0
60.981885165018,-0.99950585985316,0.59367936793679,733082.87071977,30883.762870155,4757353.3842568,5.7936793679368,0,0
60.981885239973,-1.0031799972405,0.5981098109811,682003.97623183,-28652.675702949,4656348.9116665,5.7981098109811,0,0
60.981885314248,-1.0068541350107,0.6025402540254,682003.97623183,-28652.675702949,4656348.9116665,5.8025402540254,0,0
60.981885388524,-1.0105282727808,0.60697069706971,682003.97623183,-28652.675702949,4656348.9116665,5.8069706970697,0,0
60.981885462799,-1.014202410551,0.61140114011401,682003.97623183,-28652.675702949,4656348.9116665,5.811401140114,0,0
60.981885537075,-1.0178765483212,0.61583158315832,682003.97623183,-28652.675702949,4656348.9116665,5.8158315831583,0,0
60.98188561135,-1.0215506860913,0.62026202620262,682003.97623183,-28652.675702949,4656348.9116665,5.8202620262026,0,0
60.981885685626,-1.0252248238615,0.62469246924692,682003.97623183,-28652.675702949,4656348.9116665,5.8246924692469,0,0
60.981885759901,-1.0288989616317,0.62912291229123,682003.97623183,-28652.675702949,4656348.9116665,5.8291229122912,0,0
60.981885834177,-1.0325730994018,0.63355335533553,682003.97623183,-28652.675702949,4656348.9116665,5.8335533553355,0,0
60.981885908452,-1.036247237172,0.63798379837984,682003.97623183,-28652.675702949,4656348.9116665,5.8379837983798,0,0
60.981885982728,-1.0399213749422,0.64241424142414,682003.97623183,-28652.675702949,4656348.9116665,5.8424142414241,0,0
60.981886057003,-1.0435955127124,0.64684468446845,682003.97623183,-28652.675702949,4656348.9116665,5.8468446844684,0,0
60.981886131279,-1.0472696504825,0.65127512751275,682003.97623183,-28652.675702949,4656348.9116665,5.8512751275128,0,0
60.981886205554,-1.0509437882527,0.65570557055706,682003.97623183,-28652.675702949,4656348.9116665,5.8557055705571,0,0
60.98188627983,-1.0546179260229,0.66013601360136,682003.97623183,-28652.675702949,4656348.9116665,5.8601360136014,0,0
60.981886354105,-1.058292063793,0.66456645664566,682003.97623183,-28652.675702949,4656348.9116665,5.8645664566457,0,0
60.981886428381,-1.0619662015632,0.66899689968997,682003.97623183,-28652.675702949,4656348.9116665,5.86899689969,0,0
60.981886502656,-1.0656403393334,0.67342734273427,682003.97623183,-28652.675702949,4656348.9116665,5.8734273427343,0,0
60.981886576932,-1.0693144771036,0.67785778577858,682003.97623183,-28652.675702949,4656348.9116665,5.8778577857786,0,0
60.981886651207,-1.0729886148737,0.68228822882288,682003.97623183,-28652.675702949,4656348.9116665,5.8822882288229,0,0
60.981886725483,-1.0766627526439,0.68671867186719,682003.97623183,-28652.675702949,4656348.9116665,5.8867186718672,0,0
60.981886799758,-1.0803368904141,0.69114911491149,682003.97623183,-28652.675702949,4656348.9116665,5.8911491149115,0,0
60.981886879268,-1.0840110307128,0.6955795579558,869524.19354997,-46280.24143573,4701298.8557186,5.8955795579558,0,0
60.981886967325,-1.0876851751407,0.7000100010001,869524.19354997,-46280.24143573,4701298.8557186,5.9000100010001,0,0
60.981887055382,-1.0913593195685,0.7044404440444,869524.19354997,-46280.24143573,4701298.8557186,5.9044404440444,0,0
60.981887143439,-1.0950334639963,0.70887088708871,869524.19354997,-46280.24143573,4701298.8557186,5.9088708870887,0,0
60.981887231496,-1.0987076084241,0.71330133013301,869524.19354997,-46280.24143573,4701298.8557186,5.913301330133,0,0
60.981887319553,-1.1023817528519,0.71773177317732,869524.19354997,-46280.24143573,4701298.8557186,5.9177317731773,0,0
60.981887405719,-1.1060558954809,0.72216221622162,784271.29703026,5057.358597378,4584607.7413786,5.9221622162216,0,0
60.981887490073,-1.109730036387,0.72659265926593,784271.29703026,5057.358597378,4584607.7413786,5.9265926592659,0,0
60.981887574427,-1.1134041772931,0.73102310231023,784271.29703026,5057.358597378,4584607.7413786,5.9310231023102,0,0
60.981887658782,-1.1170783181993,0.73545354535454,784271.29703026,5057.358597378,4584607.7413786,5.9354535453545,0,0
60.981887743136,-1.1207524591054,0.73988398839884,784271.29703026,5057.358597378,4584607.7413786,5.9398839883988,0,0
60.98188782749,-1.1244266000115,0.74431443144314,784271.29703026,5057.358597378,4584607.7413786,5.9443144314431,0,0
60.981887911845,-1.1281007409176,0.74874487448745,784271.29703026,5057.358597378,4584607.7413786,5.9487448744874,0,0
60.981887996199,-1.1317748818237,0.75317531753175,784271.29703026,5057.358597378,4584607.7413786,5.9531753175318,0,0
60.981888080553,-1.1354490227298,0.75760576057606,784271.29703026,5057.358597378,4584607.7413786,5.9576057605761,0,0
60.981888164908,-1.1391231636359,0.76203620362036,784271.29703026,5057.358597378,4584607.7413786,5.9620362036204,0,0
60.981888249262,-1.142797304542,0.76646664666467,784271.29703026,5057.358597378,4584607.7413786,5.9664666466647,0,0
60.981888333616,-1.1464714454481,0.77089708970897,784271.29703026,5057.358597378,4584607.7413786,5.970897089709,0,0
60.98188841797,-1.1501455863542,0.77532753275328,784271.29703026,5057.358597378,4584607.7413786,5.9753275327533,0,0
60.981888502325,-1.1538197272603,0.77975797579758,784271.29703026,5057.358597378,4584607.7413786,5.9797579757976,0,0
60.981888586679,-1.1574938681664,0.78418841884188,784271.29703026,5057.358597378,4584607.7413786,5.9841884188419,0,0
60.981888671033,-1.1611680090726,0.78861886188619,784271.29703026,5057.358597378,4584607.7413786,5.9886188618862,0,0
60.981888755388,-1.1648421499787,0.79304930493049,784271.29703026,5057.358597378,4584607.7413786,5.9930493049305,0,0
60.981888839742,-1.1685162908848,0.7974797479748,784271.29703026,5057.358597378,4584607.7413786,5.9974797479748,0,0
60.981888924096,-1.1721904317909,0.8019101910191,784271.29703026,5057.358597378,4584607.7413786,6.0019101910191,0,0
60.981889008451,-1.175864572697,0.80634063406341,784271.29703026,5057.358597378,4584607.7413786,6.0063406340634,0,0
60.981889092805,-1.1795387136031,0.81077107710771,784271.29703026,5057.358597378,4584607.7413786,6.0107710771077,0,0
60.981889177159,-1.1832128545092,0.81520152015201,784271.29703026,5057.358597378,4584607.7413786,6.015201520152,0,0
60.981889261514,-1.1868869954153,0.81963196319632,784271.29703026,5057.358597378,4584607.7413786,6.0196319631963,0,0
60.981889345868,-1.1905611363214,0.82406240624062,784271.29703026,5057.358597378,4584607.7413786,6.0240624062406,0,0
60.981889430222,-1.1942352772275,0.82849284928493,784271.29703026,5057.358597378,4584607.7413786,6.0284928492849,0,0
60.981889514576,-1.1979094181336,0.83292329232923,784271.29703026,5057.358597378,4584607.7413786,6.0329232923292,0,0
60.981889598931,-1.2015835590397,0.83735373537354,784271.29703026,5057.358597378,4584607.7413786,6.0373537353735,0,0
60.981889683285,-1.2052576999459,0.84178417841784,784271.29703026,5057.358597378,4584607.7413786,6.0417841784178,0,0
60.981889767639,-1.208931840852,0.84621462146215,784271.29703026,5057.358597378,4584607.7413786,6.0462146214621,0,0
60.98188985328,-1.2126059803926,0.85064506450645,913844.19613771,37571.037948021,4567323.699373,6.0506450645065,0,0
60.981889948444,-1.2162801098229,0.85507550755076,913844.19613771,37571.037948021,4567323.699373,6.0550755075508,0,0
60.981890043608,-1.2199542392533,0.85950595059506,913844.19613771,37571.037948021,4567323.699373,6.0595059505951,0,0
60.981890138773,-1.2236283686837,0.86393639363936,913844.19613771,37571.037948021,4567323.699373,6.0639363936394,0,0
60.981890233937,-1.2273024981141,0.86836683668367,913844.19613771,37571.037948021,4567323.699373,6.0683668366837,0,0
60.981890329101,-1.2309766275445,0.87279727972797,913844.19613771,37571.037948021,4567323.699373,6.072797279728,0,0
60.981890424265,-1.2346507569749,0.87722772277228,913844.19613771,37571.037948021,4567323.699373,6.0772277227723,0,0
60.98189051943,-1.2383248864053,0.88165816581658,913844.19613771,37571.037948021,4567323.699373,6.0816581658166,0,0
60.981890614594,-1.2419990158357,0.88608860886089,913844.19613771,37571.037948021,4567323.699373,6.0860886088609,0,0
60.981890709758,-1.2456731452661,0.89051905190519,913844.19613771,37571.037948021,4567323.699373,6.0905190519052,0,0
60.981890804922,-1.2493472746965,0.8949494949495,913844.19613771,37571.037948021,4567323.699373,6.0949494949495,0,0
60.981890900087,-1.2530214041269,0.8993799379938,913844.19613771,37571.037948021,4567323.699373,6.0993799379938,0,0
60.981890995251,-1.2566955335572,0.9038103810381,913844.19613771,37571.037948021,4567323.699373,6.1038103810381,0,0
60.981891090415,-1.2603696629876,0.90824082408241,913844.19613771,37571.037948021,4567323.699373,6.1082408240824,0,0
60.981891185579,-1.264043792418,0.91267126712671,913844.19613771,37571.037948021,4567323.699373,6.1126712671267,0,0
60.981891280744,-1.2677179218484,0.91710171017102,913844.19613771,37571.037948021,4567323.699373,6.117101710171,0,0
60.981891375908,-1.2713920512788,0.92153215321532,913844.19613771,37571.037948021,4567323.699373,6.1215321532153,0,0
60.981891471072,-1.2750661807092,0.92596259625963,913844.19613771,37571.037948021,4567323.699373,6.1259625962596,0,0
60.981891566236,-1.2787403101396,0.93039303930393,913844.19613771,37571.037948021,4567323.699373,6.1303930393039,0,0
60.981891661401,-1.28241443957,0.93482348234823,913844.19613771,37571.037948021,4567323.699373,6.1348234823482,0,0
60.981891758037,-1.2860885716481,0.93925392539254,974217.93575957,-317.57633175856,4484582.5314561,6.1392539253925,0,0
60.981891860226,-1.2897627137164,0.94368436843684,974217.93575957,-317.57633175856,4484582.5314561,6.1436843684368,0,0
60.981891962416,-1.2934368557846,0.94811481148115,974217.93575957,-317.57633175856,4484582.5314561,6.1481148114811,0,0
60.981892064606,-1.2971109978529,0.95254525452545,974217.93575957,-317.57633175856,4484582.5314561,6.1525452545255,0,0
60.981892166795,-1.3007851399212,0.95697569756976,974217.93575957,-317.57633175856,4484582.5314561,6.1569756975698,0,0
60.981892268985,-1.3044592819895,0.96140614061406,974217.93575957,-317.57633175856,4484582.5314561,6.1614061406141,0,0
60.981892371174,-1.3081334240578,0.96583658365837,974217.93575957,-317.57633175856,4484582.5314561,6.1658365836584,0,0
60.981892473364,-1.3118075661261,0.97026702670267,974217.93575957,-317.57633175856,4484582.5314561,6.1702670267027,0,0
60.981892575554,-1.3154817081944,0.97469746974697,974217.93575957,-317.57633175856,4484582.5314561,6.174697469747,0,0
60.981892677743,-1.3191558502626,0.97912791279128,974217.93575957,-317.57633175856,4484582.5314561,6.1791279127913,0,0
60.981892779933,-1.3228299923309,0.98355835583558,974217.93575957,-317.57633175856,4484582.5314561,6.1835583558356,0,0
60.981892882123,-1.3265041343992,0.98798879887989,974217.93575957,-317.57633175856,4484582.5314561,6.1879887988799,0,0
60.981892984312,-1.3301782764675,0.99241924192419,974217.93575957,-317.57633175856,4484582.5314561,6.1924192419242,0,0
60.981893086502,-1.3338524185358,0.9968496849685,974217.93575957,-317.57633175856,4484582.5314561,6.1968496849685,0,0
60.981893188692,-1.3375265606041,1.0012801280128,974217.93575957,-317.57633175856,4484582.5314561,6.2012801280128,0,0
60.981893290881,-1.3412007026723,1.0057105710571,974217.93575957,-317.57633175856,4484582.5314561,6.2057105710571,0,0
60.981893393071,-1.3448748447406,1.0101410141014,974217.93575957,-317.57633175856,4484582.5314561,6.2101410141014,0,0
60.98189349526,-1.3485489868089,1.0145714571457,974217.93575957,-317.57633175856,4484582.5314561,6.2145714571457,0,0
60.98189359745,-1.3522231288772,1.01900190019,974217.93575957,-317.57633175856,4484582.5314561,6.21900190019,0,0
60.98189369964,-1.3558972709455,1.0234323432343,974217.93575957,-317.57633175856,4484582.5314561,6.2234323432343,0,0
60.981893801829,-1.3595714130138,1.0278627862786,974217.93575957,-317.57633175856,4484582.5314561,6.2278627862786,0,0
60.981893904019,-1.3632455550821,1.0322932293229,974217.93575957,-317.57633175856,4484582.5314561,6.2322932293229,0,0
60.981894006209,-1.3669196971503,1.0367236723672,974217.93575957,-317.57633175856,4484582.5314561,6.2367236723672,0,0
60.981894108398,-1.3705938392186,1.0411541154115,974217.93575957,-317.57633175856,4484582.5314561,6.2411541154115,0,0
60.981894210588,-1.3742679812869,1.0455845584558,974217.93575957,-317.57633175856,4484582.5314561,6.2455845584558,0,0
60.981894312778,-1.3779421233552,1.0500150015002,974217.93575957,-317.57633175856,4484582.5314561,6.2500150015002,0,0
60.981894414967,-1.3816162654235,1.0544454445445,974217.93575957,-317.57633175856,4484582.5314561,6.2544454445445,0,0
60.981894517157,-1.3852904074918,1.0588758875888,974217.93575957,-317.57633175856,4484582.5314561,6.2588758875888,0,0
60.981894619347,-1.3889645495601,1.0633063306331,974217.93575957,-317.57633175856,4484582.5314561,6.2633063306331,0,0
60.981894721536,-1.3926386916283,1.0677367736774,974217.93575957,-317.57633175856,4484582.5314561,6.2677367736774,0,0
60.981894823726,-1.3963128336966,1.0721672167217,974217.93575957,-317.57633175856,4484582.5314561,6.2721672167217,0,0
60.981894925915,-1.3999869757649,1.076597659766,974217.93575957,-317.57633175856,4484582.5314561,6.276597659766,0,0
60.981895028105,-1.4036611178332,1.0810281028103,974217.93575957,-317.57633175856,4484582.5314561,6.2810281028103,0,0
60.981895130295,-1.4073352599015,1.0854585458546,974217.93575957,-317.57633175856,4484582.5314561,6.2854585458546,0,0
60.981895232484,-1.4110094019698,1.0898889888989,974217.93575957,-317.57633175856,4484582.5314561,6.2898889888989,0,0
60.981895334674,-1.4146835440381,1.0943194319432,974217.93575957,-317.57633175856,4484582.5314561,6.2943194319432,0,0
60.981895436864,-1.4183576861063,1.0987498749875,974217.93575957,-317.57633175856,4484582.5314561,6.2987498749875,0,0
60.981895539053,-1.4220318281746,1.1031803180318,974217.93575957,-317.57633175856,4484582.5314561,6.3031803180318,0,0
60.981895646737,-1.4257059596695,1.1076107610761,1022370.7162937,34944.652388498,4404844.5967094,6.3076107610761,0,0
60.981895754896,-1.4293800902509,1.1120412041204,1022370.7162937,34944.652388498,4404844.5967094,6.3120412041204,0,0
60.981895863055,-1.4330542208322,1.1164716471647,1022370.7162937,34944.652388498,4404844.5967094,6.3164716471647,0,0
60.981895971214,-1.4367283514136,1.120902090209,1022370.7162937,34944.652388498,4404844.5967094,6.320902090209,0,0
60.981896079373,-1.4404024819949,1.1253325332533,1022370.7162937,34944.652388498,4404844.5967094,6.3253325332533,0,0
60.981896187532,-1.4440766125762,1.1297629762976,1022370.7162937,34944.652388498,4404844.5967094,6.3297629762976,0,0
60.981896295691,-1.4477507431576,1.1341934193419,1022370.7162937,34944.652388498,4404844.5967094,6.3341934193419,0,0
60.98189640385,-1.4514248737389,1.1386238623862,1022370.7162937,34944.652388498,4404844.5967094,6.3386238623862,0,0
60.981896512009,-1.4550990043203,1.1430543054305,1022370.7162937,34944.652388498,4404844.5967094,6.3430543054305,0,0
60.981896620168,-1.4587731349016,1.1474847484748,1022370.7162937,34944.652388498,4404844.5967094,6.3474847484748,0,0
60.981896728327,-1.462447265483,1.1519151915192,1022370.7162937,34944.652388498,4404844.5967094,6.3519151915192,0,0
60.981896836486,-1.4661213960643,1.1563456345635,1022370.7162937,34944.652388498,4404844.5967094,6.3563456345635,0,0
60.981896944645,-1.4697955266456,1.1607760776078,1022370.7162937,34944.652388498,4404844.5967094,6.3607760776078,0,0
60.981897052804,-1.473469657227,1.1652065206521,1022370.7162937,34944.652388498,4404844.5967094,6.3652065206521,0,0
60.981897160962,-1.4771437878083,1.1696369636964,1022370.7162937,34944.652388498,4404844.5967094,6.3696369636964,0,0
60.981897269121,-1.4808179183897,1.1740674067407,1022370.7162937,34944.652388498,4404844.5967094,6.3740674067407,0,0
60.98189737728,-1.484492048971,1.178497849785,1022370.7162937,34944.652388498,4404844.5967094,6.378497849785,0,0
60.981897485439,-1.4881661795524,1.1829282928293,1022370.7162937,34944.652388498,4404844.5967094,6.3829282928293,0,0
60.981897593598,-1.4918403101337,1.1873587358736,1022370.7162937,34944.652388498,4404844.5967094,6.3873587358736,0,0
60.981897703626,-1.4955144438147,1.1917891789179,1097138.4796094,-4930.5311768876,4352487.5076615,6.3917891789179,0,0
60.981897819151,-1.4991885866117,1.1962196219622,1097138.4796094,-4930.5311768876,4352487.5076615,6.3962196219622,0,0
60.981897934676,-1.5028627294088,1.2006500650065,1097138.4796094,-4930.5311768876,4352487.5076615,6.4006500650065,0,0
60.981898050201,-1.5065368722058,1.2050805080508,1097138.4796094,-4930.5311768876,4352487.5076615,6.4050805080508,0,0
60.981898165726,-1.5102110150029,1.2095109510951,1097138.4796094,-4930.5311768876,4352487.5076615,6.4095109510951,0,0
60.981898281252,-1.5138851578,1.2139413941394,1097138.4796094,-4930.5311768876,4352487.5076615,6.4139413941394,0,0
60.981898396777,-1.517559300597,1.2183718371837,1097138.4796094,-4930.5311768876,4352487.5076615,6.4183718371837,0,0
60.981898512302,-1.5212334433941,1.222802280228,1097138.4796094,-4930.5311768876,4352487.5076615,6.422802280228,0,0
60.981898627827,-1.5249075861911,1.2272327232723,1097138.4796094,-4930.5311768876,4352487.5076615,6.4272327232723,0,0
60.981898743352,-1.5285817289882,1.2316631663166,1097138.4796094,-4930.5311768876,4352487.5076615,6.4316631663166,0,0
60.981898858877,-1.5322558717853,1.2360936093609,1097138.4796094,-4930.5311768876,4352487.5076615,6.4360936093609,0,0
60.981898974402,-1.5359300145823,1.2405240524052,1097138.4796094,-4930.5311768876,4352487.5076615,6.4405240524052,0,0
60.981899089927,-1.5396041573794,1.2449544954495,1097138.4796094,-4930.5311768876,4352487.5076615,6.4449544954495,0,0
60.981899205452,-1.5432783001765,1.2493849384938,1097138.4796094,-4930.5311768876,4352487.5076615,6.4493849384938,0,0
60.981899320977,-1.5469524429735,1.2538153815382,1097138.4796094,-4930.5311768876,4352487.5076615,6.4538153815382,0,0
60.981899436502,-1.5506265857706,1.2582458245825,1097138.4796094,-4930.5311768876,4352487.5076615,6.4582458245825,0,0
60.981899552027,-1.5543007285676,1.2626762676268,1097138.4796094,-4930.5311768876,4352487.5076615,6.4626762676268,0,0
60.981899667552,-1.5579748713647,1.2671067106711,1097138.4796094,-4930.5311768876,4352487.5076615,6.4671067106711,0,0
60.981899783078,-1.5616490141618,1.2715371537154,1097138.4796094,-4930.5311768876,4352487.5076615,6.4715371537154,0,0
60.981899898603,-1.5653231569588,1.2759675967597,1097138.4796094,-4930.5311768876,4352487.5076615,6.4759675967597,0,0
60.981900014128,-1.5689972997559,1.280398039804,1097138.4796094,-4930.5311768876,4352487.5076615,6.480398039804,0,0
60.981900129653,-1.5726714425529,1.2848284828483,1097138.4796094,-4930.5311768876,4352487.5076615,6.4848284828483,0,0
60.981900245178,-1.57634558535,1.2892589258926,1097138.4796094,-4930.5311768876,4352487.5076615,6.4892589258926,0,0
60.981900360703,-1.5800197281471,1.2936893689369,1097138.4796094,-4930.5311768876,4352487.5076615,6.4936893689369,0,0
60.981900476228,-1.5836938709441,1.2981198119812,1097138.4796094,-4930.5311768876,4352487.5076615,6.4981198119812,0,0
60.981900591753,-1.5873680137412,1.3025502550255,1097138.4796094,-4930.5311768876,4352487.5076615,6.5025502550255,0,0
60.981900707278,-1.5910421565383,1.3069806980698,1097138.4796094,-4930.5311768876,4352487.5076615,6.5069806980698,0,0
60.981900822803,-1.5947162993353,1.3114111411141,1097138.4796094,-4930.5311768876,4352487.5076615,6.5114111411141,0,0
60.981900938328,-1.5983904421324,1.3158415841584,1097138.4796094,-4930.5311768876,4352487.5076615,6.5158415841584,0,0
60.981901053853,-1.6020645849294,1.3202720272027,1097138.4796094,-4930.5311768876,4352487.5076615,6.5202720272027,0,0
60.981901169378,-1.6057387277265,1.324702470247,1097138.4796094,-4930.5311768876,4352487.5076615,6.524702470247,0,0
60.981901284904,-1.6094128705236,1.3291329132913,1097138.4796094,-4930.5311768876,4352487.5076615,6.5291329132913,0,0
60.981901400429,-1.6130870133206,1.3335633563356,1097138.4796094,-4930.5311768876,4352487.5076615,6.5335633563356,0,0
60.981901515954,-1.6167611561177,1.3379937993799,1097138.4796094,-4930.5311768876,4352487.5076615,6.5379937993799,0,0
60.981901631479,-1.6204352989147,1.3424242424242,1097138.4796094,-4930.5311768876,4352487.5076615,6.5424242424242,0,0
60.981901747115,-1.6241094415268,1.3468546854685,1168510.0489971,33310.25172107,4295330.4583777,6.5468546854685,0,0
60.981901869863,-1.6277835722958,1.3512851285129,1168510.0489971,33310.25172107,4295330.4583777,6.5512851285129,0,0
60.981901992611,-1.6314577030649,1.3557155715572,1168510.0489971,33310.25172107,4295330.4583777,6.5557155715572,0,0
60.981902115358,-1.635131833834,1.3601460146015,1168510.0489971,33310.25172107,4295330.4583777,6.5601460146015,0,0
60.981902238106,-1.6388059646031,1.3645764576458,1168510.0489971,33310.25172107,4295330.4583777,6.5645764576458,0,0
60.981902360854,-1.6424800953722,1.3690069006901,1168510.0489971,33310.25172107,4295330.4583777,6.5690069006901,0,0
60.981902483602,-1.6461542261412,1.3734373437344,1168510.0489971,33310.25172107,4295330.4583777,6.5734373437344,0,0
60.981902606349,-1.6498283569103,1.3778677867787,1168510.0489971,33310.25172107,4295330.4583777,6.5778677867787,0,0
60.981902729097,-1.6535024876794,1.382298229823,1168510.0489971,33310.25172107,4295330.4583777,6.582298229823,0,0
60.981902851845,-1.6571766184485,1.3867286728673,1168510.0489971,33310.25172107,4295330.4583777,6.5867286728673,0,0
60.981902974593,-1.6608507492176,1.3911591159116,1168510.0489971,33310.25172107,4295330.4583777,6.5911591159116,0,0
60.98190309734,-1.6645248799866,1.3955895589559,1168510.0489971,33310.25172107,4295330.4583777,6.5955895589559,0,0
60.981903220088,-1.6681990107557,1.4000200020002,1168510.0489971,33310.25172107,4295330.4583777,6.6000200020002,0,0
60.981903342836,-1.6718731415248,1.4044504450445,1168510.0489971,33310.25172107,4295330.4583777,6.6044504450445,0,0
60.981903465584,-1.6755472722939,1.4088808880888,1168510.0489971,33310.25172107,4295330.4583777,6.6088808880888,0,0
60.981903588331,-1.6792214030629,1.4133113311331,1168510.0489971,33310.25172107,4295330.4583777,6.6133113311331,0,0
60.981903711079,-1.682895533832,1.4177417741774,1168510.0489971,33310.25172107,4295330.4583777,6.6177417741774,0,0
60.981903833827,-1.6865696646011,1.4221722172217,1168510.0489971,33310.25172107,4295330.4583777,6.6221722172217,0,0
60.981903956575,-1.6902437953702,1.426602660266,1168510.0489971,33310.25172107,4295330.4583777,6.626602660266,0,0
60.981904079322,-1.6939179261393,1.4310331033103,1168510.0489971,33310.25172107,4295330.4583777,6.6310331033103,0,0
60.98190420207,-1.6975920569083,1.4354635463546,1168510.0489971,33310.25172107,4295330.4583777,6.6354635463546,0,0
60.981904324818,-1.7012661876774,1.4398939893989,1168510.0489971,33310.25172107,4295330.4583777,6.6398939893989,0,0
60.981904447566,-1.7049403184465,1.4443244324432,1168510.0489971,33310.25172107,4295330.4583777,6.6443244324432,0,0
60.981904571303,-1.7086144519619,1.4487548754875,1199989.242008,-15625.816405722,4212181.0761928,6.6487548754875,0,0
60.981904698779,-1.7122885958503,1.4531853185319,1199989.242008,-15625.816405722,4212181.0761928,6.6531853185319,0,0
60.981904826255,-1.7159627397386,1.4576157615762,1199989.242008,-15625.816405722,4212181.0761928,6.6576157615762,0,0
60.981904953731,-1.7196368836269,1.4620462046205,1199989.242008,-15625.816405722,4212181.0761928,6.6620462046205,0,0
60.981905081208,-1.7233110275153,1.4664766476648,1199989.242008,-15625.816405722,4212181.0761928,6.6664766476648,0,0
60.981905208684,-1.7269851714036,1.4709070907091,1199989.242008,-15625.816405722,4212181.0761928,6.6709070907091,0,0
60.98190533616,-1.7306593152919,1.4753375337534,1199989.242008,-15625.816405722,4212181.0761928,6.6753375337534,0,0
60.981905463636,-1.7343334591803,1.4797679767977,1199989.242008,-15625.816405722,4212181.0761928,6.6797679767977,0,0
60.981905591112,-1.7380076030686,1.484198419842,1199989.242008,-15625.816405722,4212181.0761928,6.684198419842,0,0
60.981905718588,-1.741681746957,1.4886288628863,1199989.242008,-15625.816405722,4212181.0761928,6.6886288628863,0,0
60.981905846064,-1.7453558908453,1.4930593059306,1199989.242008,-15625.816405722,4212181.0761928,6.6930593059306,0,0
60.98190597354,-1.7490300347336,1.4974897489749,1199989.242008,-15625.816405722,4212181.0761928,6.6974897489749,0,0
60.981906101016,-1.752704178622,1.5019201920192,1199989.242008,-15625.816405722,4212181.0761928,6.7019201920192,0,0
60.981906228492,-1.7563783225103,1.5063506350635,1199989.242008,-15625.816405722,4212181.0761928,6.7063506350635,0,0
60.981906355968,-1.7600524663986,1.5107810781078,1199989.242008,-15625.816405722,4212181.0761928,6.7107810781078,0,0
60.981906483444,-1.763726610287,1.5152115211521,1199989.242008,-15625.816405722,4212181.0761928,6.7152115211521,0,0
60.98190661092,-1.7674007541753,1.5196419641964,1199989.242008,-15625.816405722,4212181.0761928,6.7196419641964,0,0
60.981906738396,-1.7710748980636,1.5240724072407,1199989.242008,-15625.816405722,4212181.0761928,6.7240724072407,0,0
60.981906865872,-1.774749041952,1.528502850285,1199989.242008,-15625.816405722,4212181.0761928,6.728502850285,0,0
60.981906993348,-1.7784231858403,1.5329332933293,1199989.242008,-15625.816405722,4212181.0761928,6.7329332933293,0,0
60.981907120824,-1.7820973297287,1.5373637363736,1199989.242008,-15625.816405722,4212181.0761928,6.7373637363736,0,0
60.9819072483,-1.785771473617,1.5417941794179,1199989.242008,-15625.816405722,4212181.0761928,6.7417941794179,0,0
60.981907375777,-1.7894456175053,1.5462246224622,1199989.242008,-15625.816405722,4212181.0761928,6.7462246224622,0,0
60.981907503253,-1.7931197613937,1.5506550655066,1199989.242008,-15625.816405722,4212181.0761928,6.7506550655066,0,0
60.981907630729,-1.796793905282,1.5550855085509,1199989.242008,-15625.816405722,4212181.0761928,6.7550855085509,0,0
60.981907758205,-1.8004680491703,1.5595159515952,1199989.242008,-15625.816405722,4212181.0761928,6.7595159515952,0,0
60.981907885681,-1.8041421930587,1.5639463946395,1199989.242008,-15625.816405722,4212181.0761928,6.7639463946395,0,0
60.981908013157,-1.807816336947,1.5683768376838,1199989.242008,-15625.816405722,4212181.0761928,6.7683768376838,0,0
60.981908140633,-1.8114904808353,1.5728072807281,1199989.242008,-15625.816405722,4212181.0761928,6.7728072807281,0,0
60.981908268109,-1.8151646247237,1.5772377237724,1199989.242008,-15625.816405722,4212181.0761928,6.7772377237724,0,0
60.981908395585,-1.818838768612,1.5816681668167,1199989.242008,-15625.816405722,4212181.0761928,6.7816681668167,0,0
60.981908523061,-1.8225129125004,1.586098609861,1199989.242008,-15625.816405722,4212181.0761928,6.786098609861,0,0
60.981908650537,-1.8261870563887,1.5905290529053,1199989.242008,-15625.816405722,4212181.0761928,6.7905290529053,0,0
60.981908778013,-1.829861200277,1.5949594959496,1199989.242008,-15625.816405722,4212181.0761928,6.7949594959496,0,0
60.981908905489,-1.8335353441654,1.5993899389939,1199989.242008,-15625.816405722,4212181.0761928,6.7993899389939,0,0
60.981909032965,-1.8372094880537,1.6038203820382,1199989.242008,-15625.816405722,4212181.0761928,6.8038203820382,0,0
60.981909168294,-1.8408836224924,1.6082508250825,1306734.5511716,16152.744805049,4179303.6782836,6.8082508250825,0,0
60.981909305172,-1.8445577550675,1.6126812681268,1306734.5511716,16152.744805049,4179303.6782836,6.8126812681268,0,0
60.98190944205,-1.8482318876426,1.6171117111711,1306734.5511716,16152.744805049,4179303.6782836,6.8171117111711,0,0
60.981909578928,-1.8519060202177,1.6215421542154,1306734.5511716,16152.744805049,4179303.6782836,6.8215421542154,0,0
60.981909715806,-1.8555801527929,1.6259725972597,1306734.5511716,16152.744805049,4179303.6782836,6.8259725972597,0,0
60.981909852683,-1.859254285368,1.630403040304,1306734.5511716,16152.744805049,4179303.6782836,6.830403040304,0,0
60.981909989561,-1.8629284179431,1.6348334833483,1306734.5511716,16152.744805049,4179303.6782836,6.8348334833483,0,0
60.981910126439,-1.8666025505182,1.6392639263926,1306734.5511716,16152.744805049,4179303.6782836,6.8392639263926,0,0
60.981910263317,-1.8702766830934,1.6436943694369,1306734.5511716,16152.744805049,4179303.6782836,6.8436943694369,0,0
60.981910400195,-1.8739508156685,1.6481248124812,1306734.5511716,16152.744805049,4179303.6782836,6.8481248124812,0,0
60.981910537072,-1.8776249482436,1.6525552555256,1306734.5511716,16152.744805049,4179303.6782836,6.8525552555256,0,0
60.98191067395,-1.8812990808187,1.6569856985699,1306734.5511716,16152.744805049,4179303.6782836,6.8569856985699,0,0
60.981910810828,-1.8849732133938,1.6614161416142,1306734.5511716,16152.744805049,4179303.6782836,6.8614161416142,0,0
60.981910947706,-1.888647345969,1.6658465846585,1306734.5511716,16152.744805049,4179303.6782836,6.8658465846585,0,0
60.981911084583,-1.8923214785441,1.6702770277028,1306734.5511716,16152.744805049,4179303.6782836,6.8702770277028,0,0
60.981911221461,-1.8959956111192,1.6747074707471,1306734.5511716,16152.744805049,4179303.6782836,6.8747074707471,0,0
60.981911358339,-1.8996697436943,1.6791379137914,1306734.5511716,16152.744805049,4179303.6782836,6.8791379137914,0,0
60.981911495217,-1.9033438762694,1.6835683568357,1306734.5511716,16152.744805049,4179303.6782836,6.8835683568357,0,0
60.981911632095,-1.9070180088446,1.68799879988,1306734.5511716,16152.744805049,4179303.6782836,6.88799879988,0,0
60.981911768972,-1.9106921414197,1.6924292429243,1306734.5511716,16152.744805049,4179303.6782836,6.8924292429243,0,0
60.98191190585,-1.9143662739948,1.6968596859686,1306734.5511716,16152.744805049,4179303.6782836,6.8968596859686,0,0
60.981912042728,-1.9180404065699,1.7012901290129,1306734.5511716,16152.744805049,4179303.6782836,6.9012901290129,0,0
60.981912179606,-1.921714539145,1.7057205720572,1306734.5511716,16152.744805049,4179303.6782836,6.9057205720572,0,0
60.981912316484,-1.9253886717202,1.7101510151015,1306734.5511716,16152.744805049,4179303.6782836,6.9101510151015,0,0
60.981912453361,-1.9290628042953,1.7145814581458,1306734.5511716,16152.744805049,4179303.6782836,6.9145814581458,0,0
60.981912590239,-1.9327369368704,1.7190119011901,1306734.5511716,16152.744805049,4179303.6782836,6.9190119011901,0,0
60.981912727117,-1.9364110694455,1.7234423442344,1306734.5511716,16152.744805049,4179303.6782836,6.9234423442344,0,0
60.981912863995,-1.9400852020206,1.7278727872787,1306734.5511716,16152.744805049,4179303.6782836,6.9278727872787,0,0
60.981913000873,-1.9437593345958,1.732303230323,1306734.5511716,16152.744805049,4179303.6782836,6.932303230323,0,0
60.98191313775,-1.9474334671709,1.7367336733673,1306734.5511716,16152.744805049,4179303.6782836,6.9367336733673,0,0
60.981913274628,-1.951107599746,1.7411641164116,1306734.5511716,16152.744805049,4179303.6782836,6.9411641164116,0,0
60.981913411506,-1.9547817323211,1.7455945594559,1306734.5511716,16152.744805049,4179303.6782836,6.9455945594559,0,0
60.981913548384,-1.9584558648962,1.7500250025002,1306734.5511716,16152.744805049,4179303.6782836,6.9500250025002,0,0
60.981913685262,-1.9621299974714,1.7544554455446,1306734.5511716,16152.744805049,4179303.6782836,6.9544554455446,0,0
60.981913822139,-1.9658041300465,1.7588858885889,1306734.5511716,16152.744805049,4179303.6782836,6.9588858885889,0,0
60.981913962547,-1.9694782723527,1.7633163316332,1336451.0312898,-32237.909372361,4088121.3762618,6.9633163316332,0,0
60.981914104226,-1.9731524181641,1.7677467746775,1336451.0312898,-32237.909372361,4088121.3762618,6.9677467746775,0,0
60.981914245905,-1.9768265639755,1.7721772177218,1336451.0312898,-32237.909372361,4088121.3762618,6.9721772177218,0,0
60.981914387585,-1.9805007097869,1.7766076607661,1336451.0312898,-32237.909372361,4088121.3762618,6.9766076607661,0,0
60.981914529264,-1.9841748555983,1.7810381038104,1336451.0312898,-32237.909372361,4088121.3762618,6.9810381038104,0,0
60.981914670943,-1.9878490014096,1.7854685468547,1336451.0312898,-32237.909372361,4088121.3762618,6.9854685468547,0,0
60.981914812622,-1.991523147221,1.789898989899,1336451.0312898,-32237.909372361,4088121.3762618,6.989898989899,0,0
60.981914954301,-1.9951972930324,1.7943294329433,1336451.0312898,-32237.909372361,4088121.3762618,6.9943294329433,0,0
60.98191509598,-1.9988714388438,1.7987598759876,1336451.0312898,-32237.909372361,4088121.3762618,6.9987598759876,0,0
60.98191523766,-2.0025455846552,1.8031903190319,1336451.0312898,-32237.909372361,4088121.3762618,7.0031903190319,0,0
60.981915379339,-2.0062197304666,1.8076207620762,1336451.0312898,-32237.909372361,4088121.3762618,7.0076207620762,0,0
60.981915521018,-2.009893876278,1.8120512051205,1336451.0312898,-32237.909372361,4088121.3762618,7.0120512051205,0,0
60.981915662697,-2.0135680220894,1.8164816481648,1336451.0312898,-32237.909372361,4088121.3762618,7.0164816481648,0,0
60.981915804376,-2.0172421679008,1.8209120912091,1336451.0312898,-32237.909372361,4088121.3762618,7.0209120912091,0,0
60.981915946055,-2.0209163137122,1.8253425342534,1336451.0312898,-32237.909372361,4088121.3762618,7.0253425342534,0,0
60.981916087735,-2.0245904595236,1.8297729772977,1336451.0312898,-32237.909372361,4088121.3762618,7.0297729772977,0,0
60.981916229414,-2.028264605335,1.834203420342,1336451.0312898,-32237.909372361,4088121.3762618,7.034203420342,0,0
60.981916371093,-2.0319387511464,1.8386338633863,1336451.0312898,-32237.909372361,4088121.3762618,7.0386338633863,0,0
60.981916512772,-2.0356128969578,1.8430643064306,1336451.0312898,-32237.909372361,4088121.3762618,7.0430643064306,0,0
60.981916654451,-2.0392870427692,1.8474947494749,1336451.0312898,-32237.909372361,4088121.3762618,7.0474947494749,0,0
60.98191679613,-2.0429611885806,1.8519251925193,1336451.0312898,-32237.909372361,4088121.3762618,7.0519251925193,0,0
60.98191693781,-2.046635334392,1.8563556355636,1336451.0312898,-32237.909372361,4088121.3762618,7.0563556355636,0,0
60.981917079489,-2.0503094802033,1.8607860786079,1336451.0312898,-32237.909372361,4088121.3762618,7.0607860786079,0,0
60.981917221168,-2.0539836260147,1.8652165216522,1336451.0312898,-32237.909372361,4088121.3762618,7.0652165216522,0,0
60.981917362847,-2.0576577718261,1.8696469646965,1336451.0312898,-32237.909372361,4088121.3762618,7.0696469646965,0,0
60.981917504526,-2.0613319176375,1.8740774077408,1336451.0312898,-32237.909372361,4088121.3762618,7.0740774077408,0,0
60.981917646205,-2.0650060634489,1.8785078507851,1336451.0312898,-32237.909372361,4088121.3762618,7.0785078507851,0,0
60.981917787885,-2.0686802092603,1.8829382938294,1336451.0312898,-32237.909372361,4088121.3762618,7.0829382938294,0,0
60.981917929564,-2.0723543550717,1.8873687368737,1336451.0312898,-32237.909372361,4088121.3762618,7.0873687368737,0,0
60.981918071243,-2.0760285008831,1.891799179918,1336451.0312898,-32237.909372361,4088121.3762618,7.091799179918,0,0
60.981918220019,-2.0797026343617,1.8962296229623,1408623.9744018,9686.7856435324,4031832.3432502,7.0962296229623,0,0
60.981918368961,-2.0833767675502,1.9006600660066,1408623.9744018,9686.7856435324,4031832.3432502,7.1006600660066,0,0
60.981918517904,-2.0870509007386,1.9050905090509,1408623.9744018,9686.7856435324,4031832.3432502,7.1050905090509,0,0
60.981918666847,-2.090725033927,1.9095209520952,1408623.9744018,9686.7856435324,4031832.3432502,7.1095209520952,0,0
60.98191881579,-2.0943991671154,1.9139513951395,1408623.9744018,9686.7856435324,4031832.3432502,7.1139513951395,0,0
60.981918964732,-2.0980733003038,1.9183818381838,1408623.9744018,9686.7856435324,4031832.3432502,7.1183818381838,0,0
60.981919113675,-2.1017474334922,1.9228122812281,1408623.9744018,9686.7856435324,4031832.3432502,7.1228122812281,0,0
60.981919262618,-2.1054215666806,1.9272427242724,1408623.9744018,9686.7856435324,4031832.3432502,7.1272427242724,0,0
60.981919411561,-2.109095699869,1.9316731673167,1408623.9744018,9686.7856435324,4031832.3432502,7.1316731673167,0,0
60.981919560503,-2.1127698330574,1.936103610361,1408623.9744018,9686.7856435324,4031832.3432502,7.136103610361,0,0
60.981919709446,-2.1164439662459,1.9405340534053,1408623.9744018,9686.7856435324,4031832.3432502,7.1405340534053,0,0
60.981919858389,-2.1201180994343,1.9449644964496,1408623.9744018,9686.7856435324,4031832.3432502,7.1449644964496,0,0
60.981920007332,-2.1237922326227,1.9493949394939,1408623.9744018,9686.7856435324,4031832.3432502,7.1493949394939,0,0
60.981920156274,-2.1274663658111,1.9538253825383,1408623.9744018,9686.7856435324,4031832.3432502,7.1538253825383,0,0
60.981920305217,-2.1311404989995,1.9582558255826,1408623.9744018,9686.7856435324,4031832.3432502,7.1582558255826,0,0
60.98192045416,-2.1348146321879,1.9626862686269,1408623.9744018,9686.7856435324,4031832.3432502,7.1626862686269,0,0
60.981920603103,-2.1384887653763,1.9671167116712,1408623.9744018,9686.7856435324,4031832.3432502,7.1671167116712,0,0
60.981920752045,-2.1421628985647,1.9715471547155,1408623.9744018,9686.7856435324,4031832.3432502,7.1715471547155,0,0
60.981920900988,-2.1458370317532,1.9759775977598,1408623.9744018,9686.7856435324,4031832.3432502,7.1759775977598,0,0
60.981921049931,-2.1495111649416,1.9804080408041,1408623.9744018,9686.7856435324,4031832.3432502,7.1804080408041,0,0
60.981921198874,-2.15318529813,1.9848384838484,1408623.9744018,9686.7856435324,4031832.3432502,7.1848384838484,0,0
60.981921347816,-2.1568594313184,1.9892689268927,1408623.9744018,9686.7856435324,4031832.3432502,7.1892689268927,0,0
60.981921496759,-2.1605335645068,1.993699369937,1408623.9744018,9686.7856435324,4031832.3432502,7.193699369937,0,0
60.981921645702,-2.1642076976952,1.9981298129813,1408623.9744018,9686.7856435324,4031832.3432502,7.1981298129813,0,0
60.981921794645,-2.1678818308836,2.0025602560256,1408623.9744018,9686.7856435324,4031832.3432502,7.2025602560256,0,0
60.981921943587,-2.171555964072,2.0069906990699,1408623.9744018,9686.7856435324,4031832.3432502,7.2069906990699,0,0
60.98192209253,-2.1752300972604,2.0114211421142,1408623.9744018,9686.7856435324,4031832.3432502,7.2114211421142,0,0
60.981922241473,-2.1789042304489,2.0158515851585,1408623.9744018,9686.7856435324,4031832.3432502,7.2158515851585,0,0
60.981922390416,-2.1825783636373,2.0202820282028,1408623.9744018,9686.7856435324,4031832.3432502,7.2202820282028,0,0
60.981922539358,-2.1862524968257,2.0247124712471,1408623.9744018,9686.7856435324,4031832.3432502,7.2247124712471,0,0
60.981922688301,-2.1899266300141,2.0291429142914,1408623.9744018,9686.7856435324,4031832.3432502,7.2291429142914,0,0
60.981922837244,-2.1936007632025,2.0335733573357,1408623.9744018,9686.7856435324,4031832.3432502,7.2335733573357,0,0
60.981922986187,-2.1972748963909,2.03800380038,1408623.9744018,9686.7856435324,4031832.3432502,7.23800380038,0,0
60.981923135129,-2.2009490295793,2.0424342434243,1408623.9744018,9686.7856435324,4031832.3432502,7.2424342434243,0,0
60.981923284072,-2.2046231627677,2.0468646864686,1408623.9744018,9686.7856435324,4031832.3432502,7.2468646864686,0,0
60.981923433015,-2.2082972959561,2.051295129513,1408623.9744018,9686.7856435324,4031832.3432502,7.251295129513,0,0
60.981923581958,-2.2119714291446,2.0557255725573,1408623.9744018,9686.7856435324,4031832.3432502,7.2557255725573,0,0
60.9819237309,-2.215645562333,2.0601560156016,1408623.9744018,9686.7856435324,4031832.3432502,7.2601560156016,0,0
60.981923879843,-2.2193196955214,2.0645864586459,1408623.9744018,9686.7856435324,4031832.3432502,7.2645864586459,0,0
60.981924028786,-2.2229938287098,2.0690169016902,1408623.9744018,9686.7856435324,4031832.3432502,7.2690169016902,0,0
60.981924177729,-2.2266679618982,2.0734473447345,1408623.9744018,9686.7856435324,4031832.3432502,7.2734473447345,0,0
60.981924326671,-2.2303420950866,2.0778777877788,1408623.9744018,9686.7856435324,4031832.3432502,7.2778777877788,0,0
60.981924475614,-2.234016228275,2.0823082308231,1408623.9744018,9686.7856435324,4031832.3432502,7.2823082308231,0,0
60.981924624557,-2.2376903614634,2.0867386738674,1408623.9744018,9686.7856435324,4031832.3432502,7.2867386738674,0,0
60.9819247735,-2.2413644946519,2.0911691169117,1408623.9744018,9686.7856435324,4031832.3432502,7.2911691169117,0,0
60.981924922442,-2.2450386278403,2.095599559956,1408623.9744018,9686.7856435324,4031832.3432502,7.295599559956,0,0
60.981925071385,-2.2487127610287,2.1000300030003,1408623.9744018,9686.7856435324,4031832.3432502,7.3000300030003,0,0
60.981925220328,-2.2523868942171,2.1044604460446,1408623.9744018,9686.7856435324,4031832.3432502,7.3044604460446,0,0
60.981925374028,-2.2560610339537,2.1088908890889,1502844.082036,-26494.203732545,3993087.8014176,7.3088908890889,0,0
60.981925531529,-2.25973517892,2.1133213321332,1502844.082036,-26494.203732545,3993087.8014176,7.3133213321332,0,0
60.981925689029,-2.2634093238863,2.1177517751775,1502844.082036,-26494.203732545,3993087.8014176,7.3177517751775,0,0
60.981925846529,-2.2670834688526,2.1221822182218,1502844.082036,-26494.203732545,3993087.8014176,7.3221822182218,0,0
60.981926004029,-2.2707576138189,2.1266126612661,1502844.082036,-26494.203732545,3993087.8014176,7.3266126612661,0,0
60.98192616153,-2.2744317587852,2.1310431043104,1502844.082036,-26494.203732545,3993087.8014176,7.3310431043104,0,0
60.98192631903,-2.2781059037515,2.1354735473547,1502844.082036,-26494.203732545,3993087.8014176,7.3354735473547,0,0
60.98192647653,-2.2817800487178,2.139903990399,1502844.082036,-26494.203732545,3993087.8014176,7.339903990399,0,0
60.98192663403,-2.2854541936841,2.1443344334433,1502844.082036,-26494.203732545,3993087.8014176,7.3443344334433,0,0
60.981926791531,-2.2891283386504,2.1487648764876,1502844.082036,-26494.203732545,3993087.8014176,7.3487648764876,0,0
60.981926949031,-2.2928024836167,2.153195319532,1502844.082036,-26494.203732545,3993087.8014176,7.353195319532,0,0
60.981927106531,-2.296476628583,2.1576257625763,1502844.082036,-26494.203732545,3993087.8014176,7.3576257625763,0,0
60.981927264031,-2.3001507735493,2.1620562056206,1502844.082036,-26494.203732545,3993087.8014176,7.3620562056206,0,0
60.981927421532,-2.3038249185156,2.1664866486649,1502844.082036,-26494.203732545,3993087.8014176,7.3664866486649,0,0
60.981927579032,-2.3074990634819,2.1709170917092,1502844.082036,-26494.203732545,3993087.8014176,7.3709170917092,0,0
60.981927736532,-2.3111732084482,2.1753475347535,1502844.082036,-26494.203732545,3993087.8014176,7.3753475347535,0,0
60.981927894032,-2.3148473534145,2.1797779777978,1502844.082036,-26494.203732545,3993087.8014176,7.3797779777978,0,0
60.981928051533,-2.3185214983808,2.1842084208421,1502844.082036,-26494.203732545,3993087.8014176,7.3842084208421,0,0
60.981928209033,-2.3221956433471,2.1886388638864,1502844.082036,-26494.203732545,3993087.8014176,7.3886388638864,0,0
60.981928366533,-2.3258697883134,2.1930693069307,1502844.082036,-26494.203732545,3993087.8014176,7.3930693069307,0,0
60.981928524033,-2.3295439332797,2.197499749975,1502844.082036,-26494.203732545,3993087.8014176,7.397499749975,0,0
60.981928681534,-2.333218078246,2.2019301930193,1502844.082036,-26494.203732545,3993087.8014176,7.4019301930193,0,0
60.981928839034,-2.3368922232123,2.2063606360636,1502844.082036,-26494.203732545,3993087.8014176,7.4063606360636,0,0
60.981928996534,-2.3405663681786,2.2107910791079,1502844.082036,-26494.203732545,3993087.8014176,7.4107910791079,0,0
60.981929154034,-2.3442405131449,2.2152215221522,1502844.082036,-26494.203732545,3993087.8014176,7.4152215221522,0,0
60.981929311534,-2.3479146581112,2.2196519651965,1502844.082036,-26494.203732545,3993087.8014176,7.4196519651965,0,0
60.981929469035,-2.3515888030775,2.2240824082408,1502844.082036,-26494.203732545,3993087.8014176,7.4240824082408,0,0
60.981929626535,-2.3552629480438,2.2285128512851,1502844.082036,-26494.203732545,3993087.8014176,7.4285128512851,0,0
60.981929784035,-2.3589370930101,2.2329432943294,1502844.082036,-26494.203732545,3993087.8014176,7.4329432943294,0,0
60.981929941535,-2.3626112379764,2.2373737373737,1502844.082036,-26494.203732545,3993087.8014176,7.4373737373737,0,0
60.981930099036,-2.3662853829427,2.241804180418,1502844.082036,-26494.203732545,3993087.8014176,7.441804180418,0,0
60.981930256536,-2.369959527909,2.2462346234623,1502844.082036,-26494.203732545,3993087.8014176,7.4462346234623,0,0
60.981930414036,-2.3736336728753,2.2506650665067,1502844.082036,-26494.203732545,3993087.8014176,7.4506650665067,0,0
60.981930571536,-2.3773078178416,2.255095509551,1502844.082036,-26494.203732545,3993087.8014176,7.455095509551,0,0
60.981930729037,-2.3809819628079,2.2595259525953,1502844.082036,-26494.203732545,3993087.8014176,7.4595259525953,0,0
60.981930886537,-2.3846561077742,2.2639563956396,1502844.082036,-26494.203732545,3993087.8014176,7.4639563956396,0,0
60.981931046122,-2.3883302466455,2.2683868386839,1521138.8486933,13945.34182589,3903816.892526,7.4683868386839,0,0
60.981931207461,-2.3920043803922,2.2728172817282,1521138.8486933,13945.34182589,3903816.892526,7.4728172817282,0,0
60.981931368799,-2.3956785141388,2.2772477247725,1521138.8486933,13945.34182589,3903816.892526,7.4772477247725,0,0
60.981931530137,-2.3993526478854,2.2816781678168,1521138.8486933,13945.34182589,3903816.892526,7.4816781678168,0,0
60.981931691476,-2.4030267816321,2.2861086108611,1521138.8486933,13945.34182589,3903816.892526,7.4861086108611,0,0
60.981931852814,-2.4067009153787,2.2905390539054,1521138.8486933,13945.34182589,3903816.892526,7.4905390539054,0,0
60.981932014153,-2.4103750491254,2.2949694969497,1521138.8486933,13945.34182589,3903816.892526,7.4949694969497,0,0
60.981932175491,-2.414049182872,2.299399939994,1521138.8486933,13945.34182589,3903816.892526,7.499399939994,0,0
60.981932336829,-2.4177233166186,2.3038303830383,1521138.8486933,13945.34182589,3903816.892526,7.5038303830383,0,0
60.981932498168,-2.4213974503653,2.3082608260826,1521138.8486933,13945.34182589,3903816.892526,7.5082608260826,0,0
60.981932659506,-2.4250715841119,2.3126912691269,1521138.8486933,13945.34182589,3903816.892526,7.5126912691269,0,0
60.981932820845,-2.4287457178585,2.3171217121712,1521138.8486933,13945.34182589,3903816.892526,7.5171217121712,0,0
60.981932982183,-2.4324198516052,2.3215521552155,1521138.8486933,13945.34182589,3903816.892526,7.5215521552155,0,0
60.981933143521,-2.4360939853518,2.3259825982598,1521138.8486933,13945.34182589,3903816.892526,7.5259825982598,0,0
60.98193330486,-2.4397681190985,2.3304130413041,1521138.8486933,13945.34182589,3903816.892526,7.5304130413041,0,0
60.981933466198,-2.4434422528451,2.3348434843484,1521138.8486933,13945.34182589,3903816.892526,7.5348434843484,0,0
60.981933627537,-2.4471163865917,2.3392739273927,1521138.8486933,13945.34182589,3903816.892526,7.5392739273927,0,0
60.981933788875,-2.4507905203384,2.343704370437,1521138.8486933,13945.34182589,3903816.892526,7.543704370437,0,0
60.981933950213,-2.454464654085,2.3481348134813,1521138.8486933,13945.34182589,3903816.892526,7.5481348134813,0,0
60.981934111552,-2.4581387878316,2.3525652565257,1521138.8486933,13945.34182589,3903816.892526,7.5525652565257,0,0
60.98193427289,-2.4618129215783,2.35699569957,1521138.8486933,13945.34182589,3903816.892526,7.55699569957,0,0
60.981934434229,-2.4654870553249,2.3614261426143,1521138.8486933,13945.34182589,3903816.892526,7.5614261426143,0,0
60.981934595567,-2.4691611890715,2.3658565856586,1521138.8486933,13945.34182589,3903816.892526,7.5658565856586,0,0
60.981934756906,-2.4728353228182,2.3702870287029,1521138.8486933,13945.34182589,3903816.892526,7.5702870287029,0,0
60.981934918244,-2.4765094565648,2.3747174717472,1521138.8486933,13945.34182589,3903816.892526,7.5747174717472,0,0
60.981935079582,-2.4801835903115,2.3791479147915,1521138.8486933,13945.34182589,3903816.892526,7.5791479147915,0,0
60.981935240921,-2.4838577240581,2.3835783578358,1521138.8486933,13945.34182589,3903816.892526,7.5835783578358,0,0
60.981935402259,-2.4875318578047,2.3880088008801,1521138.8486933,13945.34182589,3903816.892526,7.5880088008801,0,0
60.981935563598,-2.4912059915514,2.3924392439244,1521138.8486933,13945.34182589,3903816.892526,7.5924392439244,0,0
60.981935724936,-2.494880125298,2.3968696869687,1521138.8486933,13945.34182589,3903816.892526,7.5968696869687,0,0
60.981935886274,-2.4985542590446,2.401300130013,1521138.8486933,13945.34182589,3903816.892526,7.601300130013,0,0
60.981936047613,-2.5022283927913,2.4057305730573,1521138.8486933,13945.34182589,3903816.892526,7.6057305730573,0,0
60.981936208951,-2.5059025265379,2.4101610161016,1521138.8486933,13945.34182589,3903816.892526,7.6101610161016,0,0
60.98193637029,-2.5095766602845,2.4145914591459,1521138.8486933,13945.34182589,3903816.892526,7.6145914591459,0,0
60.981936531628,-2.5132507940312,2.4190219021902,1521138.8486933,13945.34182589,3903816.892526,7.6190219021902,0,0
60.981936692966,-2.5169249277778,2.4234523452345,1521138.8486933,13945.34182589,3903816.892526,7.6234523452345,0,0
60.981936854305,-2.5205990615245,2.4278827882788,1521138.8486933,13945.34182589,3903816.892526,7.6278827882788,0,0
60.981937015643,-2.5242731952711,2.4323132313231,1521138.8486933,13945.34182589,3903816.892526,7.6323132313231,0,0
60.981937176982,-2.5279473290177,2.4367436743674,1521138.8486933,13945.34182589,3903816.892526,7.6367436743674,0,0
60.98193733832,-2.5316214627644,2.4411741174117,1521138.8486933,13945.34182589,3903816.892526,7.6411741174117,0,0
60.981937499658,-2.535295596511,2.445604560456,1521138.8486933,13945.34182589,3903816.892526,7.645604560456,0,0
60.981937660997,-2.5389697302576,2.4500350035003,1521138.8486933,13945.34182589,3903816.892526,7.6500350035004,0,0
60.981937822335,-2.5426438640043,2.4544654465447,1521138.8486933,13945.34182589,3903816.892526,7.6544654465447,0,0
60.981937987039,-2.5463180050349,2.458895889589,1571497.8218314,-29255.74966705,3849998.6803573,7.658895889589,0,0
60.981938153833,-2.5499921505891,2.4633263326333,1571497.8218314,-29255.74966705,3849998.6803573,7.6633263326333,0,0
60.981938320627,-2.5536662961433,2.4677567756776,1571497.8218314,-29255.74966705,3849998.6803573,7.6677567756776,0,0
60.98193848742,-2.5573404416975,2.4721872187219,1571497.8218314,-29255.74966705,3849998.6803573,7.6721872187219,0,0
60.981938654214,-2.5610145872517,2.4766176617662,1571497.8218314,-29255.74966705,3849998.6803573,7.6766176617662,0,0
60.981938821008,-2.5646887328059,2.4810481048105,1571497.8218314,-29255.74966705,3849998.6803573,7.6810481048105,0,0
60.981938987802,-2.5683628783601,2.4854785478548,1571497.8218314,-29255.74966705,3849998.6803573,7.6854785478548,0,0
60.981939154596,-2.5720370239143,2.4899089908991,1571497.8218314,-29255.74966705,3849998.6803573,7.6899089908991,0,0
60.981939321389,-2.5757111694684,2.4943394339434,1571497.8218314,-29255.74966705,3849998.6803573,7.6943394339434,0,0
60.981939488183,-2.5793853150226,2.4987698769877,1571497.8218314,-29255.74966705,3849998.6803573,7.6987698769877,0,0
60.981939654977,-2.5830594605768,2.503200320032,1571497.8218314,-29255.74966705,3849998.6803573,7.703200320032,0,0
60.981939821771,-2.586733606131,2.5076307630763,1571497.8218314,-29255.74966705,3849998.6803573,7.7076307630763,0,0
60.981939988565,-2.5904077516852,2.5120612061206,1571497.8218314,-29255.74966705,3849998.6803573,7.7120612061206,0,0
60.981940155358,-2.5940818972394,2.5164916491649,1571497.8218314,-29255.74966705,3849998.6803573,7.7164916491649,0,0
60.981940322152,-2.5977560427936,2.5209220922092,1571497.8218314,-29255.74966705,3849998.6803573,7.7209220922092,0,0
60.981940488946,-2.6014301883478,2.5253525352535,1571497.8218314,-29255.74966705,3849998.6803573,7.7253525352535,0,0
60.98194065574,-2.605104333902,2.5297829782978,1571497.8218314,-29255.74966705,3849998.6803573,7.7297829782978,0,0
60.981940822534,-2.6087784794562,2.5342134213421,1571497.8218314,-29255.74966705,3849998.6803573,7.7342134213421,0,0
60.981940989327,-2.6124526250104,2.5386438643864,1571497.8218314,-29255.74966705,3849998.6803573,7.7386438643864,0,0
60.981941156121,-2.6161267705646,2.5430743074307,1571497.8218314,-29255.74966705,3849998.6803573,7.7430743074307,0,0
60.981941322915,-2.6198009161187,2.547504750475,1571497.8218314,-29255.74966705,3849998.6803573,7.747504750475,0,0
60.981941489709,-2.6234750616729,2.5519351935194,1571497.8218314,-29255.74966705,3849998.6803573,7.7519351935194,0,0
60.981941656503,-2.6271492072271,2.5563656365637,1571497.8218314,-29255.74966705,3849998.6803573,7.7563656365637,0,0
60.981941823296,-2.6308233527813,2.560796079608,1571497.8218314,-29255.74966705,3849998.6803573,7.760796079608,0,0
60.98194199009,-2.6344974983355,2.5652265226523,1571497.8218314,-29255.74966705,3849998.6803573,7.7652265226523,0,0
60.981942156884,-2.6381716438897,2.5696569656966,1571497.8218314,-29255.74966705,3849998.6803573,7.7696569656966,0,0
60.981942323678,-2.6418457894439,2.5740874087409,1571497.8218314,-29255.74966705,3849998.6803573,7.7740874087409,0,0
60.981942490472,-2.6455199349981,2.5785178517852,1571497.8218314,-29255.74966705,3849998.6803573,7.7785178517852,0,0
60.981942657265,-2.6491940805523,2.5829482948295,1571497.8218314,-29255.74966705,3849998.6803573,7.7829482948295,0,0
60.981942824059,-2.6528682261065,2.5873787378738,1571497.8218314,-29255.74966705,3849998.6803573,7.7873787378738,0,0
60.981942990853,-2.6565423716607,2.5918091809181,1571497.8218314,-29255.74966705,3849998.6803573,7.7918091809181,0,0
60.981943157647,-2.6602165172148,2.5962396239624,1571497.8218314,-29255.74966705,3849998.6803573,7.7962396239624,0,0
60.981943324441,-2.663890662769,2.6006700670067,1571497.8218314,-29255.74966705,3849998.6803573,7.8006700670067,0,0
60.981943491234,-2.6675648083232,2.605100510051,1571497.8218314,-29255.74966705,3849998.6803573,7.805100510051,0,0
60.981943658028,-2.6712389538774,2.6095309530953,1571497.8218314,-29255.74966705,3849998.6803573,7.8095309530953,0,0
60.981943824822,-2.6749130994316,2.6139613961396,1571497.8218314,-29255.74966705,3849998.6803573,7.8139613961396,0,0
60.981943991616,-2.6785872449858,2.6183918391839,1571497.8218314,-29255.74966705,3849998.6803573,7.8183918391839,0,0
60.981944158409,-2.68226139054,2.6228222822282,1571497.8218314,-29255.74966705,3849998.6803573,7.8228222822282,0,0
60.981944327152,-2.6859355327135,2.6272527252725,1641525.9558159,11279.78422298,3788221.8583946,7.8272527252725,0,0
60.981944501185,-2.6896096657135,2.6316831683168,1641525.9558159,11279.78422298,3788221.8583946,7.8316831683168,0,0
60.981944675217,-2.6932837987134,2.6361136113611,1641525.9558159,11279.78422298,3788221.8583946,7.8361136113611,0,0
60.981944849249,-2.6969579317134,2.6405440544054,1641525.9558159,11279.78422298,3788221.8583946,7.8405440544054,0,0
60.981945023281,-2.7006320647133,2.6449744974497,1641525.9558159,11279.78422298,3788221.8583946,7.8449744974497,0,0
60.981945197313,-2.7043061977133,2.649404940494,1641525.9558159,11279.78422298,3788221.8583946,7.849404940494,0,0
60.981945371345,-2.7079803307133,2.6538353835384,1641525.9558159,11279.78422298,3788221.8583946,7.8538353835384,0,0
60.981945545378,-2.7116544637132,2.6582658265827,1641525.9558159,11279.78422298,3788221.8583946,7.8582658265827,0,0
60.98194571941,-2.7153285967132,2.662696269627,1641525.9558159,11279.78422298,3788221.8583946,7.862696269627,0,0
60.981945893442,-2.7190027297131,2.6671267126713,1641525.9558159,11279.78422298,3788221.8583946,7.8671267126713,0,0
60.981946067474,-2.7226768627131,2.6715571557156,1641525.9558159,11279.78422298,3788221.8583946,7.8715571557156,0,0
60.981946241506,-2.726350995713,2.6759875987599,1641525.9558159,11279.78422298,3788221.8583946,7.8759875987599,0,0
60.981946415538,-2.730025128713,2.6804180418042,1641525.9558159,11279.78422298,3788221.8583946,7.8804180418042,0,0
60.981946589571,-2.733699261713,2.6848484848485,1641525.9558159,11279.78422298,3788221.8583946,7.8848484848485,0,0
60.981946763603,-2.7373733947129,2.6892789278928,1641525.9558159,11279.78422298,3788221.8583946,7.8892789278928,0,0
60.981946937635,-2.7410475277129,2.6937093709371,1641525.9558159,11279.78422298,3788221.8583946,7.8937093709371,0,0
60.981947111667,-2.7447216607128,2.6981398139814,1641525.9558159,11279.78422298,3788221.8583946,7.8981398139814,0,0
60.981947285699,-2.7483957937128,2.7025702570257,1641525.9558159,11279.78422298,3788221.8583946,7.9025702570257,0,0
60.981947459732,-2.7520699267127,2.70700070007,1641525.9558159,11279.78422298,3788221.8583946,7.90700070007,0,0
60.981947633764,-2.7557440597127,2.7114311431143,1641525.9558159,11279.78422298,3788221.8583946,7.9114311431143,0,0
60.981947807796,-2.7594181927126,2.7158615861586,1641525.9558159,11279.78422298,3788221.8583946,7.9158615861586,0,0
60.981947981828,-2.7630923257126,2.7202920292029,1641525.9558159,11279.78422298,3788221.8583946,7.9202920292029,0,0
60.98194815586,-2.7667664587126,2.7247224722472,1641525.9558159,11279.78422298,3788221.8583946,7.9247224722472,0,0
60.981948329892,-2.7704405917125,2.7291529152915,1641525.9558159,11279.78422298,3788221.8583946,7.9291529152915,0,0
60.981948503925,-2.7741147247125,2.7335833583358,1641525.9558159,11279.78422298,3788221.8583946,7.9335833583358,0,0
60.981948677957,-2.7777888577124,2.7380138013801,1641525.9558159,11279.78422298,3788221.8583946,7.9380138013801,0,0
60.981948851989,-2.7814629907124,2.7424442444244,1641525.9558159,11279.78422298,3788221.8583946,7.9424442444244,0,0
60.981949026021,-2.7851371237123,2.7468746874687,1641525.9558159,11279.78422298,3788221.8583946,7.9468746874687,0,0
60.981949200053,-2.7888112567123,2.7513051305131,1641525.9558159,11279.78422298,3788221.8583946,7.9513051305131,0,0
60.981949374085,-2.7924853897123,2.7557355735574,1641525.9558159,11279.78422298,3788221.8583946,7.9557355735574,0,0
60.981949548118,-2.7961595227122,2.7601660166017,1641525.9558159,11279.78422298,3788221.8583946,7.9601660166017,0,0
60.98194972215,-2.7998336557122,2.764596459646,1641525.9558159,11279.78422298,3788221.8583946,7.964596459646,0,0
60.981949896182,-2.8035077887121,2.7690269026903,1641525.9558159,11279.78422298,3788221.8583946,7.9690269026903,0,0
60.981950070214,-2.8071819217121,2.7734573457346,1641525.9558159,11279.78422298,3788221.8583946,7.9734573457346,0,0
60.981950244246,-2.810856054712,2.7778877887789,1641525.9558159,11279.78422298,3788221.8583946,7.9778877887789,0,0
60.981950418278,-2.814530187712,2.7823182318232,1641525.9558159,11279.78422298,3788221.8583946,7.9823182318232,0,0
60.981950592311,-2.818204320712,2.7867486748675,1641525.9558159,11279.78422298,3788221.8583946,7.9867486748675,0,0
60.981950766343,-2.8218784537119,2.7911791179118,1641525.9558159,11279.78422298,3788221.8583946,7.9911791179118,0,0
60.981950940375,-2.8255525867119,2.7956095609561,1641525.9558159,11279.78422298,3788221.8583946,7.9956095609561,0,0
60.981951114407,-2.8292267197118,2.8000400040004,1641525.9558159,11279.78422298,3788221.8583946,8.0000400040004,0,0
60.981951288439,-2.8329008527118,2.8044704470447,1641525.9558159,11279.78422298,3788221.8583946,8.0044704470447,0,0
60.981951462471,-2.8365749857117,2.808900890089,1641525.9558159,11279.78422298,3788221.8583946,8.008900890089,0,0
60.981951636504,-2.8402491187117,2.8133313331333,1641525.9558159,11279.78422298,3788221.8583946,8.0133313331333,0,0
60.981951810536,-2.8439232517116,2.8177617761776,1641525.9558159,11279.78422298,3788221.8583946,8.0177617761776,0,0
60.981951984568,-2.8475973847116,2.8221922192219,1641525.9558159,11279.78422298,3788221.8583946,8.0221922192219,0,0
60.9819521586,-2.8512715177116,2.8266226622662,1641525.9558159,11279.78422298,3788221.8583946,8.0266226622662,0,0
60.981952332632,-2.8549456507115,2.8310531053105,1641525.9558159,11279.78422298,3788221.8583946,8.0310531053105,0,0
60.981952506664,-2.8586197837115,2.8354835483548,1641525.9558159,11279.78422298,3788221.8583946,8.0354835483548,0,0
60.981952680697,-2.8622939167114,2.8399139913991,1641525.9558159,11279.78422298,3788221.8583946,8.0399139913991,0,0
60.981952854729,-2.8659680497114,2.8443444344434,1641525.9558159,11279.78422298,3788221.8583946,8.0443444344434,0,0
60.981953028761,-2.8696421827113,2.8487748774877,1641525.9558159,11279.78422298,3788221.8583946,8.0487748774877,0,0
60.981953202793,-2.8733163157113,2.8532053205321,1641525.9558159,11279.78422298,3788221.8583946,8.0532053205321,0,0
60.981953376825,-2.8769904487113,2.8576357635764,1641525.9558159,11279.78422298,3788221.8583946,8.0576357635764,0,0
60.981953550857,-2.8806645817112,2.8620662066207,1641525.9558159,11279.78422298,3788221.8583946,8.0620662066207,0,0
60.98195372489,-2.8843387147112,2.866496649665,1641525.9558159,11279.78422298,3788221.8583946,8.066496649665,0,0
60.981953898922,-2.8880128477111,2.8709270927093,1641525.9558159,11279.78422298,3788221.8583946,8.0709270927093,0,0
60.981954077304,-2.8916869869345,2.8753575357536,1733539.3467634,-27737.071302829,3760538.8900475,8.0753575357536,0,0
60.981954259423,-2.8953611315033,2.8797879787979,1733539.3467634,-27737.071302829,3760538.8900475,8.0797879787979,0,0
60.981954441542,-2.899035276072,2.8842184218422,1733539.3467634,-27737.071302829,3760538.8900475,8.0842184218422,0,0
60.981954623661,-2.9027094206408,2.8886488648865,1733539.3467634,-27737.071302829,3760538.8900475,8.0886488648865,0,0
60.98195480578,-2.9063835652096,2.8930793079308,1733539.3467634,-27737.071302829,3760538.8900475,8.0930793079308,0,0
60.981954987899,-2.9100577097783,2.8975097509751,1733539.3467634,-27737.071302829,3760538.8900475,8.0975097509751,0,0
60.981955170017,-2.9137318543471,2.9019401940194,1733539.3467634,-27737.071302829,3760538.8900475,8.1019401940194,0,0
60.981955352136,-2.9174059989159,2.9063706370637,1733539.3467634,-27737.071302829,3760538.8900475,8.1063706370637,0,0
60.981955534255,-2.9210801434846,2.910801080108,1733539.3467634,-27737.071302829,3760538.8900475,8.110801080108,0,0
60.981955716374,-2.9247542880534,2.9152315231523,1733539.3467634,-27737.071302829,3760538.8900475,8.1152315231523,0,0
60.981955898493,-2.9284284326222,2.9196619661966,1733539.3467634,-27737.071302829,3760538.8900475,8.1196619661966,0,0
60.981956080612,-2.9321025771909,2.9240924092409,1733539.3467634,-27737.071302829,3760538.8900475,8.1240924092409,0,0
60.981956262731,-2.9357767217597,2.9285228522852,1733539.3467634,-27737.071302829,3760538.8900475,8.1285228522852,0,0
60.98195644485,-2.9394508663285,2.9329532953295,1733539.3467634,-27737.071302829,3760538.8900475,8.1329532953295,0,0
60.981956626968,-2.9431250108972,2.9373837383738,1733539.3467634,-27737.071302829,3760538.8900475,8.1373837383738,0,0
60.981956809087,-2.946799155466,2.9418141814181,1733539.3467634,-27737.071302829,3760538.8900475,8.1418141814181,0,0
60.981956991206,-2.9504733000348,2.9462446244624,1733539.3467634,-27737.071302829,3760538.8900475,8.1462446244624,0,0
60.981957173325,-2.9541474446035,2.9506750675067,1733539.3467634,-27737.071302829,3760538.8900475,8.1506750675068,0,0
60.981957355444,-2.9578215891723,2.9551055105511,1733539.3467634,-27737.071302829,3760538.8900475,8.1551055105511,0,0
60.981957537563,-2.9614957337411,2.9595359535954,1733539.3467634,-27737.071302829,3760538.8900475,8.1595359535954,0,0
60.981957719682,-2.9651698783098,2.9639663966397,1733539.3467634,-27737.071302829,3760538.8900475,8.1639663966397,0,0
60.981957901801,-2.9688440228786,2.968396839684,1733539.3467634,-27737.071302829,3760538.8900475,8.168396839684,0,0
60.981958083919,-2.9725181674473,2.9728272827283,1733539.3467634,-27737.071302829,3760538.8900475,8.1728272827283,0,0
60.981958266038,-2.9761923120161,2.9772577257726,1733539.3467634,-27737.071302829,3760538.8900475,8.1772577257726,0,0
60.981958448157,-2.9798664565849,2.9816881688169,1733539.3467634,-27737.071302829,3760538.8900475,8.1816881688169,0,0
60.981958630276,-2.9835406011536,2.9861186118612,1733539.3467634,-27737.071302829,3760538.8900475,8.1861186118612,0,0
60.981958812395,-2.9872147457224,2.9905490549055,1733539.3467634,-27737.071302829,3760538.8900475,8.1905490549055,0,0
60.981958994514,-2.9908888902912,2.9949794979498,1733539.3467634,-27737.071302829,3760538.8900475,8.1949794979498,0,0
60.981959176633,-2.9945630348599,2.9994099409941,1733539.3467634,-27737.071302829,3760538.8900475,8.1994099409941,0,0
60.981959358752,-2.9982371794287,3.0038403840384,1733539.3467634,-27737.071302829,3760538.8900475,8.2038403840384,0,0
60.98195954087,-3.0019113239975,3.0082708270827,1733539.3467634,-27737.071302829,3760538.8900475,8.2082708270827,0,0
60.981959722989,-3.0055854685662,3.012701270127,1733539.3467634,-27737.071302829,3760538.8900475,8.212701270127,0,0
60.981959905108,-3.009259613135,3.0171317131713,1733539.3467634,-27737.071302829,3760538.8900475,8.2171317131713,0,0
60.981960087227,-3.0129337577038,3.0215621562156,1733539.3467634,-27737.071302829,3760538.8900475,8.2215621562156,0,0
60.981960269346,-3.0166079022725,3.0259925992599,1733539.3467634,-27737.071302829,3760538.8900475,8.2259925992599,0,0
60.981960451465,-3.0202820468413,3.0304230423042,1733539.3467634,-27737.071302829,3760538.8900475,8.2304230423042,0,0
60.981960633584,-3.0239561914101,3.0348534853485,1733539.3467634,-27737.071302829,3760538.8900475,8.2348534853485,0,0
60.981960815703,-3.0276303359788,3.0392839283928,1733539.3467634,-27737.071302829,3760538.8900475,8.2392839283928,0,0
60.981960997821,-3.0313044805476,3.0437143714371,1733539.3467634,-27737.071302829,3760538.8900475,8.2437143714371,0,0
60.98196117994,-3.0349786251164,3.0481448144814,1733539.3467634,-27737.071302829,3760538.8900475,8.2481448144814,0,0
60.981961362059,-3.0386527696851,3.0525752575258,1733539.3467634,-27737.071302829,3760538.8900475,8.2525752575258,0,0
60.981961544178,-3.0423269142539,3.0570057005701,1733539.3467634,-27737.071302829,3760538.8900475,8.2570057005701,0,0
60.981961726297,-3.0460010588227,3.0614361436144,1733539.3467634,-27737.071302829,3760538.8900475,8.2614361436144,0,0
60.981961908416,-3.0496752033914,3.0658665866587,1733539.3467634,-27737.071302829,3760538.8900475,8.2658665866587,0,0
60.981962090535,-3.0533493479602,3.070297029703,1733539.3467634,-27737.071302829,3760538.8900475,8.270297029703,0,0
60.981962272654,-3.057023492529,3.0747274727473,1733539.3467634,-27737.071302829,3760538.8900475,8.2747274727473,0,0
60.981962454773,-3.0606976370977,3.0791579157916,1733539.3467634,-27737.071302829,3760538.8900475,8.2791579157916,0,0
60.981962636891,-3.0643717816665,3.0835883588359,1733539.3467634,-27737.071302829,3760538.8900475,8.2835883588359,0,0
60.98196282004,-3.0680459221478,3.0880188018802,1730302.5471891,9579.2436213117,3655936.7491962,8.2880188018802,0,0
60.981963004685,-3.0717200566854,3.0924492449245,1730302.5471891,9579.2436213117,3655936.7491962,8.2924492449245,0,0
60.981963189331,-3.075394191223,3.0968796879688,1730302.5471891,9579.2436213117,3655936.7491962,8.2968796879688,0,0
60.981963373976,-3.0790683257606,3.1013101310131,1730302.5471891,9579.2436213117,3655936.7491962,8.3013101310131,0,0
60.981963558621,-3.0827424602983,3.1057405740574,1730302.5471891,9579.2436213117,3655936.7491962,8.3057405740574,0,0
60.981963743267,-3.0864165948359,3.1101710171017,1730302.5471891,9579.2436213117,3655936.7491962,8.3101710171017,0,0
60.981963927912,-3.0900907293735,3.114601460146,1730302.5471891,9579.2436213117,3655936.7491962,8.314601460146,0,0
60.981964112558,-3.0937648639111,3.1190319031903,1730302.5471891,9579.2436213117,3655936.7491962,8.3190319031903,0,0
60.981964297203,-3.0974389984488,3.1234623462346,1730302.5471891,9579.2436213117,3655936.7491962,8.3234623462346,0,0
60.981964481848,-3.1011131329864,3.1278927892789,1730302.5471891,9579.2436213117,3655936.7491962,8.3278927892789,0,0
60.981964666494,-3.104787267524,3.1323232323232,1730302.5471891,9579.2436213117,3655936.7491962,8.3323232323232,0,0
60.981964851139,-3.1084614020616,3.1367536753675,1730302.5471891,9579.2436213117,3655936.7491962,8.3367536753675,0,0
60.981965035784,-3.1121355365993,3.1411841184118,1730302.5471891,9579.2436213117,3655936.7491962,8.3411841184118,0,0
60.98196522043,-3.1158096711369,3.1456145614561,1730302.5471891,9579.2436213117,3655936.7491962,8.3456145614561,0,0
60.981965405075,-3.1194838056745,3.1500450045004,1730302.5471891,9579.2436213117,3655936.7491962,8.3500450045004,0,0
60.981965589721,-3.1231579402121,3.1544754475448,1730302.5471891,9579.2436213117,3655936.7491962,8.3544754475448,0,0
60.981965774366,-3.1268320747497,3.1589058905891,1730302.5471891,9579.2436213117,3655936.7491962,8.3589058905891,0,0
60.981965959011,-3.1305062092874,3.1633363336334,1730302.5471891,9579.2436213117,3655936.7491962,8.3633363336334,0,0
60.981966143657,-3.134180343825,3.1677667766777,1730302.5471891,9579.2436213117,3655936.7491962,8.3677667766777,0,0
60.981966328302,-3.1378544783626,3.172197219722,1730302.5471891,9579.2436213117,3655936.7491962,8.372197219722,0,0
60.981966512948,-3.1415286129002,3.1766276627663,1730302.5471891,9579.2436213117,3655936.7491962,8.3766276627663,0,0
60.981966697593,-3.1452027474379,3.1810581058106,1730302.5471891,9579.2436213117,3655936.7491962,8.3810581058106,0,0
60.981966882238,-3.1488768819755,3.1854885488549,1730302.5471891,9579.2436213117,3655936.7491962,8.3854885488549,0,0
60.981967066884,-3.1525510165131,3.1899189918992,1730302.5471891,9579.2436213117,3655936.7491962,8.3899189918992,0,0
60.981967251529,-3.1562251510507,3.1943494349435,1730302.5471891,9579.2436213117,3655936.7491962,8.3943494349435,0,0
60.981967436175,-3.1598992855884,3.1987798779878,1730302.5471891,9579.2436213117,3655936.7491962,8.3987798779878,0,0
60.98196762082,-3.163573420126,3.2032103210321,1730302.5471891,9579.2436213117,3655936.7491962,8.4032103210321,0,0
60.981967805465,-3.1672475546636,3.2076407640764,1730302.5471891,9579.2436213117,3655936.7491962,8.4076407640764,0,0
60.981967990111,-3.1709216892012,3.2120712071207,1730302.5471891,9579.2436213117,3655936.7491962,8.4120712071207,0,0
60.981968174756,-3.1745958237389,3.216501650165,1730302.5471891,9579.2436213117,3655936.7491962,8.416501650165,0,0
60.981968359402,-3.1782699582765,3.2209320932093,1730302.5471891,9579.2436213117,3655936.7491962,8.4209320932093,0,0
60.981968544047,-3.1819440928141,3.2253625362536,1730302.5471891,9579.2436213117,3655936.7491962,8.4253625362536,0,0
60.981968728692,-3.1856182273517,3.2297929792979,1730302.5471891,9579.2436213117,3655936.7491962,8.4297929792979,0,0
60.981968913338,-3.1892923618893,3.2342234223422,1730302.5471891,9579.2436213117,3655936.7491962,8.4342234223422,0,0
60.981969097983,-3.192966496427,3.2386538653865,1730302.5471891,9579.2436213117,3655936.7491962,8.4386538653865,0,0
60.981969282629,-3.1966406309646,3.2430843084308,1730302.5471891,9579.2436213117,3655936.7491962,8.4430843084308,0,0
60.981969467274,-3.2003147655022,3.2475147514751,1730302.5471891,9579.2436213117,3655936.7491962,8.4475147514751,0,0
60.981969651919,-3.2039889000398,3.2519451945195,1730302.5471891,9579.2436213117,3655936.7491962,8.4519451945195,0,0
60.981969836565,-3.2076630345775,3.2563756375638,1730302.5471891,9579.2436213117,3655936.7491962,8.4563756375638,0,0
60.98197002121,-3.2113371691151,3.2608060806081,1730302.5471891,9579.2436213117,3655936.7491962,8.4608060806081,0,0
60.981970205856,-3.2150113036527,3.2652365236524,1730302.5471891,9579.2436213117,3655936.7491962,8.4652365236524,0,0
60.981970390501,-3.2186854381903,3.2696669666967,1730302.5471891,9579.2436213117,3655936.7491962,8.4696669666967,0,0
60.981970575146,-3.222359572728,3.274097409741,1730302.5471891,9579.2436213117,3655936.7491962,8.474097409741,0,0
60.981970759792,-3.2260337072656,3.2785278527853,1730302.5471891,9579.2436213117,3655936.7491962,8.4785278527853,0,0
60.981970948875,-3.2297078423824,3.2829582958296,1844155.8929962,7521.9291311669,3692874.1549976,8.4829582958296,0,0
60.981971141631,-3.2333819779786,3.2873887388739,1844155.8929962,7521.9291311669,3692874.1549976,8.4873887388739,0,0
60.981971334387,-3.2370561135748,3.2918191819182,1844155.8929962,7521.9291311669,3692874.1549976,8.4918191819182,0,0
60.981971527143,-3.240730249171,3.2962496249625,1844155.8929962,7521.9291311669,3692874.1549976,8.4962496249625,0,0
60.981971719899,-3.2444043847673,3.3006800680068,1844155.8929962,7521.9291311669,3692874.1549976,8.5006800680068,0,0
60.981971912655,-3.2480785203635,3.3051105110511,1844155.8929962,7521.9291311669,3692874.1549976,8.5051105110511,0,0
60.981972105411,-3.2517526559597,3.3095409540954,1844155.8929962,7521.9291311669,3692874.1549976,8.5095409540954,0,0
60.981972298167,-3.2554267915559,3.3139713971397,1844155.8929962,7521.9291311669,3692874.1549976,8.5139713971397,0,0
60.981972490923,-3.2591009271521,3.318401840184,1844155.8929962,7521.9291311669,3692874.1549976,8.518401840184,0,0
60.981972683679,-3.2627750627483,3.3228322832283,1844155.8929962,7521.9291311669,3692874.1549976,8.5228322832283,0,0
60.981972876435,-3.2664491983445,3.3272627262726,1844155.8929962,7521.9291311669,3692874.1549976,8.5272627262726,0,0
60.981973069191,-3.2701233339408,3.3316931693169,1844155.8929962,7521.9291311669,3692874.1549976,8.5316931693169,0,0
60.981973261947,-3.273797469537,3.3361236123612,1844155.8929962,7521.9291311669,3692874.1549976,8.5361236123612,0,0
60.981973454703,-3.2774716051332,3.3405540554055,1844155.8929962,7521.9291311669,3692874.1549976,8.5405540554055,0,0
60.98197364746,-3.2811457407294,3.3449844984498,1844155.8929962,7521.9291311669,3692874.1549976,8.5449844984498,0,0
60.981973840216,-3.2848198763256,3.3494149414941,1844155.8929962,7521.9291311669,3692874.1549976,8.5494149414941,0,0
60.981974032972,-3.2884940119218,3.3538453845385,1844155.8929962,7521.9291311669,3692874.1549976,8.5538453845385,0,0
60.981974225728,-3.292168147518,3.3582758275828,1844155.8929962,7521.9291311669,3692874.1549976,8.5582758275828,0,0
60.981974418484,-3.2958422831142,3.3627062706271,1844155.8929962,7521.9291311669,3692874.1549976,8.5627062706271,0,0
60.98197461124,-3.2995164187105,3.3671367136714,1844155.8929962,7521.9291311669,3692874.1549976,8.5671367136714,0,0
60.981974803996,-3.3031905543067,3.3715671567157,1844155.8929962,7521.9291311669,3692874.1549976,8.5715671567157,0,0
60.981974996752,-3.3068646899029,3.37599759976,1844155.8929962,7521.9291311669,3692874.1549976,8.57599759976,0,0
60.981975189508,-3.3105388254991,3.3804280428043,1844155.8929962,7521.9291311669,3692874.1549976,8.5804280428043,0,0
60.981975382264,-3.3142129610953,3.3848584858486,1844155.8929962,7521.9291311669,3692874.1549976,8.5848584858486,0,0
60.98197557502,-3.3178870966915,3.3892889288929,1844155.8929962,7521.9291311669,3692874.1549976,8.5892889288929,0,0
60.981975767776,-3.3215612322877,3.3937193719372,1844155.8929962,7521.9291311669,3692874.1549976,8.5937193719372,0,0
60.981975960532,-3.325235367884,3.3981498149815,1844155.8929962,7521.9291311669,3692874.1549976,8.5981498149815,0,0
60.981976153288,-3.3289095034802,3.4025802580258,1844155.8929962,7521.9291311669,3692874.1549976,8.6025802580258,0,0
60.981976346044,-3.3325836390764,3.4070107010701,1844155.8929962,7521.9291311669,3692874.1549976,8.6070107010701,0,0
60.9819765388,-3.3362577746726,3.4114411441144,1844155.8929962,7521.9291311669,3692874.1549976,8.6114411441144,0,0
60.981976731556,-3.3399319102688,3.4158715871587,1844155.8929962,7521.9291311669,3692874.1549976,8.6158715871587,0,0
60.981976924312,-3.343606045865,3.420302030203,1844155.8929962,7521.9291311669,3692874.1549976,8.620302030203,0,0
60.981977117068,-3.3472801814612,3.4247324732473,1844155.8929962,7521.9291311669,3692874.1549976,8.6247324732473,0,0
60.981977309824,-3.3509543170575,3.4291629162916,1844155.8929962,7521.9291311669,3692874.1549976,8.6291629162916,0,0
60.981977502581,-3.3546284526537,3.4335933593359,1844155.8929962,7521.9291311669,3692874.1549976,8.6335933593359,0,0
60.981977695337,-3.3583025882499,3.4380238023802,1844155.8929962,7521.9291311669,3692874.1549976,8.6380238023802,0,0
60.981977888093,-3.3619767238461,3.4424542454245,1844155.8929962,7521.9291311669,3692874.1549976,8.6424542454245,0,0
60.981978080849,-3.3656508594423,3.4468846884688,1844155.8929962,7521.9291311669,3692874.1549976,8.6468846884688,0,0
60.981978273605,-3.3693249950385,3.4513151315132,1844155.8929962,7521.9291311669,3692874.1549976,8.6513151315132,0,0
60.981978466361,-3.3729991306347,3.4557455745575,1844155.8929962,7521.9291311669,3692874.1549976,8.6557455745575,0,0
60.981978659117,-3.3766732662309,3.4601760176018,1844155.8929962,7521.9291311669,3692874.1549976,8.6601760176018,0,0
60.981978851873,-3.3803474018272,3.4646064606461,1844155.8929962,7521.9291311669,3692874.1549976,8.6646064606461,0,0
60.981979044629,-3.3840215374234,3.4690369036904,1844155.8929962,7521.9291311669,3692874.1549976,8.6690369036904,0,0
60.981979237385,-3.3876956730196,3.4734673467347,1844155.8929962,7521.9291311669,3692874.1549976,8.6734673467347,0,0
60.981979430141,-3.3913698086158,3.477897789779,1844155.8929962,7521.9291311669,3692874.1549976,8.677897789779,0,0
60.981979622897,-3.395043944212,3.4823282328233,1844155.8929962,7521.9291311669,3692874.1549976,8.6823282328233,0,0
60.981979815653,-3.3987180798082,3.4867586758676,1844155.8929962,7521.9291311669,3692874.1549976,8.6867586758676,0,0
60.981980008409,-3.4023922154044,3.4911891189119,1844155.8929962,7521.9291311669,3692874.1549976,8.6911891189119,0,0
60.981980201165,-3.4060663510007,3.4956195619562,1844155.8929962,7521.9291311669,3692874.1549976,8.6956195619562,0,0
60.981980393958,-3.4097404882637,3.5000500050005,1807374.343433,-27533.584353938,3576279.7996413,8.7000500050005,0,0
60.98198058688,-3.4134146315081,3.5044804480448,1807374.343433,-27533.584353938,3576279.7996413,8.7044804480448,0,0
60.981980779802,-3.4170887747525,3.5089108910891,1807374.343433,-27533.584353938,3576279.7996413,8.7089108910891,0,0
60.981980972725,-3.4207629179969,3.5133413341334,1807374.343433,-27533.584353938,3576279.7996413,8.7133413341334,0,0
60.981981165647,-3.4244370612414,3.5177717771777,1807374.343433,-27533.584353938,3576279.7996413,8.7177717771777,0,0
60.98198135857,-3.4281112044858,3.522202220222,1807374.343433,-27533.584353938,3576279.7996413,8.722202220222,0,0
60.981981551492,-3.4317853477302,3.5266326632663,1807374.343433,-27533.584353938,3576279.7996413,8.7266326632663,0,0
60.981981744415,-3.4354594909747,3.5310631063106,1807374.343433,-27533.584353938,3576279.7996413,8.7310631063106,0,0
60.981981937337,-3.4391336342191,3.5354935493549,1807374.343433,-27533.584353938,3576279.7996413,8.7354935493549,0,0
60.98198213026,-3.4428077774635,3.5399239923992,1807374.343433,-27533.584353938,3576279.7996413,8.7399239923992,0,0
60.981982323182,-3.4464819207079,3.5443544354435,1807374.343433,-27533.584353938,3576279.7996413,8.7443544354435,0,0
60.981982516105,-3.4501560639524,3.5487848784878,1807374.343433,-27533.584353938,3576279.7996413,8.7487848784878,0,0
60.981982709027,-3.4538302071968,3.5532153215322,1807374.343433,-27533.584353938,3576279.7996413,8.7532153215322,0,0
60.981982901949,-3.4575043504412,3.5576457645765,1807374.343433,-27533.584353938,3576279.7996413,8.7576457645765,0,0
60.981983094872,-3.4611784936856,3.5620762076208,1807374.343433,-27533.584353938,3576279.7996413,8.7620762076208,0,0
60.981983287794,-3.4648526369301,3.5665066506651,1807374.343433,-27533.584353938,3576279.7996413,8.7665066506651,0,0
60.981983480717,-3.4685267801745,3.5709370937094,1807374.343433,-27533.584353938,3576279.7996413,8.7709370937094,0,0
60.981983673639,-3.4722009234189,3.5753675367537,1807374.343433,-27533.584353938,3576279.7996413,8.7753675367537,0,0
60.981983866562,-3.4758750666633,3.579797979798,1807374.343433,-27533.584353938,3576279.7996413,8.779797979798,0,0
60.981984059484,-3.4795492099078,3.5842284228423,1807374.343433,-27533.584353938,3576279.7996413,8.7842284228423,0,0
60.981984252407,-3.4832233531522,3.5886588658866,1807374.343433,-27533.584353938,3576279.7996413,8.7886588658866,0,0
60.981984445329,-3.4868974963966,3.5930893089309,1807374.343433,-27533.584353938,3576279.7996413,8.7930893089309,0,0
60.981984638251,-3.490571639641,3.5975197519752,1807374.343433,-27533.584353938,3576279.7996413,8.7975197519752,0,0
60.981984831174,-3.4942457828855,3.6019501950195,1807374.343433,-27533.584353938,3576279.7996413,8.8019501950195,0,0
60.981985024096,-3.4979199261299,3.6063806380638,1807374.343433,-27533.584353938,3576279.7996413,8.8063806380638,0,0
60.981985217019,-3.5015940693743,3.6108110811081,1807374.343433,-27533.584353938,3576279.7996413,8.8108110811081,0,0
60.981985409941,-3.5052682126187,3.6152415241524,1807374.343433,-27533.584353938,3576279.7996413,8.8152415241524,0,0
60.981985602864,-3.5089423558632,3.6196719671967,1807374.343433,-27533.584353938,3576279.7996413,8.8196719671967,0,0
60.981985795786,-3.5126164991076,3.624102410241,1807374.343433,-27533.584353938,3576279.7996413,8.824102410241,0,0
60.981985988709,-3.516290642352,3.6285328532853,1807374.343433,-27533.584353938,3576279.7996413,8.8285328532853,0,0
60.981986181631,-3.5199647855964,3.6329632963296,1807374.343433,-27533.584353938,3576279.7996413,8.8329632963296,0,0
60.981986374554,-3.5236389288409,3.6373937393739,1807374.343433,-27533.584353938,3576279.7996413,8.8373937393739,0,0
60.981986567476,-3.5273130720853,3.6418241824182,1807374.343433,-27533.584353938,3576279.7996413,8.8418241824182,0,0
60.981986760398,-3.5309872153297,3.6462546254625,1807374.343433,-27533.584353938,3576279.7996413,8.8462546254625,0,0
60.981986953321,-3.5346613585741,3.6506850685069,1807374.343433,-27533.584353938,3576279.7996413,8.8506850685069,0,0
60.981987146243,-3.5383355018186,3.6551155115512,1807374.343433,-27533.584353938,3576279.7996413,8.8551155115512,0,0
60.981987339166,-3.542009645063,3.6595459545955,1807374.343433,-27533.584353938,3576279.7996413,8.8595459545955,0,0
60.981987532088,-3.5456837883074,3.6639763976398,1807374.343433,-27533.584353938,3576279.7996413,8.8639763976398,0,0
60.981987725011,-3.5493579315519,3.6684068406841,1807374.343433,-27533.584353938,3576279.7996413,8.8684068406841,0,0
60.981987917933,-3.5530320747963,3.6728372837284,1807374.343433,-27533.584353938,3576279.7996413,8.8728372837284,0,0
60.981988110856,-3.5567062180407,3.6772677267727,1807374.343433,-27533.584353938,3576279.7996413,8.8772677267727,0,0
60.981988303778,-3.5603803612851,3.681698169817,1807374.343433,-27533.584353938,3576279.7996413,8.881698169817,0,0
60.9819884967,-3.5640545045296,3.6861286128613,1807374.343433,-27533.584353938,3576279.7996413,8.8861286128613,0,0
60.981988689623,-3.567728647774,3.6905590559056,1807374.343433,-27533.584353938,3576279.7996413,8.8905590559056,0,0
60.981988888305,-3.5714027856094,3.6949894989499,1913463.7346569,-936.15171929285,3588196.6744811,8.8949894989499,0,0
60.981989089385,-3.5750769211942,3.6994199419942,1913463.7346569,-936.15171929285,3588196.6744811,8.8994199419942,0,0
60.981989290464,-3.578751056779,3.7038503850385,1913463.7346569,-936.15171929285,3588196.6744811,8.9038503850385,0,0
60.981989491543,-3.5824251923638,3.7082808280828,1913463.7346569,-936.15171929285,3588196.6744811,8.9082808280828,0,0
60.981989692622,-3.5860993279486,3.7127112711271,1913463.7346569,-936.15171929285,3588196.6744811,8.9127112711271,0,0
60.981989893701,-3.5897734635334,3.7171417141714,1913463.7346569,-936.15171929285,3588196.6744811,8.9171417141714,0,0
60.98199009478,-3.5934475991182,3.7215721572157,1913463.7346569,-936.15171929285,3588196.6744811,8.9215721572157,0,0
60.981990295859,-3.597121734703,3.72600260026,1913463.7346569,-936.15171929285,3588196.6744811,8.92600260026,0,0
60.981990496938,-3.6007958702878,3.7304330433043,1913463.7346569,-936.15171929285,3588196.6744811,8.9304330433043,0,0
60.981990698018,-3.6044700058726,3.7348634863486,1913463.7346569,-936.15171929285,3588196.6744811,8.9348634863486,0,0
60.981990899097,-3.6081441414574,3.7392939293929,1913463.7346569,-936.15171929285,3588196.6744811,8.9392939293929,0,0
60.981991100176,-3.6118182770422,3.7437243724372,1913463.7346569,-936.15171929285,3588196.6744811,8.9437243724372,0,0
60.981991301255,-3.615492412627,3.7481548154815,1913463.7346569,-936.15171929285,3588196.6744811,8.9481548154815,0,0
60.981991502334,-3.6191665482118,3.7525852585259,1913463.7346569,-936.15171929285,3588196.6744811,8.9525852585259,0,0
60.981991703413,-3.6228406837966,3.7570157015702,1913463.7346569,-936.15171929285,3588196.6744811,8.9570157015702,0,0
60.981991904492,-3.6265148193814,3.7614461446145,1913463.7346569,-936.15171929285,3588196.6744811,8.9614461446145,0,0
60.981992105572,-3.6301889549662,3.7658765876588,1913463.7346569,-936.15171929285,3588196.6744811,8.9658765876588,0,0
60.981992306651,-3.633863090551,3.7703070307031,1913463.7346569,-936.15171929285,3588196.6744811,8.9703070307031,0,0
60.98199250773,-3.6375372261358,3.7747374737474,1913463.7346569,-936.15171929285,3588196.6744811,8.9747374737474,0,0
60.981992708809,-3.6412113617206,3.7791679167917,1913463.7346569,-936.15171929285,3588196.6744811,8.9791679167917,0,0
60.981992909888,-3.6448854973054,3.783598359836,1913463.7346569,-936.15171929285,3588196.6744811,8.983598359836,0,0
60.981993110967,-3.6485596328902,3.7880288028803,1913463.7346569,-936.15171929285,3588196.6744811,8.9880288028803,0,0
60.981993312046,-3.652233768475,3.7924592459246,1913463.7346569,-936.15171929285,3588196.6744811,8.9924592459246,0,0
60.981993513125,-3.6559079040598,3.7968896889689,1913463.7346569,-936.15171929285,3588196.6744811,8.9968896889689,0,0
60.981993714205,-3.6595820396446,3.8013201320132,1913463.7346569,-936.15171929285,3588196.6744811,9.0013201320132,0,0
60.981993915284,-3.6632561752294,3.8057505750575,1913463.7346569,-936.15171929285,3588196.6744811,9.0057505750575,0,0
60.981994116363,-3.6669303108142,3.8101810181018,1913463.7346569,-936.15171929285,3588196.6744811,9.0101810181018,0,0
60.981994317442,-3.670604446399,3.8146114611461,1913463.7346569,-936.15171929285,3588196.6744811,9.0146114611461,0,0
60.981994518521,-3.6742785819838,3.8190419041904,1913463.7346569,-936.15171929285,3588196.6744811,9.0190419041904,0,0
60.9819947196,-3.6779527175686,3.8234723472347,1913463.7346569,-936.15171929285,3588196.6744811,9.0234723472347,0,0
60.981994920679,-3.6816268531534,3.827902790279,1913463.7346569,-936.15171929285,3588196.6744811,9.027902790279,0,0
60.981995121759,-3.6853009887382,3.8323332333233,1913463.7346569,-936.15171929285,3588196.6744811,9.0323332333233,0,0
60.981995322838,-3.688975124323,3.8367636763676,1913463.7346569,-936.15171929285,3588196.6744811,9.0367636763676,0,0
60.981995523917,-3.6926492599078,3.8411941194119,1913463.7346569,-936.15171929285,3588196.6744811,9.0411941194119,0,0
60.981995724996,-3.6963233954926,3.8456245624562,1913463.7346569,-936.15171929285,3588196.6744811,9.0456245624562,0,0
60.981995926075,-3.6999975310774,3.8500550055005,1913463.7346569,-936.15171929285,3588196.6744811,9.0500550055005,0,0
60.981996127154,-3.7036716666622,3.8544854485449,1913463.7346569,-936.15171929285,3588196.6744811,9.0544854485449,0,0
60.981996328233,-3.7073458022469,3.8589158915892,1913463.7346569,-936.15171929285,3588196.6744811,9.0589158915892,0,0
60.981996529312,-3.7110199378317,3.8633463346335,1913463.7346569,-936.15171929285,3588196.6744811,9.0633463346335,0,0
60.981996730392,-3.7146940734165,3.8677767776778,1913463.7346569,-936.15171929285,3588196.6744811,9.0677767776778,0,0
60.981996931471,-3.7183682090013,3.8722072207221,1913463.7346569,-936.15171929285,3588196.6744811,9.0722072207221,0,0
60.98199713255,-3.7220423445861,3.8766376637664,1913463.7346569,-936.15171929285,3588196.6744811,9.0766376637664,0,0
60.981997333629,-3.7257164801709,3.8810681068107,1913463.7346569,-936.15171929285,3588196.6744811,9.0810681068107,0,0
60.981997534708,-3.7293906157557,3.885498549855,1913463.7346569,-936.15171929285,3588196.6744811,9.085498549855,0,0
60.981997735787,-3.7330647513405,3.8899289928993,1913463.7346569,-936.15171929285,3588196.6744811,9.0899289928993,0,0
60.981997936866,-3.7367388869253,3.8943594359436,1913463.7346569,-936.15171929285,3588196.6744811,9.0943594359436,0,0
60.981998137946,-3.7404130225101,3.8987898789879,1913463.7346569,-936.15171929285,3588196.6744811,9.0987898789879,0,0
60.981998339025,-3.7440871580949,3.9032203220322,1913463.7346569,-936.15171929285,3588196.6744811,9.1032203220322,0,0
60.981998540104,-3.7477612936797,3.9076507650765,1913463.7346569,-936.15171929285,3588196.6744811,9.1076507650765,0,0
60.981998741183,-3.7514354292645,3.9120812081208,1913463.7346569,-936.15171929285,3588196.6744811,9.1120812081208,0,0
60.981998942262,-3.7551095648493,3.9165116511651,1913463.7346569,-936.15171929285,3588196.6744811,9.1165116511651,0,0
60.981999143341,-3.7587837004341,3.9209420942094,1913463.7346569,-936.15171929285,3588196.6744811,9.1209420942094,0,0
60.98199934442,-3.7624578360189,3.9253725372537,1913463.7346569,-936.15171929285,3588196.6744811,9.1253725372537,0,0
60.981999545499,-3.7661319716037,3.929802980298,1913463.7346569,-936.15171929285,3588196.6744811,9.129802980298,0,0
60.981999746579,-3.7698061071885,3.9342334233423,1913463.7346569,-936.15171929285,3588196.6744811,9.1342334233423,0,0
60.981999947658,-3.7734802427733,3.9386638663866,1913463.7346569,-936.15171929285,3588196.6744811,9.1386638663866,0,0
60.982000148737,-3.7771543783581,3.9430943094309,1913463.7346569,-936.15171929285,3588196.6744811,9.1430943094309,0,0
60.982000349816,-3.7808285139429,3.9475247524752,1913463.7346569,-936.15171929285,3588196.6744811,9.1475247524752,0,0
60.982000550895,-3.7845026495277,3.9519551955196,1913463.7346569,-936.15171929285,3588196.6744811,9.1519551955196,0,0
60.982000751974,-3.7881767851125,3.9563856385639,1913463.7346569,-936.15171929285,3588196.6744811,9.1563856385639,0,0
60.982000953053,-3.7918509206973,3.9608160816082,1913463.7346569,-936.15171929285,3588196.6744811,9.1608160816082,0,0
60.982001154133,-3.7955250562821,3.9652465246525,1913463.7346569,-936.15171929285,3588196.6744811,9.1652465246525,0,0
60.982001355212,-3.7991991918669,3.9696769676968,1913463.7346569,-936.15171929285,3588196.6744811,9.1696769676968,0,0
60.982001556291,-3.8028733274517,3.9741074107411,1913463.7346569,-936.15171929285,3588196.6744811,9.1741074107411,0,0
60.98200175737,-3.8065474630365,3.9785378537854,1913463.7346569,-936.15171929285,3588196.6744811,9.1785378537854,0,0
60.982001958449,-3.8102215986213,3.9829682968297,1913463.7346569,-936.15171929285,3588196.6744811,9.1829682968297,0,0
60.982002159528,-3.8138957342061,3.987398739874,1913463.7346569,-936.15171929285,3588196.6744811,9.187398739874,0,0
60.982002360607,-3.8175698697909,3.9918291829183,1913463.7346569,-936.15171929285,3588196.6744811,9.1918291829183,0,0
60.982002561686,-3.8212440053757,3.9962596259626,1913463.7346569,-936.15171929285,3588196.6744811,9.1962596259626,0,0
60.982002762766,-3.8249181409605,4.0006900690069,1913463.7346569,-936.15171929285,3588196.6744811,9.2006900690069,0,0
60.982002963845,-3.8285922765453,4.0051205120512,1913463.7346569,-936.15171929285,3588196.6744811,9.2051205120512,0,0
60.982003165864,-3.8322664155614,4.0095509550955,1915623.3270267,-33314.207964656,3504768.0571595,9.2095509550955,0,0
60.982003369337,-3.8359405598841,4.0139813981398,1915623.3270267,-33314.207964656,3504768.0571595,9.2139813981398,0,0
60.98200357281,-3.8396147042069,4.0184118411841,1915623.3270267,-33314.207964656,3504768.0571595,9.2184118411841,0,0
60.982003776283,-3.8432888485296,4.0228422842284,1915623.3270267,-33314.207964656,3504768.0571595,9.2228422842284,0,0
60.982003979756,-3.8469629928524,4.0272727272727,1915623.3270267,-33314.207964656,3504768.0571595,9.2272727272727,0,0
60.982004183229,-3.8506371371752,4.031703170317,1915623.3270267,-33314.207964656,3504768.0571595,9.231703170317,0,0
60.982004386701,-3.8543112814979,4.0361336133613,1915623.3270267,-33314.207964656,3504768.0571595,9.2361336133613,0,0
60.982004590174,-3.8579854258207,4.0405640564056,1915623.3270267,-33314.207964656,3504768.0571595,9.2405640564056,0,0
60.982004793647,-3.8616595701434,4.0449944994499,1915623.3270267,-33314.207964656,3504768.0571595,9.2449944994499,0,0
60.98200499712,-3.8653337144662,4.0494249424942,1915623.3270267,-33314.207964656,3504768.0571595,9.2494249424942,0,0
60.982005200593,-3.869007858789,4.0538553855386,1915623.3270267,-33314.207964656,3504768.0571595,9.2538553855386,0,0
60.982005404066,-3.8726820031117,4.0582858285829,1915623.3270267,-33314.207964656,3504768.0571595,9.2582858285829,0,0
60.982005607539,-3.8763561474345,4.0627162716272,1915623.3270267,-33314.207964656,3504768.0571595,9.2627162716272,0,0
60.982005811012,-3.8800302917572,4.0671467146715,1915623.3270267,-33314.207964656,3504768.0571595,9.2671467146715,0,0
60.982006014485,-3.88370443608,4.0715771577158,1915623.3270267,-33314.207964656,3504768.0571595,9.2715771577158,0,0
60.982006217958,-3.8873785804028,4.0760076007601,1915623.3270267,-33314.207964656,3504768.0571595,9.2760076007601,0,0
60.982006421431,-3.8910527247255,4.0804380438044,1915623.3270267,-33314.207964656,3504768.0571595,9.2804380438044,0,0
60.982006624904,-3.8947268690483,4.0848684868487,1915623.3270267,-33314.207964656,3504768.0571595,9.2848684868487,0,0
60.982006828377,-3.898401013371,4.089298929893,1915623.3270267,-33314.207964656,3504768.0571595,9.289298929893,0,0
60.98200703185,-3.9020751576938,4.0937293729373,1915623.3270267,-33314.207964656,3504768.0571595,9.2937293729373,0,0
60.982007235323,-3.9057493020166,4.0981598159816,1915623.3270267,-33314.207964656,3504768.0571595,9.2981598159816,0,0
60.982007438796,-3.9094234463393,4.1025902590259,1915623.3270267,-33314.207964656,3504768.0571595,9.3025902590259,0,0
60.982007642269,-3.9130975906621,4.1070207020702,1915623.3270267,-33314.207964656,3504768.0571595,9.3070207020702,0,0
60.982007845741,-3.9167717349848,4.1114511451145,1915623.3270267,-33314.207964656,3504768.0571595,9.3114511451145,0,0
60.982008049214,-3.9204458793076,4.1158815881588,1915623.3270267,-33314.207964656,3504768.0571595,9.3158815881588,0,0
60.982008252687,-3.9241200236304,4.1203120312031,1915623.3270267,-33314.207964656,3504768.0571595,9.3203120312031,0,0
60.98200845616,-3.9277941679531,4.1247424742474,1915623.3270267,-33314.207964656,3504768.0571595,9.3247424742474,0,0
60.982008659633,-3.9314683122759,4.1291729172917,1915623.3270267,-33314.207964656,3504768.0571595,9.3291729172917,0,0
60.982008863106,-3.9351424565986,4.133603360336,1915623.3270267,-33314.207964656,3504768.0571595,9.333603360336,0,0
60.982009066579,-3.9388166009214,4.1380338033803,1915623.3270267,-33314.207964656,3504768.0571595,9.3380338033803,0,0
60.982009270052,-3.9424907452441,4.1424642464246,1915623.3270267,-33314.207964656,3504768.0571595,9.3424642464246,0,0
60.982009477357,-3.9461648844801,4.1468946894689,1988294.8880977,-5602.6819647158,3490815.386816,9.3468946894689,0,0
60.982009687006,-3.9498390206033,4.1513251325133,1988294.8880977,-5602.6819647158,3490815.386816,9.3513251325133,0,0
60.982009896655,-3.9535131567266,4.1557555755576,1988294.8880977,-5602.6819647158,3490815.386816,9.3557555755576,0,0
60.982010106304,-3.9571872928498,4.1601860186019,1988294.8880977,-5602.6819647158,3490815.386816,9.3601860186019,0,0
60.982010315953,-3.9608614289731,4.1646164616462,1988294.8880977,-5602.6819647158,3490815.386816,9.3646164616462,0,0
60.982010525602,-3.9645355650963,4.1690469046905,1988294.8880977,-5602.6819647158,3490815.386816,9.3690469046905,0,0
60.982010735251,-3.9682097012195,4.1734773477348,1988294.8880977,-5602.6819647158,3490815.386816,9.3734773477348,0,0
60.982010944901,-3.9718838373428,4.1779077907791,1988294.8880977,-5602.6819647158,3490815.386816,9.3779077907791,0,0
60.98201115455,-3.975557973466,4.1823382338234,1988294.8880977,-5602.6819647158,3490815.386816,9.3823382338234,0,0
60.982011364199,-3.9792321095892,4.1867686768677,1988294.8880977,-5602.6819647158,3490815.386816,9.3867686768677,0,0
60.982011573848,-3.9829062457125,4.191199119912,1988294.8880977,-5602.6819647158,3490815.386816,9.391199119912,0,0
60.982011783497,-3.9865803818357,4.1956295629563,1988294.8880977,-5602.6819647158,3490815.386816,9.3956295629563,0,0
60.982011993146,-3.990254517959,4.2000600060006,1988294.8880977,-5602.6819647158,3490815.386816,9.4000600060006,0,0
60.982012202795,-3.9939286540822,4.2044904490449,1988294.8880977,-5602.6819647158,3490815.386816,9.4044904490449,0,0
60.982012412444,-3.9976027902054,4.2089208920892,1988294.8880977,-5602.6819647158,3490815.386816,9.4089208920892,0,0
60.982012622094,-4.0012769263287,4.2133513351335,1988294.8880977,-5602.6819647158,3490815.386816,9.4133513351335,0,0
60.982012831743,-4.0049510624519,4.2177817781778,1988294.8880977,-5602.6819647158,3490815.386816,9.4177817781778,0,0
60.982013041392,-4.0086251985752,4.2222122212221,1988294.8880977,-5602.6819647158,3490815.386816,9.4222122212221,0,0
60.982013251041,-4.0122993346984,4.2266426642664,1988294.8880977,-5602.6819647158,3490815.386816,9.4266426642664,0,0
60.98201346069,-4.0159734708216,4.2310731073107,1988294.8880977,-5602.6819647158,3490815.386816,9.4310731073107,0,0
60.982013670339,-4.0196476069449,4.235503550355,1988294.8880977,-5602.6819647158,3490815.386816,9.435503550355,0,0
60.982013879988,-4.0233217430681,4.2399339933993,1988294.8880977,-5602.6819647158,3490815.386816,9.4399339933993,0,0
60.982014089637,-4.0269958791913,4.2443644364436,1988294.8880977,-5602.6819647158,3490815.386816,9.4443644364436,0,0
60.982014299287,-4.0306700153146,4.2487948794879,1988294.8880977,-5602.6819647158,3490815.386816,9.4487948794879,0,0
60.982014508936,-4.0343441514378,4.2532253225323,1988294.8880977,-5602.6819647158,3490815.386816,9.4532253225323,0,0
60.982014718585,-4.0380182875611,4.2576557655766,1988294.8880977,-5602.6819647158,3490815.386816,9.4576557655766,0,0
60.982014928234,-4.0416924236843,4.2620862086209,1988294.8880977,-5602.6819647158,3490815.386816,9.4620862086209,0,0
60.982015137883,-4.0453665598075,4.2665166516652,1988294.8880977,-5602.6819647158,3490815.386816,9.4665166516652,0,0
60.982015347532,-4.0490406959308,4.2709470947095,1988294.8880977,-5602.6819647158,3490815.386816,9.4709470947095,0,0
60.982015557181,-4.052714832054,4.2753775377538,1988294.8880977,-5602.6819647158,3490815.386816,9.4753775377538,0,0
60.982015766831,-4.0563889681773,4.2798079807981,1988294.8880977,-5602.6819647158,3490815.386816,9.4798079807981,0,0
60.98201597648,-4.0600631043005,4.2842384238424,1988294.8880977,-5602.6819647158,3490815.386816,9.4842384238424,0,0
60.982016186129,-4.0637372404237,4.2886688668867,1988294.8880977,-5602.6819647158,3490815.386816,9.4886688668867,0,0
60.982016395778,-4.067411376547,4.293099309931,1988294.8880977,-5602.6819647158,3490815.386816,9.493099309931,0,0
60.982016605427,-4.0710855126702,4.2975297529753,1988294.8880977,-5602.6819647158,3490815.386816,9.4975297529753,0,0
60.982016815076,-4.0747596487934,4.3019601960196,1988294.8880977,-5602.6819647158,3490815.386816,9.5019601960196,0,0
60.982017024725,-4.0784337849167,4.3063906390639,1988294.8880977,-5602.6819647158,3490815.386816,9.5063906390639,0,0
60.982017234374,-4.0821079210399,4.3108210821082,1988294.8880977,-5602.6819647158,3490815.386816,9.5108210821082,0,0
60.982017444024,-4.0857820571632,4.3152515251525,1988294.8880977,-5602.6819647158,3490815.386816,9.5152515251525,0,0
60.982017653673,-4.0894561932864,4.3196819681968,1988294.8880977,-5602.6819647158,3490815.386816,9.5196819681968,0,0
60.982017863322,-4.0931303294096,4.3241124112411,1988294.8880977,-5602.6819647158,3490815.386816,9.5241124112411,0,0
60.982018072971,-4.0968044655329,4.3285428542854,1988294.8880977,-5602.6819647158,3490815.386816,9.5285428542854,0,0
60.98201828262,-4.1004786016561,4.3329732973297,1988294.8880977,-5602.6819647158,3490815.386816,9.5329732973297,0,0
60.982018492269,-4.1041527377794,4.337403740374,1988294.8880977,-5602.6819647158,3490815.386816,9.537403740374,0,0
60.982018701918,-4.1078268739026,4.3418341834183,1988294.8880977,-5602.6819647158,3490815.386816,9.5418341834183,0,0
60.982018911567,-4.1115010100258,4.3462646264626,1988294.8880977,-5602.6819647158,3490815.386816,9.5462646264626,0,0
60.982019121217,-4.1151751461491,4.350695069507,1988294.8880977,-5602.6819647158,3490815.386816,9.550695069507,0,0
60.982019330866,-4.1188492822723,4.3551255125513,1988294.8880977,-5602.6819647158,3490815.386816,9.5551255125513,0,0
60.982019540515,-4.1225234183955,4.3595559555956,1988294.8880977,-5602.6819647158,3490815.386816,9.5595559555956,0,0
60.982019750164,-4.1261975545188,4.3639863986399,1988294.8880977,-5602.6819647158,3490815.386816,9.5639863986399,0,0
60.982019959813,-4.129871690642,4.3684168416842,1988294.8880977,-5602.6819647158,3490815.386816,9.5684168416842,0,0
60.982020169462,-4.1335458267653,4.3728472847285,1988294.8880977,-5602.6819647158,3490815.386816,9.5728472847285,0,0
60.982020379111,-4.1372199628885,4.3772777277728,1988294.8880977,-5602.6819647158,3490815.386816,9.5772777277728,0,0
60.982020588761,-4.1408940990117,4.3817081708171,1988294.8880977,-5602.6819647158,3490815.386816,9.5817081708171,0,0
60.98202079841,-4.144568235135,4.3861386138614,1988294.8880977,-5602.6819647158,3490815.386816,9.5861386138614,0,0
60.982021008059,-4.1482423712582,4.3905690569057,1988294.8880977,-5602.6819647158,3490815.386816,9.5905690569057,0,0
60.982021217708,-4.1519165073815,4.39499949995,1988294.8880977,-5602.6819647158,3490815.386816,9.59499949995,0,0
60.982021427357,-4.1555906435047,4.3994299429943,1988294.8880977,-5602.6819647158,3490815.386816,9.5994299429943,0,0
60.982021637006,-4.1592647796279,4.4038603860386,1988294.8880977,-5602.6819647158,3490815.386816,9.6038603860386,0,0
60.982021846655,-4.1629389157512,4.4082908290829,1988294.8880977,-5602.6819647158,3490815.386816,9.6082908290829,0,0
60.982022056304,-4.1666130518744,4.4127212721272,1988294.8880977,-5602.6819647158,3490815.386816,9.6127212721272,0,0
60.982022265954,-4.1702871879976,4.4171517151715,1988294.8880977,-5602.6819647158,3490815.386816,9.6171517151715,0,0
60.982022475603,-4.1739613241209,4.4215821582158,1988294.8880977,-5602.6819647158,3490815.386816,9.6215821582158,0,0
60.982022685252,-4.1776354602441,4.4260126012601,1988294.8880977,-5602.6819647158,3490815.386816,9.6260126012601,0,0
60.982022894901,-4.1813095963674,4.4304430443044,1988294.8880977,-5602.6819647158,3490815.386816,9.6304430443044,0,0
60.98202310455,-4.1849837324906,4.4348734873487,1988294.8880977,-5602.6819647158,3490815.386816,9.6348734873487,0,0
60.982023314199,-4.1886578686138,4.439303930393,1988294.8880977,-5602.6819647158,3490815.386816,9.639303930393,0,0
60.982023523848,-4.1923320047371,4.4437343734373,1988294.8880977,-5602.6819647158,3490815.386816,9.6437343734373,0,0
60.982023733498,-4.1960061408603,4.4481648164816,1988294.8880977,-5602.6819647158,3490815.386816,9.6481648164816,0,0
60.982023943147,-4.1996802769836,4.452595259526,1988294.8880977,-5602.6819647158,3490815.386816,9.652595259526,0,0
60.982024152796,-4.2033544131068,4.4570257025703,1988294.8880977,-5602.6819647158,3490815.386816,9.6570257025703,0,0
60.982024362445,-4.20702854923,4.4614561456146,1988294.8880977,-5602.6819647158,3490815.386816,9.6614561456146,0,0
60.982024572094,-4.2107026853533,4.4658865886589,1988294.8880977,-5602.6819647158,3490815.386816,9.6658865886589,0,0
60.982024781743,-4.2143768214765,4.4703170317032,1988294.8880977,-5602.6819647158,3490815.386816,9.6703170317032,0,0
60.982024991392,-4.2180509575997,4.4747474747475,1988294.8880977,-5602.6819647158,3490815.386816,9.6747474747475,0,0
60.982025201041,-4.221725093723,4.4791779177918,1988294.8880977,-5602.6819647158,3490815.386816,9.6791779177918,0,0
60.982025410691,-4.2253992298462,4.4836083608361,1988294.8880977,-5602.6819647158,3490815.386816,9.6836083608361,0,0
60.98202562034,-4.2290733659695,4.4880388038804,1988294.8880977,-5602.6819647158,3490815.386816,9.6880388038804,0,0
60.982025829989,-4.2327475020927,4.4924692469247,1988294.8880977,-5602.6819647158,3490815.386816,9.6924692469247,0,0
60.982026039638,-4.2364216382159,4.496899689969,1988294.8880977,-5602.6819647158,3490815.386816,9.696899689969,0,0
60.982026249287,-4.2400957743392,4.5013301330133,1988294.8880977,-5602.6819647158,3490815.386816,9.7013301330133,0,0
60.982026458936,-4.2437699104624,4.5057605760576,1988294.8880977,-5602.6819647158,3490815.386816,9.7057605760576,0,0
60.982026668585,-4.2474440465857,4.5101910191019,1988294.8880977,-5602.6819647158,3490815.386816,9.7101910191019,0,0
60.982026878234,-4.2511181827089,4.5146214621462,1988294.8880977,-5602.6819647158,3490815.386816,9.7146214621462,0,0
60.982027087884,-4.2547923188321,4.5190519051905,1988294.8880977,-5602.6819647158,3490815.386816,9.7190519051905,0,0
60.982027297533,-4.2584664549554,4.5234823482348,1988294.8880977,-5602.6819647158,3490815.386816,9.7234823482348,0,0
60.982027507182,-4.2621405910786,4.5279127912791,1988294.8880977,-5602.6819647158,3490815.386816,9.7279127912791,0,0
60.982027716831,-4.2658147272019,4.5323432343234,1988294.8880977,-5602.6819647158,3490815.386816,9.7323432343234,0,0
60.98202792648,-4.2694888633251,4.5367736773677,1988294.8880977,-5602.6819647158,3490815.386816,9.7367736773677,0,0
60.982028136129,-4.2731629994483,4.541204120412,1988294.8880977,-5602.6819647158,3490815.386816,9.741204120412,0,0
60.982028345778,-4.2768371355716,4.5456345634563,1988294.8880977,-5602.6819647158,3490815.386816,9.7456345634563,0,0
60.982028555428,-4.2805112716948,4.5500650065006,1988294.8880977,-5602.6819647158,3490815.386816,9.7500650065007,0,0
60.982028765077,-4.284185407818,4.554495449545,1988294.8880977,-5602.6819647158,3490815.386816,9.754495449545,0,0
60.982028977546,-4.2878595501104,4.5589258925893,2010694.8762377,-29354.000680064,3425587.3360864,9.7589258925893,0,0
60.982029190721,-4.291533693947,4.5633563356336,2010694.8762377,-29354.000680064,3425587.3360864,9.7633563356336,0,0
60.982029403896,-4.2952078377836,4.5677867786779,2010694.8762377,-29354.000680064,3425587.3360864,9.7677867786779,0,0
60.982029617071,-4.2988819816202,4.5722172217222,2010694.8762377,-29354.000680064,3425587.3360864,9.7722172217222,0,0
60.982029830246,-4.3025561254568,4.5766476647665,2010694.8762377,-29354.000680064,3425587.3360864,9.7766476647665,0,0
60.982030043421,-4.3062302692934,4.5810781078108,2010694.8762377,-29354.000680064,3425587.3360864,9.7810781078108,0,0
60.982030256596,-4.30990441313,4.5855085508551,2010694.8762377,-29354.000680064,3425587.3360864,9.7855085508551,0,0
60.982030469771,-4.3135785569667,4.5899389938994,2010694.8762377,-29354.000680064,3425587.3360864,9.7899389938994,0,0
60.982030682946,-4.3172527008033,4.5943694369437,2010694.8762377,-29354.000680064,3425587.3360864,9.7943694369437,0,0
60.982030896121,-4.3209268446399,4.598799879988,2010694.8762377,-29354.000680064,3425587.3360864,9.798799879988,0,0
60.982031109296,-4.3246009884765,4.6032303230323,2010694.8762377,-29354.000680064,3425587.3360864,9.8032303230323,0,0
60.982031322472,-4.3282751323131,4.6076607660766,2010694.8762377,-29354.000680064,3425587.3360864,9.8076607660766,0,0
60.982031535647,-4.3319492761497,4.6120912091209,2010694.8762377,-29354.000680064,3425587.3360864,9.8120912091209,0,0
60.982031748822,-4.3356234199863,4.6165216521652,2010694.8762377,-29354.000680064,3425587.3360864,9.8165216521652,0,0
60.982031961997,-4.3392975638229,4.6209520952095,2010694.8762377,-29354.000680064,3425587.3360864,9.8209520952095,0,0
60.982032175172,-4.3429717076595,4.6253825382538,2010694.8762377,-29354.000680064,3425587.3360864,9.8253825382538,0,0
60.982032388347,-4.3466458514961,4.6298129812981,2010694.8762377,-29354.000680064,3425587.3360864,9.8298129812981,0,0
60.982032601522,-4.3503199953327,4.6342434243424,2010694.8762377,-29354.000680064,3425587.3360864,9.8342434243424,0,0
60.982032814697,-4.3539941391693,4.6386738673867,2010694.8762377,-29354.000680064,3425587.3360864,9.8386738673867,0,0
60.982033027872,-4.3576682830059,4.643104310431,2010694.8762377,-29354.000680064,3425587.3360864,9.843104310431,0,0
60.982033241047,-4.3613424268425,4.6475347534753,2010694.8762377,-29354.000680064,3425587.3360864,9.8475347534753,0,0
60.982033454222,-4.3650165706791,4.6519651965197,2010694.8762377,-29354.000680064,3425587.3360864,9.8519651965197,0,0
60.982033667397,-4.3686907145157,4.656395639564,2010694.8762377,-29354.000680064,3425587.3360864,9.856395639564,0,0
60.982033882455,-4.3723648539726,4.6608260826083,2040596.6714209,125.61001985888,3387001.7427717,9.8608260826083,0,0
60.982034099046,-4.3760389898629,4.6652565256526,2040596.6714209,125.61001985888,3387001.7427717,9.8652565256526,0,0
60.982034315637,-4.3797131257532,4.6696869686969,2040596.6714209,125.61001985888,3387001.7427717,9.8696869686969,0,0
60.982034532227,-4.3833872616435,4.6741174117412,2040596.6714209,125.61001985888,3387001.7427717,9.8741174117412,0,0
60.982034748818,-4.3870613975338,4.6785478547855,2040596.6714209,125.61001985888,3387001.7427717,9.8785478547855,0,0
60.982034965409,-4.3907355334241,4.6829782978298,2040596.6714209,125.61001985888,3387001.7427717,9.8829782978298,0,0
60.982035182,-4.3944096693144,4.6874087408741,2040596.6714209,125.61001985888,3387001.7427717,9.8874087408741,0,0
60.982035398591,-4.3980838052047,4.6918391839184,2040596.6714209,125.61001985888,3387001.7427717,9.8918391839184,0,0
60.982035615182,-4.4017579410951,4.6962696269627,2040596.6714209,125.61001985888,3387001.7427717,9.8962696269627,0,0
60.982035831773,-4.4054320769854,4.700700070007,2040596.6714209,125.61001985888,3387001.7427717,9.900700070007,0,0
60.982036048363,-4.4091062128757,4.7051305130513,2040596.6714209,125.61001985888,3387001.7427717,9.9051305130513,0,0
60.982036264954,-4.412780348766,4.7095609560956,2040596.6714209,125.61001985888,3387001.7427717,9.9095609560956,0,0
60.982036481545,-4.4164544846563,4.7139913991399,2040596.6714209,125.61001985888,3387001.7427717,9.9139913991399,0,0
60.982036698136,-4.4201286205466,4.7184218421842,2040596.6714209,125.61001985888,3387001.7427717,9.9184218421842,0,0
60.982036914727,-4.4238027564369,4.7228522852285,2040596.6714209,125.61001985888,3387001.7427717,9.9228522852285,0,0
60.982037131318,-4.4274768923272,4.7272827282728,2040596.6714209,125.61001985888,3387001.7427717,9.9272827282728,0,0
60.982037347908,-4.4311510282175,4.7317131713171,2040596.6714209,125.61001985888,3387001.7427717,9.9317131713171,0,0
60.982037564499,-4.4348251641079,4.7361436143614,2040596.6714209,125.61001985888,3387001.7427717,9.9361436143614,0,0
60.98203778109,-4.4384992999982,4.7405740574057,2040596.6714209,125.61001985888,3387001.7427717,9.9405740574057,0,0
60.982037997681,-4.4421734358885,4.74500450045,2040596.6714209,125.61001985888,3387001.7427717,9.94500450045,0,0
60.982038214272,-4.4458475717788,4.7494349434943,2040596.6714209,125.61001985888,3387001.7427717,9.9494349434943,0,0
60.982038430863,-4.4495217076691,4.7538653865387,2040596.6714209,125.61001985888,3387001.7427717,9.9538653865387,0,0
60.982038647453,-4.4531958435594,4.758295829583,2040596.6714209,125.61001985888,3387001.7427717,9.958295829583,0,0
60.982038864044,-4.4568699794497,4.7627262726273,2040596.6714209,125.61001985888,3387001.7427717,9.9627262726273,0,0
60.982039080635,-4.46054411534,4.7671567156716,2040596.6714209,125.61001985888,3387001.7427717,9.9671567156716,0,0
60.982039297226,-4.4642182512303,4.7715871587159,2040596.6714209,125.61001985888,3387001.7427717,9.9715871587159,0,0
60.982039513817,-4.4678923871207,4.7760176017602,2040596.6714209,125.61001985888,3387001.7427717,9.9760176017602,0,0
60.982039730408,-4.471566523011,4.7804480448045,2040596.6714209,125.61001985888,3387001.7427717,9.9804480448045,0,0
60.982039946999,-4.4752406589013,4.7848784878488,2040596.6714209,125.61001985888,3387001.7427717,9.9848784878488,0,0
60.982040163589,-4.4789147947916,4.7893089308931,2040596.6714209,125.61001985888,3387001.7427717,9.9893089308931,0,0
60.98204038018,-4.4825889306819,4.7937393739374,2040596.6714209,125.61001985888,3387001.7427717,9.9937393739374,0,0
60.982040596771,-4.4862630665722,4.7981698169817,2040596.6714209,125.61001985888,3387001.7427717,9.9981698169817,0,0
60.982040813362,-4.4899372024625,4.802600260026,2040596.6714209,125.61001985888,3387001.7427717,10.002600260026,0,0
60.982041029953,-4.4936113383528,4.8070307030703,2040596.6714209,125.61001985888,3387001.7427717,10.00703070307,0,0
60.982041246544,-4.4972854742431,4.8114611461146,2040596.6714209,125.61001985888,3387001.7427717,10.011461146115,0,0
60.982041463134,-4.5009596101335,4.8158915891589,2040596.6714209,125.61001985888,3387001.7427717,10.015891589159,0,0
60.982041679725,-4.5046337460238,4.8203220322032,2040596.6714209,125.61001985888,3387001.7427717,10.020322032203,0,0
60.982041896316,-4.5083078819141,4.8247524752475,2040596.6714209,125.61001985888,3387001.7427717,10.024752475248,0,0
60.982042112907,-4.5119820178044,4.8291829182918,2040596.6714209,125.61001985888,3387001.7427717,10.029182918292,0,0
60.982042329498,-4.5156561536947,4.8336133613361,2040596.6714209,125.61001985888,3387001.7427717,10.033613361336,0,0
60.982042546089,-4.519330289585,4.8380438043804,2040596.6714209,125.61001985888,3387001.7427717,10.03804380438,0,0
60.982042762679,-4.5230044254753,4.8424742474247,2040596.6714209,125.61001985888,3387001.7427717,10.042474247425,0,0
60.98204297927,-4.5266785613656,4.846904690469,2040596.6714209,125.61001985888,3387001.7427717,10.046904690469,0,0
60.982043195861,-4.5303526972559,4.8513351335134,2040596.6714209,125.61001985888,3387001.7427717,10.051335133513,0,0
60.982043412452,-4.5340268331462,4.8557655765577,2040596.6714209,125.61001985888,3387001.7427717,10.055765576558,0,0
60.982043629043,-4.5377009690366,4.860196019602,2040596.6714209,125.61001985888,3387001.7427717,10.060196019602,0,0
60.982043845634,-4.5413751049269,4.8646264626463,2040596.6714209,125.61001985888,3387001.7427717,10.064626462646,0,0
60.982044062225,-4.5450492408172,4.8690569056906,2040596.6714209,125.61001985888,3387001.7427717,10.069056905691,0,0
60.982044278815,-4.5487233767075,4.8734873487349,2040596.6714209,125.61001985888,3387001.7427717,10.073487348735,0,0
60.982044495406,-4.5523975125978,4.8779177917792,2040596.6714209,125.61001985888,3387001.7427717,10.077917791779,0,0
60.982044711997,-4.5560716484881,4.8823482348235,2040596.6714209,125.61001985888,3387001.7427717,10.082348234823,0,0
60.982044928588,-4.5597457843784,4.8867786778678,2040596.6714209,125.61001985888,3387001.7427717,10.086778677868,0,0
60.982045145179,-4.5634199202687,4.8912091209121,2040596.6714209,125.61001985888,3387001.7427717,10.091209120912,0,0
60.98204536177,-4.567094056159,4.8956395639564,2040596.6714209,125.61001985888,3387001.7427717,10.095639563956,0,0
60.98204557836,-4.5707681920494,4.9000700070007,2040596.6714209,125.61001985888,3387001.7427717,10.100070007001,0,0
60.982045794951,-4.5744423279397,4.904500450045,2040596.6714209,125.61001985888,3387001.7427717,10.104500450045,0,0
60.982046011542,-4.57811646383,4.9089308930893,2040596.6714209,125.61001985888,3387001.7427717,10.108930893089,0,0
60.982046228133,-4.5817905997203,4.9133613361336,2040596.6714209,125.61001985888,3387001.7427717,10.113361336134,0,0
60.982046444724,-4.5854647356106,4.9177917791779,2040596.6714209,125.61001985888,3387001.7427717,10.117791779178,0,0
60.982046661315,-4.5891388715009,4.9222222222222,2040596.6714209,125.61001985888,3387001.7427717,10.122222222222,0,0
60.982046877905,-4.5928130073912,4.9266526652665,2040596.6714209,125.61001985888,3387001.7427717,10.126652665267,0,0
60.982047094496,-4.5964871432815,4.9310831083108,2040596.6714209,125.61001985888,3387001.7427717,10.131083108311,0,0
60.982047311087,-4.6001612791718,4.9355135513551,2040596.6714209,125.61001985888,3387001.7427717,10.135513551355,0,0
60.982047527678,-4.6038354150622,4.9399439943994,2040596.6714209,125.61001985888,3387001.7427717,10.139943994399,0,0
60.982047744269,-4.6075095509525,4.9443744374437,2040596.6714209,125.61001985888,3387001.7427717,10.144374437444,0,0
60.98204796086,-4.6111836868428,4.948804880488,2040596.6714209,125.61001985888,3387001.7427717,10.148804880488,0,0
60.982048177451,-4.6148578227331,4.9532353235324,2040596.6714209,125.61001985888,3387001.7427717,10.153235323532,0,0
60.982048394041,-4.6185319586234,4.9576657665767,2040596.6714209,125.61001985888,3387001.7427717,10.157665766577,0,0
60.982048610632,-4.6222060945137,4.962096209621,2040596.6714209,125.61001985888,3387001.7427717,10.162096209621,0,0
60.982048827223,-4.625880230404,4.9665266526653,2040596.6714209,125.61001985888,3387001.7427717,10.166526652665,0,0
60.982049043814,-4.6295543662943,4.9709570957096,2040596.6714209,125.61001985888,3387001.7427717,10.17095709571,0,0
60.982049260405,-4.6332285021846,4.9753875387539,2040596.6714209,125.61001985888,3387001.7427717,10.175387538754,0,0
60.982049476996,-4.636902638075,4.9798179817982,2040596.6714209,125.61001985888,3387001.7427717,10.179817981798,0,0
60.982049693586,-4.6405767739653,4.9842484248425,2040596.6714209,125.61001985888,3387001.7427717,10.184248424842,0,0
60.982049910177,-4.6442509098556,4.9886788678868,2040596.6714209,125.61001985888,3387001.7427717,10.188678867887,0,0
60.982050126768,-4.6479250457459,4.9931093109311,2040596.6714209,125.61001985888,3387001.7427717,10.193109310931,0,0
60.982050349468,-4.6515991866967,4.9975397539754,2120141.1434007,-11180.595825471,3382994.9333964,10.197539753975,0,0
60.982050572519,-4.6552733279384,5.0019701970197,2120141.1434007,-11180.595825471,3382994.9333964,10.20197019702,0,0
60.98205079557,-4.6589474691801,5.006400640064,2120141.1434007,-11180.595825471,3382994.9333964,10.206400640064,0,0
60.982051018622,-4.6626216104218,5.0108310831083,2120141.1434007,-11180.595825471,3382994.9333964,10.210831083108,0,0
60.982051241673,-4.6662957516635,5.0152615261526,2120141.1434007,-11180.595825471,3382994.9333964,10.215261526153,0,0
60.982051464724,-4.6699698929052,5.0196919691969,2120141.1434007,-11180.595825471,3382994.9333964,10.219691969197,0,0
60.982051687775,-4.6736440341469,5.0241224122412,2120141.1434007,-11180.595825471,3382994.9333964,10.224122412241,0,0
60.982051910826,-4.6773181753886,5.0285528552855,2120141.1434007,-11180.595825471,3382994.9333964,10.228552855286,0,0
60.982052133878,-4.6809923166303,5.0329832983298,2120141.1434007,-11180.595825471,3382994.9333964,10.23298329833,0,0
60.982052356929,-4.684666457872,5.0374137413741,2120141.1434007,-11180.595825471,3382994.9333964,10.237413741374,0,0
60.98205257998,-4.6883405991138,5.0418441844184,2120141.1434007,-11180.595825471,3382994.9333964,10.241844184418,0,0
60.982052803031,-4.6920147403555,5.0462746274627,2120141.1434007,-11180.595825471,3382994.9333964,10.246274627463,0,0
60.982053026082,-4.6956888815972,5.050705070507,2120141.1434007,-11180.595825471,3382994.9333964,10.250705070507,0,0
60.982053249134,-4.6993630228389,5.0551355135514,2120141.1434007,-11180.595825471,3382994.9333964,10.255135513551,0,0
60.982053472185,-4.7030371640806,5.0595659565957,2120141.1434007,-11180.595825471,3382994.9333964,10.259565956596,0,0
60.982053695236,-4.7067113053223,5.06399639964,2120141.1434007,-11180.595825471,3382994.9333964,10.26399639964,0,0
60.982053918287,-4.710385446564,5.0684268426843,2120141.1434007,-11180.595825471,3382994.9333964,10.268426842684,0,0
60.982054141339,-4.7140595878057,5.0728572857286,2120141.1434007,-11180.595825471,3382994.9333964,10.272857285729,0,0
60.98205436439,-4.7177337290474,5.0772877287729,2120141.1434007,-11180.595825471,3382994.9333964,10.277287728773,0,0
60.982054587441,-4.7214078702891,5.0817181718172,2120141.1434007,-11180.595825471,3382994.9333964,10.281718171817,0,0
60.982054810492,-4.7250820115308,5.0861486148615,2120141.1434007,-11180.595825471,3382994.9333964,10.286148614861,0,0
60.982055033543,-4.7287561527725,5.0905790579058,2120141.1434007,-11180.595825471,3382994.9333964,10.290579057906,0,0
60.982055256595,-4.7324302940142,5.0950095009501,2120141.1434007,-11180.595825471,3382994.9333964,10.29500950095,0,0
60.982055479646,-4.7361044352559,5.0994399439944,2120141.1434007,-11180.595825471,3382994.9333964,10.299439943994,0,0
60.982055702697,-4.7397785764976,5.1038703870387,2120141.1434007,-11180.595825471,3382994.9333964,10.303870387039,0,0
60.982055925748,-4.7434527177394,5.108300830083,2120141.1434007,-11180.595825471,3382994.9333964,10.308300830083,0,0
60.982056148799,-4.7471268589811,5.1127312731273,2120141.1434007,-11180.595825471,3382994.9333964,10.312731273127,0,0
60.982056371851,-4.7508010002228,5.1171617161716,2120141.1434007,-11180.595825471,3382994.9333964,10.317161716172,0,0
60.982056594902,-4.7544751414645,5.1215921592159,2120141.1434007,-11180.595825471,3382994.9333964,10.321592159216,0,0
60.982056817953,-4.7581492827062,5.1260226022602,2120141.1434007,-11180.595825471,3382994.9333964,10.32602260226,0,0
60.982057041004,-4.7618234239479,5.1304530453045,2120141.1434007,-11180.595825471,3382994.9333964,10.330453045305,0,0
60.982057264055,-4.7654975651896,5.1348834883488,2120141.1434007,-11180.595825471,3382994.9333964,10.334883488349,0,0
60.982057487107,-4.7691717064313,5.1393139313931,2120141.1434007,-11180.595825471,3382994.9333964,10.339313931393,0,0
60.982057710158,-4.772845847673,5.1437443744374,2120141.1434007,-11180.595825471,3382994.9333964,10.343744374437,0,0
60.982057933209,-4.7765199889147,5.1481748174817,2120141.1434007,-11180.595825471,3382994.9333964,10.348174817482,0,0
60.98205815626,-4.7801941301564,5.1526052605261,2120141.1434007,-11180.595825471,3382994.9333964,10.352605260526,0,0
60.982058379311,-4.7838682713981,5.1570357035704,2120141.1434007,-11180.595825471,3382994.9333964,10.35703570357,0,0
60.982058602363,-4.7875424126398,5.1614661466147,2120141.1434007,-11180.595825471,3382994.9333964,10.361466146615,0,0
60.982058825414,-4.7912165538815,5.165896589659,2120141.1434007,-11180.595825471,3382994.9333964,10.365896589659,0,0
60.982059048465,-4.7948906951232,5.1703270327033,2120141.1434007,-11180.595825471,3382994.9333964,10.370327032703,0,0
60.982059271516,-4.798564836365,5.1747574757476,2120141.1434007,-11180.595825471,3382994.9333964,10.374757475748,0,0
60.982059494567,-4.8022389776067,5.1791879187919,2120141.1434007,-11180.595825471,3382994.9333964,10.379187918792,0,0
60.982059717619,-4.8059131188484,5.1836183618362,2120141.1434007,-11180.595825471,3382994.9333964,10.383618361836,0,0
60.98205994067,-4.8095872600901,5.1880488048805,2120141.1434007,-11180.595825471,3382994.9333964,10.38804880488,0,0
60.982060163721,-4.8132614013318,5.1924792479248,2120141.1434007,-11180.595825471,3382994.9333964,10.392479247925,0,0
60.982060386772,-4.8169355425735,5.1969096909691,2120141.1434007,-11180.595825471,3382994.9333964,10.396909690969,0,0
60.982060609823,-4.8206096838152,5.2013401340134,2120141.1434007,-11180.595825471,3382994.9333964,10.401340134013,0,0
60.982060832875,-4.8242838250569,5.2057705770577,2120141.1434007,-11180.595825471,3382994.9333964,10.405770577058,0,0
60.982061055926,-4.8279579662986,5.210201020102,2120141.1434007,-11180.595825471,3382994.9333964,10.410201020102,0,0
60.982061278977,-4.8316321075403,5.2146314631463,2120141.1434007,-11180.595825471,3382994.9333964,10.414631463146,0,0
60.982061502028,-4.835306248782,5.2190619061906,2120141.1434007,-11180.595825471,3382994.9333964,10.419061906191,0,0
60.982061725079,-4.8389803900237,5.2234923492349,2120141.1434007,-11180.595825471,3382994.9333964,10.423492349235,0,0
60.982061948131,-4.8426545312654,5.2279227922792,2120141.1434007,-11180.595825471,3382994.9333964,10.427922792279,0,0
60.982062171182,-4.8463286725071,5.2323532353235,2120141.1434007,-11180.595825471,3382994.9333964,10.432353235324,0,0
60.982062394233,-4.8500028137488,5.2367836783678,2120141.1434007,-11180.595825471,3382994.9333964,10.436783678368,0,0
60.982062616656,-4.8536769528799,5.2412141214121,2080532.816126,13428.212306417,3305745.0335862,10.441214121412,0,0
60.9820628386,-4.8573510904025,5.2456445644564,2080532.816126,13428.212306417,3305745.0335862,10.445644564456,0,0
60.982063060544,-4.8610252279252,5.2500750075008,2080532.816126,13428.212306417,3305745.0335862,10.450075007501,0,0
60.982063282489,-4.8646993654479,5.2545054505451,2080532.816126,13428.212306417,3305745.0335862,10.454505450545,0,0
60.982063504433,-4.8683735029705,5.2589358935894,2080532.816126,13428.212306417,3305745.0335862,10.458935893589,0,0
60.982063726377,-4.8720476404932,5.2633663366337,2080532.816126,13428.212306417,3305745.0335862,10.463366336634,0,0
60.982063948321,-4.8757217780159,5.267796779678,2080532.816126,13428.212306417,3305745.0335862,10.467796779678,0,0
60.982064170266,-4.8793959155385,5.2722272227223,2080532.816126,13428.212306417,3305745.0335862,10.472227222722,0,0
60.98206439221,-4.8830700530612,5.2766576657666,2080532.816126,13428.212306417,3305745.0335862,10.476657665767,0,0
60.982064614154,-4.8867441905839,5.2810881088109,2080532.816126,13428.212306417,3305745.0335862,10.481088108811,0,0
60.982064836098,-4.8904183281065,5.2855185518552,2080532.816126,13428.212306417,3305745.0335862,10.485518551855,0,0
60.982065058043,-4.8940924656292,5.2899489948995,2080532.816126,13428.212306417,3305745.0335862,10.489948994899,0,0
60.982065279987,-4.8977666031519,5.2943794379438,2080532.816126,13428.212306417,3305745.0335862,10.494379437944,0,0
60.982065501931,-4.9014407406745,5.2988098809881,2080532.816126,13428.212306417,3305745.0335862,10.498809880988,0,0
60.982065723875,-4.9051148781972,5.3032403240324,2080532.816126,13428.212306417,3305745.0335862,10.503240324032,0,0
60.98206594582,-4.9087890157199,5.3076707670767,2080532.816126,13428.212306417,3305745.0335862,10.507670767077,0,0
60.982066167764,-4.9124631532425,5.312101210121,2080532.816126,13428.212306417,3305745.0335862,10.512101210121,0,0
60.982066389708,-4.9161372907652,5.3165316531653,2080532.816126,13428.212306417,3305745.0335862,10.516531653165,0,0
60.982066611652,-4.9198114282879,5.3209620962096,2080532.816126,13428.212306417,3305745.0335862,10.52096209621,0,0
60.982066833597,-4.9234855658105,5.3253925392539,2080532.816126,13428.212306417,3305745.0335862,10.525392539254,0,0
60.982067055541,-4.9271597033332,5.3298229822982,2080532.816126,13428.212306417,3305745.0335862,10.529822982298,0,0
60.982067277485,-4.9308338408559,5.3342534253425,2080532.816126,13428.212306417,3305745.0335862,10.534253425343,0,0
60.982067499429,-4.9345079783785,5.3386838683868,2080532.816126,13428.212306417,3305745.0335862,10.538683868387,0,0
60.982067721374,-4.9381821159012,5.3431143114311,2080532.816126,13428.212306417,3305745.0335862,10.543114311431,0,0
60.982067943318,-4.9418562534239,5.3475447544754,2080532.816126,13428.212306417,3305745.0335862,10.547544754475,0,0
60.982068165262,-4.9455303909466,5.3519751975198,2080532.816126,13428.212306417,3305745.0335862,10.55197519752,0,0
60.982068387206,-4.9492045284692,5.3564056405641,2080532.816126,13428.212306417,3305745.0335862,10.556405640564,0,0
60.982068609151,-4.9528786659919,5.3608360836084,2080532.816126,13428.212306417,3305745.0335862,10.560836083608,0,0
60.982068831095,-4.9565528035146,5.3652665266527,2080532.816126,13428.212306417,3305745.0335862,10.565266526653,0,0
60.982069053039,-4.9602269410372,5.369696969697,2080532.816126,13428.212306417,3305745.0335862,10.569696969697,0,0
60.982069274984,-4.9639010785599,5.3741274127413,2080532.816126,13428.212306417,3305745.0335862,10.574127412741,0,0
60.982069496928,-4.9675752160826,5.3785578557856,2080532.816126,13428.212306417,3305745.0335862,10.578557855786,0,0
60.982069718872,-4.9712493536052,5.3829882988299,2080532.816126,13428.212306417,3305745.0335862,10.58298829883,0,0
60.982069940816,-4.9749234911279,5.3874187418742,2080532.816126,13428.212306417,3305745.0335862,10.587418741874,0,0
60.982070162761,-4.9785976286506,5.3918491849185,2080532.816126,13428.212306417,3305745.0335862,10.591849184918,0,0
60.982070384705,-4.9822717661732,5.3962796279628,2080532.816126,13428.212306417,3305745.0335862,10.596279627963,0,0
60.982070606649,-4.9859459036959,5.4007100710071,2080532.816126,13428.212306417,3305745.0335862,10.600710071007,0,0
60.982070828593,-4.9896200412186,5.4051405140514,2080532.816126,13428.212306417,3305745.0335862,10.605140514051,0,0
60.982071050538,-4.9932941787412,5.4095709570957,2080532.816126,13428.212306417,3305745.0335862,10.609570957096,0,0
60.982071272482,-4.9969683162639,5.41400140014,2080532.816126,13428.212306417,3305745.0335862,10.61400140014,0,0
60.982071494426,-5.0006424537866,5.4184318431843,2080532.816126,13428.212306417,3305745.0335862,10.618431843184,0,0
60.98207171637,-5.0043165913092,5.4228622862286,2080532.816126,13428.212306417,3305745.0335862,10.622862286229,0,0
60.982071938315,-5.0079907288319,5.4272927292729,2080532.816126,13428.212306417,3305745.0335862,10.627292729273,0,0
60.982072160259,-5.0116648663546,5.4317231723172,2080532.816126,13428.212306417,3305745.0335862,10.631723172317,0,0
60.982072382203,-5.0153390038772,5.4361536153615,2080532.816126,13428.212306417,3305745.0335862,10.636153615362,0,0
60.982072604147,-5.0190131413999,5.4405840584058,2080532.816126,13428.212306417,3305745.0335862,10.640584058406,0,0
60.982072826092,-5.0226872789226,5.4450145014501,2080532.816126,13428.212306417,3305745.0335862,10.64501450145,0,0
60.982073048036,-5.0263614164452,5.4494449444944,2080532.816126,13428.212306417,3305745.0335862,10.649444944494,0,0
60.98207326998,-5.0300355539679,5.4538753875388,2080532.816126,13428.212306417,3305745.0335862,10.653875387539,0,0
60.982073491924,-5.0337096914906,5.4583058305831,2080532.816126,13428.212306417,3305745.0335862,10.658305830583,0,0
60.982073713869,-5.0373838290132,5.4627362736274,2080532.816126,13428.212306417,3305745.0335862,10.662736273627,0,0
60.982073935813,-5.0410579665359,5.4671667166717,2080532.816126,13428.212306417,3305745.0335862,10.667166716672,0,0
60.982074162237,-5.0447321018276,5.471597159716,2172859.359385,25140.437464495,3331291.3842452,10.671597159716,0,0
60.982074390876,-5.0484062360168,5.4760276027603,2172859.359385,25140.437464495,3331291.3842452,10.67602760276,0,0
60.982074619515,-5.0520803702059,5.4804580458046,2172859.359385,25140.437464495,3331291.3842452,10.680458045805,0,0
60.982074848153,-5.0557545043951,5.4848884888489,2172859.359385,25140.437464495,3331291.3842452,10.684888488849,0,0
60.982075076792,-5.0594286385842,5.4893189318932,2172859.359385,25140.437464495,3331291.3842452,10.689318931893,0,0
60.982075305431,-5.0631027727733,5.4937493749375,2172859.359385,25140.437464495,3331291.3842452,10.693749374937,0,0
60.98207553407,-5.0667769069625,5.4981798179818,2172859.359385,25140.437464495,3331291.3842452,10.698179817982,0,0
60.982075762708,-5.0704510411516,5.5026102610261,2172859.359385,25140.437464495,3331291.3842452,10.702610261026,0,0
60.982075991347,-5.0741251753407,5.5070407040704,2172859.359385,25140.437464495,3331291.3842452,10.70704070407,0,0
60.982076219986,-5.0777993095299,5.5114711471147,2172859.359385,25140.437464495,3331291.3842452,10.711471147115,0,0
60.982076448625,-5.081473443719,5.515901590159,2172859.359385,25140.437464495,3331291.3842452,10.715901590159,0,0
60.982076677263,-5.0851475779082,5.5203320332033,2172859.359385,25140.437464495,3331291.3842452,10.720332033203,0,0
60.982076905902,-5.0888217120973,5.5247624762476,2172859.359385,25140.437464495,3331291.3842452,10.724762476248,0,0
60.982077134541,-5.0924958462864,5.5291929192919,2172859.359385,25140.437464495,3331291.3842452,10.729192919292,0,0
60.982077363179,-5.0961699804756,5.5336233623362,2172859.359385,25140.437464495,3331291.3842452,10.733623362336,0,0
60.982077591818,-5.0998441146647,5.5380538053805,2172859.359385,25140.437464495,3331291.3842452,10.738053805381,0,0
60.982077820457,-5.1035182488538,5.5424842484248,2172859.359385,25140.437464495,3331291.3842452,10.742484248425,0,0
60.982078049096,-5.107192383043,5.5469146914691,2172859.359385,25140.437464495,3331291.3842452,10.746914691469,0,0
60.982078277734,-5.1108665172321,5.5513451345134,2172859.359385,25140.437464495,3331291.3842452,10.751345134513,0,0
60.982078506373,-5.1145406514213,5.5557755775578,2172859.359385,25140.437464495,3331291.3842452,10.755775577558,0,0
60.982078735012,-5.1182147856104,5.5602060206021,2172859.359385,25140.437464495,3331291.3842452,10.760206020602,0,0
60.982078963651,-5.1218889197995,5.5646364636464,2172859.359385,25140.437464495,3331291.3842452,10.764636463646,0,0
60.982079192289,-5.1255630539887,5.5690669066907,2172859.359385,25140.437464495,3331291.3842452,10.769066906691,0,0
60.982079420928,-5.1292371881778,5.573497349735,2172859.359385,25140.437464495,3331291.3842452,10.773497349735,0,0
60.982079649567,-5.1329113223669,5.5779277927793,2172859.359385,25140.437464495,3331291.3842452,10.777927792779,0,0
60.982079878206,-5.1365854565561,5.5823582358236,2172859.359385,25140.437464495,3331291.3842452,10.782358235824,0,0
60.982080106844,-5.1402595907452,5.5867886788679,2172859.359385,25140.437464495,3331291.3842452,10.786788678868,0,0
60.982080335483,-5.1439337249344,5.5912191219122,2172859.359385,25140.437464495,3331291.3842452,10.791219121912,0,0
60.982080564122,-5.1476078591235,5.5956495649565,2172859.359385,25140.437464495,3331291.3842452,10.795649564956,0,0
60.98208079276,-5.1512819933126,5.6000800080008,2172859.359385,25140.437464495,3331291.3842452,10.800080008001,0,0
60.982081021399,-5.1549561275018,5.6045104510451,2172859.359385,25140.437464495,3331291.3842452,10.804510451045,0,0
60.982081250038,-5.1586302616909,5.6089408940894,2172859.359385,25140.437464495,3331291.3842452,10.808940894089,0,0
60.982081478677,-5.16230439588,5.6133713371337,2172859.359385,25140.437464495,3331291.3842452,10.813371337134,0,0
60.982081707315,-5.1659785300692,5.617801780178,2172859.359385,25140.437464495,3331291.3842452,10.817801780178,0,0
60.982081935954,-5.1696526642583,5.6222322232223,2172859.359385,25140.437464495,3331291.3842452,10.822232223222,0,0
60.982082164593,-5.1733267984475,5.6266626662666,2172859.359385,25140.437464495,3331291.3842452,10.826662666267,0,0
60.982082393232,-5.1770009326366,5.6310931093109,2172859.359385,25140.437464495,3331291.3842452,10.831093109311,0,0
60.98208262187,-5.1806750668257,5.6355235523552,2172859.359385,25140.437464495,3331291.3842452,10.835523552355,0,0
60.982082850509,-5.1843492010149,5.6399539953995,2172859.359385,25140.437464495,3331291.3842452,10.8399539954,0,0
60.982083079096,-5.1880233377212,5.6443844384438,2146456.5632976,-5274.7902891269,3257023.0028577,10.844384438444,0,0
60.982083307603,-5.1916974782809,5.6488148814881,2146456.5632976,-5274.7902891269,3257023.0028577,10.848814881488,0,0
60.98208353611,-5.1953716188405,5.6532453245325,2146456.5632976,-5274.7902891269,3257023.0028577,10.853245324532,0,0
60.982083764617,-5.1990457594002,5.6576757675768,2146456.5632976,-5274.7902891269,3257023.0028577,10.857675767577,0,0
60.982083993125,-5.2027198999599,5.6621062106211,2146456.5632976,-5274.7902891269,3257023.0028577,10.862106210621,0,0
60.982084221632,-5.2063940405196,5.6665366536654,2146456.5632976,-5274.7902891269,3257023.0028577,10.866536653665,0,0
60.982084450139,-5.2100681810793,5.6709670967097,2146456.5632976,-5274.7902891269,3257023.0028577,10.87096709671,0,0
60.982084678646,-5.2137423216389,5.675397539754,2146456.5632976,-5274.7902891269,3257023.0028577,10.875397539754,0,0
60.982084907153,-5.2174164621986,5.6798279827983,2146456.5632976,-5274.7902891269,3257023.0028577,10.879827982798,0,0
60.982085135661,-5.2210906027583,5.6842584258426,2146456.5632976,-5274.7902891269,3257023.0028577,10.884258425843,0,0
60.982085364168,-5.224764743318,5.6886888688869,2146456.5632976,-5274.7902891269,3257023.0028577,10.888688868887,0,0
60.982085592675,-5.2284388838776,5.6931193119312,2146456.5632976,-5274.7902891269,3257023.0028577,10.893119311931,0,0
60.982085821182,-5.2321130244373,5.6975497549755,2146456.5632976,-5274.7902891269,3257023.0028577,10.897549754975,0,0
60.982086049689,-5.235787164997,5.7019801980198,2146456.5632976,-5274.7902891269,3257023.0028577,10.90198019802,0,0
60.982086278197,-5.2394613055567,5.7064106410641,2146456.5632976,-5274.7902891269,3257023.0028577,10.906410641064,0,0
60.982086506704,-5.2431354461164,5.7108410841084,2146456.5632976,-5274.7902891269,3257023.0028577,10.910841084108,0,0
60.982086735211,-5.246809586676,5.7152715271527,2146456.5632976,-5274.7902891269,3257023.0028577,10.915271527153,0,0
60.982086963718,-5.2504837272357,5.719701970197,2146456.5632976,-5274.7902891269,3257023.0028577,10.919701970197,0,0
60.982087192225,-5.2541578677954,5.7241324132413,2146456.5632976,-5274.7902891269,3257023.0028577,10.924132413241,0,0
60.982087420733,-5.2578320083551,5.7285628562856,2146456.5632976,-5274.7902891269,3257023.0028577,10.928562856286,0,0
60.98208764924,-5.2615061489147,5.7329932993299,2146456.5632976,-5274.7902891269,3257023.0028577,10.93299329933,0,0
60.982087877747,-5.2651802894744,5.7374237423742,2146456.5632976,-5274.7902891269,3257023.0028577,10.937423742374,0,0
60.982088106254,-5.2688544300341,5.7418541854185,2146456.5632976,-5274.7902891269,3257023.0028577,10.941854185419,0,0
60.982088334761,-5.2725285705938,5.7462846284628,2146456.5632976,-5274.7902891269,3257023.0028577,10.946284628463,0,0
60.982088563269,-5.2762027111535,5.7507150715072,2146456.5632976,-5274.7902891269,3257023.0028577,10.950715071507,0,0
60.982088791776,-5.2798768517131,5.7551455145515,2146456.5632976,-5274.7902891269,3257023.0028577,10.955145514551,0,0
60.982089020283,-5.2835509922728,5.7595759575958,2146456.5632976,-5274.7902891269,3257023.0028577,10.959575957596,0,0
60.98208924879,-5.2872251328325,5.7640064006401,2146456.5632976,-5274.7902891269,3257023.0028577,10.96400640064,0,0
60.982089477297,-5.2908992733922,5.7684368436844,2146456.5632976,-5274.7902891269,3257023.0028577,10.968436843684,0,0
60.982089705805,-5.2945734139518,5.7728672867287,2146456.5632976,-5274.7902891269,3257023.0028577,10.972867286729,0,0
60.982089934312,-5.2982475545115,5.777297729773,2146456.5632976,-5274.7902891269,3257023.0028577,10.977297729773,0,0
60.982090162819,-5.3019216950712,5.7817281728173,2146456.5632976,-5274.7902891269,3257023.0028577,10.981728172817,0,0
60.982090391326,-5.3055958356309,5.7861586158616,2146456.5632976,-5274.7902891269,3257023.0028577,10.986158615862,0,0
60.982090619833,-5.3092699761906,5.7905890589059,2146456.5632976,-5274.7902891269,3257023.0028577,10.990589058906,0,0
60.982090848341,-5.3129441167502,5.7950195019502,2146456.5632976,-5274.7902891269,3257023.0028577,10.99501950195,0,0
60.982091076848,-5.3166182573099,5.7994499449945,2146456.5632976,-5274.7902891269,3257023.0028577,10.999449944994,0,0
60.982091305355,-5.3202923978696,5.8038803880388,2146456.5632976,-5274.7902891269,3257023.0028577,11.003880388039,0,0
60.982091533862,-5.3239665384293,5.8083108310831,2146456.5632976,-5274.7902891269,3257023.0028577,11.008310831083,0,0
60.982091762369,-5.327640678989,5.8127412741274,2146456.5632976,-5274.7902891269,3257023.0028577,11.012741274127,0,0
60.982091990877,-5.3313148195486,5.8171717171717,2146456.5632976,-5274.7902891269,3257023.0028577,11.017171717172,0,0
60.982092219384,-5.3349889601083,5.821602160216,2146456.5632976,-5274.7902891269,3257023.0028577,11.021602160216,0,0
60.982092447891,-5.338663100668,5.8260326032603,2146456.5632976,-5274.7902891269,3257023.0028577,11.02603260326,0,0
60.982092676398,-5.3423372412277,5.8304630463046,2146456.5632976,-5274.7902891269,3257023.0028577,11.030463046305,0,0
60.982092904905,-5.3460113817873,5.8348934893489,2146456.5632976,-5274.7902891269,3257023.0028577,11.034893489349,0,0
60.982093133413,-5.349685522347,5.8393239323932,2146456.5632976,-5274.7902891269,3257023.0028577,11.039323932393,0,0
60.98209336192,-5.3533596629067,5.8437543754375,2146456.5632976,-5274.7902891269,3257023.0028577,11.043754375438,0,0
60.982093590427,-5.3570338034664,5.8481848184818,2146456.5632976,-5274.7902891269,3257023.0028577,11.048184818482,0,0
60.982093818934,-5.3607079440261,5.8526152615262,2146456.5632976,-5274.7902891269,3257023.0028577,11.052615261526,0,0
60.982094047441,-5.3643820845857,5.8570457045705,2146456.5632976,-5274.7902891269,3257023.0028577,11.05704570457,0,0
60.982094275949,-5.3680562251454,5.8614761476148,2146456.5632976,-5274.7902891269,3257023.0028577,11.061476147615,0,0
60.982094504456,-5.3717303657051,5.8659065906591,2146456.5632976,-5274.7902891269,3257023.0028577,11.065906590659,0,0
60.982094732963,-5.3754045062648,5.8703370337034,2146456.5632976,-5274.7902891269,3257023.0028577,11.070337033703,0,0
60.98209496147,-5.3790786468244,5.8747674767477,2146456.5632976,-5274.7902891269,3257023.0028577,11.074767476748,0,0
60.982095189977,-5.3827527873841,5.879197919792,2146456.5632976,-5274.7902891269,3257023.0028577,11.079197919792,0,0
60.982095418485,-5.3864269279438,5.8836283628363,2146456.5632976,-5274.7902891269,3257023.0028577,11.083628362836,0,0
60.982095646992,-5.3901010685035,5.8880588058806,2146456.5632976,-5274.7902891269,3257023.0028577,11.088058805881,0,0
60.982095875499,-5.3937752090632,5.8924892489249,2146456.5632976,-5274.7902891269,3257023.0028577,11.092489248925,0,0
60.982096104006,-5.3974493496228,5.8969196919692,2146456.5632976,-5274.7902891269,3257023.0028577,11.096919691969,0,0
60.982096332513,-5.4011234901825,5.9013501350135,2146456.5632976,-5274.7902891269,3257023.0028577,11.101350135014,0,0
60.982096561021,-5.4047976307422,5.9057805780578,2146456.5632976,-5274.7902891269,3257023.0028577,11.105780578058,0,0
60.982096789528,-5.4084717713019,5.9102110211021,2146456.5632976,-5274.7902891269,3257023.0028577,11.110211021102,0,0
60.982097018035,-5.4121459118615,5.9146414641464,2146456.5632976,-5274.7902891269,3257023.0028577,11.114641464146,0,0
60.982097246542,-5.4158200524212,5.9190719071907,2146456.5632976,-5274.7902891269,3257023.0028577,11.119071907191,0,0
60.982097475049,-5.4194941929809,5.923502350235,2146456.5632976,-5274.7902891269,3257023.0028577,11.123502350235,0,0
60.982097703557,-5.4231683335406,5.9279327932793,2146456.5632976,-5274.7902891269,3257023.0028577,11.127932793279,0,0
60.982097932064,-5.4268424741003,5.9323632363236,2146456.5632976,-5274.7902891269,3257023.0028577,11.132363236324,0,0
60.982098160571,-5.4305166146599,5.9367936793679,2146456.5632976,-5274.7902891269,3257023.0028577,11.136793679368,0,0
60.982098389078,-5.4341907552196,5.9412241224122,2146456.5632976,-5274.7902891269,3257023.0028577,11.141224122412,0,0
60.982098617585,-5.4378648957793,5.9456545654565,2146456.5632976,-5274.7902891269,3257023.0028577,11.145654565457,0,0
60.982098846093,-5.441539036339,5.9500850085008,2146456.5632976,-5274.7902891269,3257023.0028577,11.150085008501,0,0
60.9820990746,-5.4452131768987,5.9545154515452,2146456.5632976,-5274.7902891269,3257023.0028577,11.154515451545,0,0
60.982099303107,-5.4488873174583,5.9589458945895,2146456.5632976,-5274.7902891269,3257023.0028577,11.158945894589,0,0
60.982099531614,-5.452561458018,5.9633763376338,2146456.5632976,-5274.7902891269,3257023.0028577,11.163376337634,0,0
60.982099760121,-5.4562355985777,5.9678067806781,2146456.5632976,-5274.7902891269,3257023.0028577,11.167806780678,0,0
60.982099988629,-5.4599097391374,5.9722372237224,2146456.5632976,-5274.7902891269,3257023.0028577,11.172237223722,0,0
60.982100217136,-5.463583879697,5.9766676667667,2146456.5632976,-5274.7902891269,3257023.0028577,11.176667666767,0,0
60.982100445643,-5.4672580202567,5.981098109811,2146456.5632976,-5274.7902891269,3257023.0028577,11.181098109811,0,0
60.98210067415,-5.4709321608164,5.9855285528553,2146456.5632976,-5274.7902891269,3257023.0028577,11.185528552855,0,0
60.982100902657,-5.4746063013761,5.9899589958996,2146456.5632976,-5274.7902891269,3257023.0028577,11.1899589959,0,0
60.982101131165,-5.4782804419358,5.9943894389439,2146456.5632976,-5274.7902891269,3257023.0028577,11.194389438944,0,0
60.982101359672,-5.4819545824954,5.9988198819882,2146456.5632976,-5274.7902891269,3257023.0028577,11.198819881988,0,0
60.982101588179,-5.4856287230551,6.0032503250325,2146456.5632976,-5274.7902891269,3257023.0028577,11.203250325033,0,0
60.982101816686,-5.4893028636148,6.0076807680768,2146456.5632976,-5274.7902891269,3257023.0028577,11.207680768077,0,0
60.982102045193,-5.4929770041745,6.0121112111211,2146456.5632976,-5274.7902891269,3257023.0028577,11.212111211121,0,0
60.982102273701,-5.4966511447341,6.0165416541654,2146456.5632976,-5274.7902891269,3257023.0028577,11.216541654165,0,0
60.982102502208,-5.5003252852938,6.0209720972097,2146456.5632976,-5274.7902891269,3257023.0028577,11.22097209721,0,0
60.982102730715,-5.5039994258535,6.025402540254,2146456.5632976,-5274.7902891269,3257023.0028577,11.225402540254,0,0
60.982102959222,-5.5076735664132,6.0298329832983,2146456.5632976,-5274.7902891269,3257023.0028577,11.229832983298,0,0
60.982103187729,-5.5113477069729,6.0342634263426,2146456.5632976,-5274.7902891269,3257023.0028577,11.234263426343,0,0
60.982103416237,-5.5150218475325,6.0386938693869,2146456.5632976,-5274.7902891269,3257023.0028577,11.238693869387,0,0
60.982103644744,-5.5186959880922,6.0431243124312,2146456.5632976,-5274.7902891269,3257023.0028577,11.243124312431,0,0
60.982103873251,-5.5223701286519,6.0475547554755,2146456.5632976,-5274.7902891269,3257023.0028577,11.247554755476,0,0
60.982104101758,-5.5260442692116,6.0519851985199,2146456.5632976,-5274.7902891269,3257023.0028577,11.25198519852,0,0
60.982104330265,-5.5297184097712,6.0564156415642,2146456.5632976,-5274.7902891269,3257023.0028577,11.256415641564,0,0
60.982104558773,-5.5333925503309,6.0608460846085,2146456.5632976,-5274.7902891269,3257023.0028577,11.260846084608,0,0
60.982104789204,-5.5370666894505,6.0652765276528,2229554.0163172,7967.4556076782,3266354.2823472,11.265276527653,0,0
60.9821050241,-5.5407408252291,6.0697069706971,2229554.0163172,7967.4556076782,3266354.2823472,11.269706970697,0,0
60.982105258997,-5.5444149610076,6.0741374137414,2229554.0163172,7967.4556076782,3266354.2823472,11.274137413741,0,0
60.982105493893,-5.5480890967861,6.0785678567857,2229554.0163172,7967.4556076782,3266354.2823472,11.278567856786,0,0
60.982105728789,-5.5517632325646,6.08299829983,2229554.0163172,7967.4556076782,3266354.2823472,11.28299829983,0,0
60.982105963685,-5.5554373683431,6.0874287428743,2229554.0163172,7967.4556076782,3266354.2823472,11.287428742874,0,0
60.982106198582,-5.5591115041216,6.0918591859186,2229554.0163172,7967.4556076782,3266354.2823472,11.291859185919,0,0
60.982106433478,-5.5627856399001,6.0962896289629,2229554.0163172,7967.4556076782,3266354.2823472,11.296289628963,0,0
60.982106668374,-5.5664597756787,6.1007200720072,2229554.0163172,7967.4556076782,3266354.2823472,11.300720072007,0,0
60.98210690327,-5.5701339114572,6.1051505150515,2229554.0163172,7967.4556076782,3266354.2823472,11.305150515052,0,0
60.982107138166,-5.5738080472357,6.1095809580958,2229554.0163172,7967.4556076782,3266354.2823472,11.309580958096,0,0
60.982107373063,-5.5774821830142,6.1140114011401,2229554.0163172,7967.4556076782,3266354.2823472,11.31401140114,0,0
60.982107607959,-5.5811563187927,6.1184418441844,2229554.0163172,7967.4556076782,3266354.2823472,11.318441844184,0,0
60.982107842855,-5.5848304545712,6.1228722872287,2229554.0163172,7967.4556076782,3266354.2823472,11.322872287229,0,0
60.982108077751,-5.5885045903498,6.127302730273,2229554.0163172,7967.4556076782,3266354.2823472,11.327302730273,0,0
60.982108312648,-5.5921787261283,6.1317331733173,2229554.0163172,7967.4556076782,3266354.2823472,11.331733173317,0,0
60.982108547544,-5.5958528619068,6.1361636163616,2229554.0163172,7967.4556076782,3266354.2823472,11.336163616362,0,0
60.98210878244,-5.5995269976853,6.1405940594059,2229554.0163172,7967.4556076782,3266354.2823472,11.340594059406,0,0
60.982109017336,-5.6032011334638,6.1450245024502,2229554.0163172,7967.4556076782,3266354.2823472,11.34502450245,0,0
60.982109252232,-5.6068752692423,6.1494549454945,2229554.0163172,7967.4556076782,3266354.2823472,11.349454945495,0,0
60.982109487129,-5.6105494050208,6.1538853885389,2229554.0163172,7967.4556076782,3266354.2823472,11.353885388539,0,0
60.982109722025,-5.6142235407994,6.1583158315832,2229554.0163172,7967.4556076782,3266354.2823472,11.358315831583,0,0
60.982109956921,-5.6178976765779,6.1627462746275,2229554.0163172,7967.4556076782,3266354.2823472,11.362746274627,0,0
60.982110191817,-5.6215718123564,6.1671767176718,2229554.0163172,7967.4556076782,3266354.2823472,11.367176717672,0,0
60.982110426714,-5.6252459481349,6.1716071607161,2229554.0163172,7967.4556076782,3266354.2823472,11.371607160716,0,0
60.98211066161,-5.6289200839134,6.1760376037604,2229554.0163172,7967.4556076782,3266354.2823472,11.37603760376,0,0
60.982110896506,-5.6325942196919,6.1804680468047,2229554.0163172,7967.4556076782,3266354.2823472,11.380468046805,0,0
60.982111131402,-5.6362683554705,6.184898489849,2229554.0163172,7967.4556076782,3266354.2823472,11.384898489849,0,0
60.982111366298,-5.639942491249,6.1893289328933,2229554.0163172,7967.4556076782,3266354.2823472,11.389328932893,0,0
60.982111601195,-5.6436166270275,6.1937593759376,2229554.0163172,7967.4556076782,3266354.2823472,11.393759375938,0,0
60.982111836091,-5.647290762806,6.1981898189819,2229554.0163172,7967.4556076782,3266354.2823472,11.398189818982,0,0
60.982112070987,-5.6509648985845,6.2026202620262,2229554.0163172,7967.4556076782,3266354.2823472,11.402620262026,0,0
60.982112305883,-5.654639034363,6.2070507050705,2229554.0163172,7967.4556076782,3266354.2823472,11.407050705071,0,0
60.98211254078,-5.6583131701415,6.2114811481148,2229554.0163172,7967.4556076782,3266354.2823472,11.411481148115,0,0
60.982112775676,-5.6619873059201,6.2159115911591,2229554.0163172,7967.4556076782,3266354.2823472,11.415911591159,0,0
60.982113010572,-5.6656614416986,6.2203420342034,2229554.0163172,7967.4556076782,3266354.2823472,11.420342034203,0,0
60.982113245468,-5.6693355774771,6.2247724772477,2229554.0163172,7967.4556076782,3266354.2823472,11.424772477248,0,0
60.982113480365,-5.6730097132556,6.229202920292,2229554.0163172,7967.4556076782,3266354.2823472,11.429202920292,0,0
60.982113715261,-5.6766838490341,6.2336333633363,2229554.0163172,7967.4556076782,3266354.2823472,11.433633363336,0,0
60.982113950157,-5.6803579848126,6.2380638063806,2229554.0163172,7967.4556076782,3266354.2823472,11.438063806381,0,0
60.982114185053,-5.6840321205912,6.2424942494249,2229554.0163172,7967.4556076782,3266354.2823472,11.442494249425,0,0
60.982114419949,-5.6877062563697,6.2469246924692,2229554.0163172,7967.4556076782,3266354.2823472,11.446924692469,0,0
60.982114654846,-5.6913803921482,6.2513551355136,2229554.0163172,7967.4556076782,3266354.2823472,11.451355135514,0,0
60.982114889742,-5.6950545279267,6.2557855785579,2229554.0163172,7967.4556076782,3266354.2823472,11.455785578558,0,0
60.982115124638,-5.6987286637052,6.2602160216022,2229554.0163172,7967.4556076782,3266354.2823472,11.460216021602,0,0
60.982115359534,-5.7024027994837,6.2646464646465,2229554.0163172,7967.4556076782,3266354.2823472,11.464646464646,0,0
60.982115594431,-5.7060769352622,6.2690769076908,2229554.0163172,7967.4556076782,3266354.2823472,11.469076907691,0,0
60.982115829327,-5.7097510710408,6.2735073507351,2229554.0163172,7967.4556076782,3266354.2823472,11.473507350735,0,0
60.982116064223,-5.7134252068193,6.2779377937794,2229554.0163172,7967.4556076782,3266354.2823472,11.477937793779,0,0
60.982116299119,-5.7170993425978,6.2823682368237,2229554.0163172,7967.4556076782,3266354.2823472,11.482368236824,0,0
60.982116534015,-5.7207734783763,6.286798679868,2229554.0163172,7967.4556076782,3266354.2823472,11.486798679868,0,0
60.982116768912,-5.7244476141548,6.2912291229123,2229554.0163172,7967.4556076782,3266354.2823472,11.491229122912,0,0
60.982117003808,-5.7281217499333,6.2956595659566,2229554.0163172,7967.4556076782,3266354.2823472,11.495659565957,0,0
60.982117238704,-5.7317958857118,6.3000900090009,2229554.0163172,7967.4556076782,3266354.2823472,11.500090009001,0,0
60.9821174736,-5.7354700214904,6.3045204520452,2229554.0163172,7967.4556076782,3266354.2823472,11.504520452045,0,0
60.982117708497,-5.7391441572689,6.3089508950895,2229554.0163172,7967.4556076782,3266354.2823472,11.50895089509,0,0
60.982117943393,-5.7428182930474,6.3133813381338,2229554.0163172,7967.4556076782,3266354.2823472,11.513381338134,0,0
60.982118178289,-5.7464924288259,6.3178117811781,2229554.0163172,7967.4556076782,3266354.2823472,11.517811781178,0,0
60.982118413185,-5.7501665646044,6.3222422242224,2229554.0163172,7967.4556076782,3266354.2823472,11.522242224222,0,0
60.982118648082,-5.7538407003829,6.3266726672667,2229554.0163172,7967.4556076782,3266354.2823472,11.526672667267,0,0
60.982118882978,-5.7575148361615,6.331103110311,2229554.0163172,7967.4556076782,3266354.2823472,11.531103110311,0,0
60.982119117874,-5.76118897194,6.3355335533553,2229554.0163172,7967.4556076782,3266354.2823472,11.535533553355,0,0
60.98211935277,-5.7648631077185,6.3399639963996,2229554.0163172,7967.4556076782,3266354.2823472,11.5399639964,0,0
60.982119587666,-5.768537243497,6.3443944394439,2229554.0163172,7967.4556076782,3266354.2823472,11.544394439444,0,0
60.982119822563,-5.7722113792755,6.3488248824882,2229554.0163172,7967.4556076782,3266354.2823472,11.548824882488,0,0
60.982120057459,-5.775885515054,6.3532553255326,2229554.0163172,7967.4556076782,3266354.2823472,11.553255325533,0,0
60.982120292355,-5.7795596508325,6.3576857685769,2229554.0163172,7967.4556076782,3266354.2823472,11.557685768577,0,0
60.982120527251,-5.7832337866111,6.3621162116212,2229554.0163172,7967.4556076782,3266354.2823472,11.562116211621,0,0
60.982120762148,-5.7869079223896,6.3665466546655,2229554.0163172,7967.4556076782,3266354.2823472,11.566546654665,0,0
60.982120997044,-5.7905820581681,6.3709770977098,2229554.0163172,7967.4556076782,3266354.2823472,11.57097709771,0,0
60.98212123194,-5.7942561939466,6.3754075407541,2229554.0163172,7967.4556076782,3266354.2823472,11.575407540754,0,0
60.982121466836,-5.7979303297251,6.3798379837984,2229554.0163172,7967.4556076782,3266354.2823472,11.579837983798,0,0
60.982121701732,-5.8016044655036,6.3842684268427,2229554.0163172,7967.4556076782,3266354.2823472,11.584268426843,0,0
60.982121936629,-5.8052786012822,6.388698869887,2229554.0163172,7967.4556076782,3266354.2823472,11.588698869887,0,0
60.982122171525,-5.8089527370607,6.3931293129313,2229554.0163172,7967.4556076782,3266354.2823472,11.593129312931,0,0
60.982122406421,-5.8126268728392,6.3975597559756,2229554.0163172,7967.4556076782,3266354.2823472,11.597559755976,0,0
60.982122641317,-5.8163010086177,6.4019901990199,2229554.0163172,7967.4556076782,3266354.2823472,11.60199019902,0,0
60.982122876214,-5.8199751443962,6.4064206420642,2229554.0163172,7967.4556076782,3266354.2823472,11.606420642064,0,0
60.98212311111,-5.8236492801747,6.4108510851085,2229554.0163172,7967.4556076782,3266354.2823472,11.610851085109,0,0
60.982123346006,-5.8273234159532,6.4152815281528,2229554.0163172,7967.4556076782,3266354.2823472,11.615281528153,0,0
60.982123580902,-5.8309975517318,6.4197119711971,2229554.0163172,7967.4556076782,3266354.2823472,11.619711971197,0,0
60.982123815799,-5.8346716875103,6.4241424142414,2229554.0163172,7967.4556076782,3266354.2823472,11.624142414241,0,0
60.982124050695,-5.8383458232888,6.4285728572857,2229554.0163172,7967.4556076782,3266354.2823472,11.628572857286,0,0
60.982124285591,-5.8420199590673,6.43300330033,2229554.0163172,7967.4556076782,3266354.2823472,11.63300330033,0,0
60.982124520487,-5.8456940948458,6.4374337433743,2229554.0163172,7967.4556076782,3266354.2823472,11.637433743374,0,0
60.982124755383,-5.8493682306243,6.4418641864186,2229554.0163172,7967.4556076782,3266354.2823472,11.641864186419,0,0
60.98212499028,-5.8530423664029,6.4462946294629,2229554.0163172,7967.4556076782,3266354.2823472,11.646294629463,0,0
60.982125225176,-5.8567165021814,6.4507250725072,2229554.0163172,7967.4556076782,3266354.2823472,11.650725072507,0,0
60.982125460072,-5.8603906379599,6.4551555155516,2229554.0163172,7967.4556076782,3266354.2823472,11.655155515552,0,0
60.982125694968,-5.8640647737384,6.4595859585959,2229554.0163172,7967.4556076782,3266354.2823472,11.659585958596,0,0
60.982125930342,-5.8677389126381,6.4640164016402,2217875.8176637,-17657.519177965,3195245.5160025,11.66401640164,0,0
60.982126166199,-5.871413054696,6.4684468446845,2217875.8176637,-17657.519177965,3195245.5160025,11.668446844684,0,0
60.982126402055,-5.8750871967539,6.4728772877288,2217875.8176637,-17657.519177965,3195245.5160025,11.672877287729,0,0
60.982126637912,-5.8787613388119,6.4773077307731,2217875.8176637,-17657.519177965,3195245.5160025,11.677307730773,0,0
60.982126873769,-5.8824354808698,6.4817381738174,2217875.8176637,-17657.519177965,3195245.5160025,11.681738173817,0,0
60.982127109626,-5.8861096229277,6.4861686168617,2217875.8176637,-17657.519177965,3195245.5160025,11.686168616862,0,0
60.982127345482,-5.8897837649856,6.490599059906,2217875.8176637,-17657.519177965,3195245.5160025,11.690599059906,0,0
60.982127581339,-5.8934579070435,6.4950295029503,2217875.8176637,-17657.519177965,3195245.5160025,11.69502950295,0,0
60.982127817196,-5.8971320491014,6.4994599459946,2217875.8176637,-17657.519177965,3195245.5160025,11.699459945995,0,0
60.982128053052,-5.9008061911593,6.5038903890389,2217875.8176637,-17657.519177965,3195245.5160025,11.703890389039,0,0
60.982128288909,-5.9044803332172,6.5083208320832,2217875.8176637,-17657.519177965,3195245.5160025,11.708320832083,0,0
60.982128524766,-5.9081544752751,6.5127512751275,2217875.8176637,-17657.519177965,3195245.5160025,11.712751275128,0,0
60.982128760622,-5.911828617333,6.5171817181718,2217875.8176637,-17657.519177965,3195245.5160025,11.717181718172,0,0
60.982128996479,-5.915502759391,6.5216121612161,2217875.8176637,-17657.519177965,3195245.5160025,11.721612161216,0,0
60.982129232336,-5.9191769014489,6.5260426042604,2217875.8176637,-17657.519177965,3195245.5160025,11.72604260426,0,0
60.982129468193,-5.9228510435068,6.5304730473047,2217875.8176637,-17657.519177965,3195245.5160025,11.730473047305,0,0
60.982129704049,-5.9265251855647,6.534903490349,2217875.8176637,-17657.519177965,3195245.5160025,11.734903490349,0,0
60.982129939906,-5.9301993276226,6.5393339333933,2217875.8176637,-17657.519177965,3195245.5160025,11.739333933393,0,0
60.982130175763,-5.9338734696805,6.5437643764376,2217875.8176637,-17657.519177965,3195245.5160025,11.743764376438,0,0
60.982130411619,-5.9375476117384,6.5481948194819,2217875.8176637,-17657.519177965,3195245.5160025,11.748194819482,0,0
60.982130647476,-5.9412217537963,6.5526252625263,2217875.8176637,-17657.519177965,3195245.5160025,11.752625262526,0,0
60.982130883333,-5.9448958958542,6.5570557055706,2217875.8176637,-17657.519177965,3195245.5160025,11.757055705571,0,0
60.98213111919,-5.9485700379121,6.5614861486149,2217875.8176637,-17657.519177965,3195245.5160025,11.761486148615,0,0
60.982131355046,-5.95224417997,6.5659165916592,2217875.8176637,-17657.519177965,3195245.5160025,11.765916591659,0,0
60.982131590903,-5.955918322028,6.5703470347035,2217875.8176637,-17657.519177965,3195245.5160025,11.770347034703,0,0
60.98213182676,-5.9595924640859,6.5747774777478,2217875.8176637,-17657.519177965,3195245.5160025,11.774777477748,0,0
60.982132062616,-5.9632666061438,6.5792079207921,2217875.8176637,-17657.519177965,3195245.5160025,11.779207920792,0,0
60.982132298473,-5.9669407482017,6.5836383638364,2217875.8176637,-17657.519177965,3195245.5160025,11.783638363836,0,0
60.98213253433,-5.9706148902596,6.5880688068807,2217875.8176637,-17657.519177965,3195245.5160025,11.788068806881,0,0
60.982132770187,-5.9742890323175,6.592499249925,2217875.8176637,-17657.519177965,3195245.5160025,11.792499249925,0,0
60.982133006043,-5.9779631743754,6.5969296929693,2217875.8176637,-17657.519177965,3195245.5160025,11.796929692969,0,0
60.9821332419,-5.9816373164333,6.6013601360136,2217875.8176637,-17657.519177965,3195245.5160025,11.801360136014,0,0
60.982133477757,-5.9853114584912,6.6057905790579,2217875.8176637,-17657.519177965,3195245.5160025,11.805790579058,0,0
60.982133713613,-5.9889856005491,6.6102210221022,2217875.8176637,-17657.519177965,3195245.5160025,11.810221022102,0,0
60.98213394947,-5.992659742607,6.6146514651465,2217875.8176637,-17657.519177965,3195245.5160025,11.814651465147,0,0
60.982134185327,-5.996333884665,6.6190819081908,2217875.8176637,-17657.519177965,3195245.5160025,11.819081908191,0,0
60.982134421184,-6.0000080267229,6.6235123512351,2217875.8176637,-17657.519177965,3195245.5160025,11.823512351235,0,0
60.98213465704,-6.0036821687808,6.6279427942794,2217875.8176637,-17657.519177965,3195245.5160025,11.827942794279,0,0
60.982134892897,-6.0073563108387,6.6323732373237,2217875.8176637,-17657.519177965,3195245.5160025,11.832373237324,0,0
60.982135128754,-6.0110304528966,6.636803680368,2217875.8176637,-17657.519177965,3195245.5160025,11.836803680368,0,0
60.98213536461,-6.0147045949545,6.6412341234123,2217875.8176637,-17657.519177965,3195245.5160025,11.841234123412,0,0
60.982135600467,-6.0183787370124,6.6456645664566,2217875.8176637,-17657.519177965,3195245.5160025,11.845664566457,0,0
60.982135836324,-6.0220528790703,6.650095009501,2217875.8176637,-17657.519177965,3195245.5160025,11.850095009501,0,0
60.982136072181,-6.0257270211282,6.6545254525453,2217875.8176637,-17657.519177965,3195245.5160025,11.854525452545,0,0
60.982136308037,-6.0294011631861,6.6589558955896,2217875.8176637,-17657.519177965,3195245.5160025,11.85895589559,0,0
60.982136543894,-6.0330753052441,6.6633863386339,2217875.8176637,-17657.519177965,3195245.5160025,11.863386338634,0,0
60.982136779751,-6.036749447302,6.6678167816782,2217875.8176637,-17657.519177965,3195245.5160025,11.867816781678,0,0
60.982137015607,-6.0404235893599,6.6722472247225,2217875.8176637,-17657.519177965,3195245.5160025,11.872247224722,0,0
60.982137251464,-6.0440977314178,6.6766776677668,2217875.8176637,-17657.519177965,3195245.5160025,11.876677667767,0,0
60.982137487321,-6.0477718734757,6.6811081108111,2217875.8176637,-17657.519177965,3195245.5160025,11.881108110811,0,0
60.982137723177,-6.0514460155336,6.6855385538554,2217875.8176637,-17657.519177965,3195245.5160025,11.885538553855,0,0
60.982137959034,-6.0551201575915,6.6899689968997,2217875.8176637,-17657.519177965,3195245.5160025,11.8899689969,0,0
60.982138194891,-6.0587942996494,6.694399439944,2217875.8176637,-17657.519177965,3195245.5160025,11.894399439944,0,0
60.982138430748,-6.0624684417073,6.6988298829883,2217875.8176637,-17657.519177965,3195245.5160025,11.898829882988,0,0
60.982138666604,-6.0661425837652,6.7032603260326,2217875.8176637,-17657.519177965,3195245.5160025,11.903260326033,0,0
60.982138902461,-6.0698167258231,6.7076907690769,2217875.8176637,-17657.519177965,3195245.5160025,11.907690769077,0,0
60.982139138318,-6.0734908678811,6.7121212121212,2217875.8176637,-17657.519177965,3195245.5160025,11.912121212121,0,0
60.982139374174,-6.077165009939,6.7165516551655,2217875.8176637,-17657.519177965,3195245.5160025,11.916551655166,0,0
60.982139610031,-6.0808391519969,6.7209820982098,2217875.8176637,-17657.519177965,3195245.5160025,11.92098209821,0,0
60.982139845888,-6.0845132940548,6.7254125412541,2217875.8176637,-17657.519177965,3195245.5160025,11.925412541254,0,0
60.982140081745,-6.0881874361127,6.7298429842984,2217875.8176637,-17657.519177965,3195245.5160025,11.929842984298,0,0
60.982140319963,-6.0918615761551,6.7342734273427,2286519.4240212,-5711.7167251363,3195328.1645941,11.934273427343,0,0
60.9821405613,-6.095535713535,6.738703870387,2286519.4240212,-5711.7167251363,3195328.1645941,11.938703870387,0,0
60.982140802638,-6.0992098509149,6.7431343134313,2286519.4240212,-5711.7167251363,3195328.1645941,11.943134313431,0,0
60.982141043975,-6.1028839882948,6.7475647564756,2286519.4240212,-5711.7167251363,3195328.1645941,11.947564756476,0,0
60.982141285313,-6.1065581256746,6.75199519952,2286519.4240212,-5711.7167251363,3195328.1645941,11.95199519952,0,0
60.98214152665,-6.1102322630545,6.7564256425643,2286519.4240212,-5711.7167251363,3195328.1645941,11.956425642564,0,0
60.982141767987,-6.1139064004344,6.7608560856086,2286519.4240212,-5711.7167251363,3195328.1645941,11.960856085609,0,0
60.982142009325,-6.1175805378143,6.7652865286529,2286519.4240212,-5711.7167251363,3195328.1645941,11.965286528653,0,0
60.982142250662,-6.1212546751942,6.7697169716972,2286519.4240212,-5711.7167251363,3195328.1645941,11.969716971697,0,0
60.982142492,-6.1249288125741,6.7741474147415,2286519.4240212,-5711.7167251363,3195328.1645941,11.974147414741,0,0
60.982142733337,-6.128602949954,6.7785778577858,2286519.4240212,-5711.7167251363,3195328.1645941,11.978577857786,0,0
60.982142974675,-6.1322770873339,6.7830083008301,2286519.4240212,-5711.7167251363,3195328.1645941,11.98300830083,0,0
60.982143216012,-6.1359512247137,6.7874387438744,2286519.4240212,-5711.7167251363,3195328.1645941,11.987438743874,0,0
60.98214345735,-6.1396253620936,6.7918691869187,2286519.4240212,-5711.7167251363,3195328.1645941,11.991869186919,0,0
60.982143698687,-6.1432994994735,6.796299629963,2286519.4240212,-5711.7167251363,3195328.1645941,11.996299629963,0,0
60.982143940025,-6.1469736368534,6.8007300730073,2286519.4240212,-5711.7167251363,3195328.1645941,12.000730073007,0,0
60.982144181362,-6.1506477742333,6.8051605160516,2286519.4240212,-5711.7167251363,3195328.1645941,12.005160516052,0,0
60.9821444227,-6.1543219116132,6.8095909590959,2286519.4240212,-5711.7167251363,3195328.1645941,12.009590959096,0,0
60.982144664037,-6.1579960489931,6.8140214021402,2286519.4240212,-5711.7167251363,3195328.1645941,12.01402140214,0,0
60.982144905375,-6.161670186373,6.8184518451845,2286519.4240212,-5711.7167251363,3195328.1645941,12.018451845185,0,0
60.982145146712,-6.1653443237528,6.8228822882288,2286519.4240212,-5711.7167251363,3195328.1645941,12.022882288229,0,0
60.98214538805,-6.1690184611327,6.8273127312731,2286519.4240212,-5711.7167251363,3195328.1645941,12.027312731273,0,0
60.982145629387,-6.1726925985126,6.8317431743174,2286519.4240212,-5711.7167251363,3195328.1645941,12.031743174317,0,0
60.982145870725,-6.1763667358925,6.8361736173617,2286519.4240212,-5711.7167251363,3195328.1645941,12.036173617362,0,0
60.982146112062,-6.1800408732724,6.840604060406,2286519.4240212,-5711.7167251363,3195328.1645941,12.040604060406,0,0
60.982146353399,-6.1837150106523,6.8450345034503,2286519.4240212,-5711.7167251363,3195328.1645941,12.04503450345,0,0
60.982146594737,-6.1873891480322,6.8494649464946,2286519.4240212,-5711.7167251363,3195328.1645941,12.049464946495,0,0
60.982146836074,-6.1910632854121,6.853895389539,2286519.4240212,-5711.7167251363,3195328.1645941,12.053895389539,0,0
60.982147077412,-6.1947374227919,6.8583258325833,2286519.4240212,-5711.7167251363,3195328.1645941,12.058325832583,0,0
60.982147318749,-6.1984115601718,6.8627562756276,2286519.4240212,-5711.7167251363,3195328.1645941,12.062756275628,0,0
60.982147560087,-6.2020856975517,6.8671867186719,2286519.4240212,-5711.7167251363,3195328.1645941,12.067186718672,0,0
60.982147801424,-6.2057598349316,6.8716171617162,2286519.4240212,-5711.7167251363,3195328.1645941,12.071617161716,0,0
60.982148042762,-6.2094339723115,6.8760476047605,2286519.4240212,-5711.7167251363,3195328.1645941,12.07604760476,0,0
60.982148284099,-6.2131081096914,6.8804780478048,2286519.4240212,-5711.7167251363,3195328.1645941,12.080478047805,0,0
60.982148525437,-6.2167822470713,6.8849084908491,2286519.4240212,-5711.7167251363,3195328.1645941,12.084908490849,0,0
60.982148766774,-6.2204563844512,6.8893389338934,2286519.4240212,-5711.7167251363,3195328.1645941,12.089338933893,0,0
60.982149008112,-6.2241305218311,6.8937693769377,2286519.4240212,-5711.7167251363,3195328.1645941,12.093769376938,0,0
60.982149249449,-6.2278046592109,6.898199819982,2286519.4240212,-5711.7167251363,3195328.1645941,12.098199819982,0,0
60.982149490787,-6.2314787965908,6.9026302630263,2286519.4240212,-5711.7167251363,3195328.1645941,12.102630263026,0,0
60.982149732124,-6.2351529339707,6.9070607060706,2286519.4240212,-5711.7167251363,3195328.1645941,12.107060706071,0,0
60.982149973462,-6.2388270713506,6.9114911491149,2286519.4240212,-5711.7167251363,3195328.1645941,12.111491149115,0,0
60.982150214799,-6.2425012087305,6.9159215921592,2286519.4240212,-5711.7167251363,3195328.1645941,12.115921592159,0,0
60.982150456136,-6.2461753461104,6.9203520352035,2286519.4240212,-5711.7167251363,3195328.1645941,12.120352035204,0,0
60.982150697474,-6.2498494834903,6.9247824782478,2286519.4240212,-5711.7167251363,3195328.1645941,12.124782478248,0,0
60.982150938811,-6.2535236208702,6.9292129212921,2286519.4240212,-5711.7167251363,3195328.1645941,12.129212921292,0,0
60.982151180149,-6.25719775825,6.9336433643364,2286519.4240212,-5711.7167251363,3195328.1645941,12.133643364336,0,0
60.982151421486,-6.2608718956299,6.9380738073807,2286519.4240212,-5711.7167251363,3195328.1645941,12.138073807381,0,0
60.982151662824,-6.2645460330098,6.942504250425,2286519.4240212,-5711.7167251363,3195328.1645941,12.142504250425,0,0
60.982151904161,-6.2682201703897,6.9469346934693,2286519.4240212,-5711.7167251363,3195328.1645941,12.146934693469,0,0
60.982152145499,-6.2718943077696,6.9513651365137,2286519.4240212,-5711.7167251363,3195328.1645941,12.151365136514,0,0
60.982152386836,-6.2755684451495,6.955795579558,2286519.4240212,-5711.7167251363,3195328.1645941,12.155795579558,0,0
60.982152628174,-6.2792425825294,6.9602260226023,2286519.4240212,-5711.7167251363,3195328.1645941,12.160226022602,0,0
60.982152869511,-6.2829167199093,6.9646564656466,2286519.4240212,-5711.7167251363,3195328.1645941,12.164656465647,0,0
60.982153110849,-6.2865908572891,6.9690869086909,2286519.4240212,-5711.7167251363,3195328.1645941,12.169086908691,0,0
60.982153352186,-6.290264994669,6.9735173517352,2286519.4240212,-5711.7167251363,3195328.1645941,12.173517351735,0,0
60.982153593524,-6.2939391320489,6.9779477947795,2286519.4240212,-5711.7167251363,3195328.1645941,12.177947794779,0,0
60.982153834861,-6.2976132694288,6.9823782378238,2286519.4240212,-5711.7167251363,3195328.1645941,12.182378237824,0,0
60.982154076199,-6.3012874068087,6.9868086808681,2286519.4240212,-5711.7167251363,3195328.1645941,12.186808680868,0,0
60.982154317536,-6.3049615441886,6.9912391239124,2286519.4240212,-5711.7167251363,3195328.1645941,12.191239123912,0,0
60.982154558873,-6.3086356815685,6.9956695669567,2286519.4240212,-5711.7167251363,3195328.1645941,12.195669566957,0,0
60.982154800211,-6.3123098189484,7.000100010001,2286519.4240212,-5711.7167251363,3195328.1645941,12.200100010001,0,0
60.982155041548,-6.3159839563282,7.0045304530453,2286519.4240212,-5711.7167251363,3195328.1645941,12.204530453045,0,0
60.982155282886,-6.3196580937081,7.0089608960896,2286519.4240212,-5711.7167251363,3195328.1645941,12.20896089609,0,0
60.982155524223,-6.323332231088,7.0133913391339,2286519.4240212,-5711.7167251363,3195328.1645941,12.213391339134,0,0
60.982155765561,-6.3270063684679,7.0178217821782,2286519.4240212,-5711.7167251363,3195328.1645941,12.217821782178,0,0
60.982156006898,-6.3306805058478,7.0222522252225,2286519.4240212,-5711.7167251363,3195328.1645941,12.222252225223,0,0
60.982156248236,-6.3343546432277,7.0266826682668,2286519.4240212,-5711.7167251363,3195328.1645941,12.226682668267,0,0
60.982156489573,-6.3380287806076,7.0311131113111,2286519.4240212,-5711.7167251363,3195328.1645941,12.231113111311,0,0
60.982156730911,-6.3417029179875,7.0355435543554,2286519.4240212,-5711.7167251363,3195328.1645941,12.235543554355,0,0
60.982156972248,-6.3453770553673,7.0399739973997,2286519.4240212,-5711.7167251363,3195328.1645941,12.2399739974,0,0
60.982157213586,-6.3490511927472,7.044404440444,2286519.4240212,-5711.7167251363,3195328.1645941,12.244404440444,0,0
60.982157454923,-6.3527253301271,7.0488348834883,2286519.4240212,-5711.7167251363,3195328.1645941,12.248834883488,0,0
60.982157696261,-6.356399467507,7.0532653265327,2286519.4240212,-5711.7167251363,3195328.1645941,12.253265326533,0,0
60.982157937598,-6.3600736048869,7.057695769577,2286519.4240212,-5711.7167251363,3195328.1645941,12.257695769577,0,0
60.982158178936,-6.3637477422668,7.0621262126213,2286519.4240212,-5711.7167251363,3195328.1645941,12.262126212621,0,0
60.982158420273,-6.3674218796467,7.0665566556656,2286519.4240212,-5711.7167251363,3195328.1645941,12.266556655666,0,0
60.98215866161,-6.3710960170266,7.0709870987099,2286519.4240212,-5711.7167251363,3195328.1645941,12.27098709871,0,0
60.982158902948,-6.3747701544065,7.0754175417542,2286519.4240212,-5711.7167251363,3195328.1645941,12.275417541754,0,0
60.982159144285,-6.3784442917863,7.0798479847985,2286519.4240212,-5711.7167251363,3195328.1645941,12.279847984798,0,0
60.982159385623,-6.3821184291662,7.0842784278428,2286519.4240212,-5711.7167251363,3195328.1645941,12.284278427843,0,0
60.98215962696,-6.3857925665461,7.0887088708871,2286519.4240212,-5711.7167251363,3195328.1645941,12.288708870887,0,0
60.982159868298,-6.389466703926,7.0931393139314,2286519.4240212,-5711.7167251363,3195328.1645941,12.293139313931,0,0
60.982160109635,-6.3931408413059,7.0975697569757,2286519.4240212,-5711.7167251363,3195328.1645941,12.297569756976,0,0
60.982160350973,-6.3968149786858,7.10200020002,2286519.4240212,-5711.7167251363,3195328.1645941,12.30200020002,0,0
60.98216059231,-6.4004891160657,7.1064306430643,2286519.4240212,-5711.7167251363,3195328.1645941,12.306430643064,0,0
60.982160833648,-6.4041632534456,7.1108610861086,2286519.4240212,-5711.7167251363,3195328.1645941,12.310861086109,0,0
60.982161074985,-6.4078373908254,7.1152915291529,2286519.4240212,-5711.7167251363,3195328.1645941,12.315291529153,0,0
60.982161316323,-6.4115115282053,7.1197219721972,2286519.4240212,-5711.7167251363,3195328.1645941,12.319721972197,0,0
60.98216155766,-6.4151856655852,7.1241524152415,2286519.4240212,-5711.7167251363,3195328.1645941,12.324152415242,0,0
60.982161798998,-6.4188598029651,7.1285828582858,2286519.4240212,-5711.7167251363,3195328.1645941,12.328582858286,0,0
60.982162040335,-6.422533940345,7.1330133013301,2286519.4240212,-5711.7167251363,3195328.1645941,12.33301330133,0,0
60.982162281673,-6.4262080777249,7.1374437443744,2286519.4240212,-5711.7167251363,3195328.1645941,12.337443744374,0,0
60.98216252301,-6.4298822151048,7.1418741874187,2286519.4240212,-5711.7167251363,3195328.1645941,12.341874187419,0,0
60.982162764348,-6.4335563524847,7.146304630463,2286519.4240212,-5711.7167251363,3195328.1645941,12.346304630463,0,0
60.982163005685,-6.4372304898645,7.1507350735073,2286519.4240212,-5711.7167251363,3195328.1645941,12.350735073507,0,0
60.982163247022,-6.4409046272444,7.1551655165517,2286519.4240212,-5711.7167251363,3195328.1645941,12.355165516552,0,0
60.98216348836,-6.4445787646243,7.159595959596,2286519.4240212,-5711.7167251363,3195328.1645941,12.359595959596,0,0
60.982163729697,-6.4482529020042,7.1640264026403,2286519.4240212,-5711.7167251363,3195328.1645941,12.36402640264,0,0
60.982163971035,-6.4519270393841,7.1684568456846,2286519.4240212,-5711.7167251363,3195328.1645941,12.368456845685,0,0
60.982164212372,-6.455601176764,7.1728872887289,2286519.4240212,-5711.7167251363,3195328.1645941,12.372887288729,0,0
60.98216445371,-6.4592753141439,7.1773177317732,2286519.4240212,-5711.7167251363,3195328.1645941,12.377317731773,0,0
60.982164695047,-6.4629494515238,7.1817481748175,2286519.4240212,-5711.7167251363,3195328.1645941,12.381748174817,0,0
60.982164936385,-6.4666235889036,7.1861786178618,2286519.4240212,-5711.7167251363,3195328.1645941,12.386178617862,0,0
60.982165177722,-6.4702977262835,7.1906090609061,2286519.4240212,-5711.7167251363,3195328.1645941,12.390609060906,0,0
60.98216541906,-6.4739718636634,7.1950395039504,2286519.4240212,-5711.7167251363,3195328.1645941,12.39503950395,0,0
60.982165660397,-6.4776460010433,7.1994699469947,2286519.4240212,-5711.7167251363,3195328.1645941,12.399469946995,0,0
60.982165901735,-6.4813201384232,7.203900390039,2286519.4240212,-5711.7167251363,3195328.1645941,12.403900390039,0,0
60.982166143072,-6.4849942758031,7.2083308330833,2286519.4240212,-5711.7167251363,3195328.1645941,12.408330833083,0,0
60.98216638441,-6.488668413183,7.2127612761276,2286519.4240212,-5711.7167251363,3195328.1645941,12.412761276128,0,0
60.982166625747,-6.4923425505629,7.2171917191719,2286519.4240212,-5711.7167251363,3195328.1645941,12.417191719172,0,0
60.982166867085,-6.4960166879427,7.2216221622162,2286519.4240212,-5711.7167251363,3195328.1645941,12.421622162216,0,0
60.982167108422,-6.4996908253226,7.2260526052605,2286519.4240212,-5711.7167251363,3195328.1645941,12.426052605261,0,0
60.982167349759,-6.5033649627025,7.2304830483048,2286519.4240212,-5711.7167251363,3195328.1645941,12.430483048305,0,0
60.982167591097,-6.5070391000824,7.2349134913491,2286519.4240212,-5711.7167251363,3195328.1645941,12.434913491349,0,0
60.982167832434,-6.5107132374623,7.2393439343934,2286519.4240212,-5711.7167251363,3195328.1645941,12.439343934393,0,0
60.982168073772,-6.5143873748422,7.2437743774377,2286519.4240212,-5711.7167251363,3195328.1645941,12.443774377438,0,0
60.982168315109,-6.5180615122221,7.248204820482,2286519.4240212,-5711.7167251363,3195328.1645941,12.448204820482,0,0
60.982168556447,-6.521735649602,7.2526352635264,2286519.4240212,-5711.7167251363,3195328.1645941,12.452635263526,0,0
60.982168797784,-6.5254097869818,7.2570657065707,2286519.4240212,-5711.7167251363,3195328.1645941,12.457065706571,0,0
60.982169039122,-6.5290839243617,7.261496149615,2286519.4240212,-5711.7167251363,3195328.1645941,12.461496149615,0,0
60.982169280459,-6.5327580617416,7.2659265926593,2286519.4240212,-5711.7167251363,3195328.1645941,12.465926592659,0,0
60.982169521797,-6.5364321991215,7.2703570357036,2286519.4240212,-5711.7167251363,3195328.1645941,12.470357035704,0,0
60.982169763134,-6.5401063365014,7.2747874787479,2286519.4240212,-5711.7167251363,3195328.1645941,12.474787478748,0,0
60.982170004472,-6.5437804738813,7.2792179217922,2286519.4240212,-5711.7167251363,3195328.1645941,12.479217921792,0,0
60.982170245809,-6.5474546112612,7.2836483648365,2286519.4240212,-5711.7167251363,3195328.1645941,12.483648364836,0,0
60.982170487147,-6.5511287486411,7.2880788078808,2286519.4240212,-5711.7167251363,3195328.1645941,12.488078807881,0,0
60.982170728484,-6.554802886021,7.2925092509251,2286519.4240212,-5711.7167251363,3195328.1645941,12.492509250925,0,0
60.982170969822,-6.5584770234008,7.2969396939694,2286519.4240212,-5711.7167251363,3195328.1645941,12.496939693969,0,0
60.982171211159,-6.5621511607807,7.3013701370137,2286519.4240212,-5711.7167251363,3195328.1645941,12.501370137014,0,0
60.982171452496,-6.5658252981606,7.305800580058,2286519.4240212,-5711.7167251363,3195328.1645941,12.505800580058,0,0
60.982171693834,-6.5694994355405,7.3102310231023,2286519.4240212,-5711.7167251363,3195328.1645941,12.510231023102,0,0
60.982171935171,-6.5731735729204,7.3146614661466,2286519.4240212,-5711.7167251363,3195328.1645941,12.514661466147,0,0
60.982172176509,-6.5768477103003,7.3190919091909,2286519.4240212,-5711.7167251363,3195328.1645941,12.519091909191,0,0
60.982172417846,-6.5805218476802,7.3235223522352,2286519.4240212,-5711.7167251363,3195328.1645941,12.523522352235,0,0
60.982172659184,-6.5841959850601,7.3279527952795,2286519.4240212,-5711.7167251363,3195328.1645941,12.52795279528,0,0
60.982172900521,-6.5878701224399,7.3323832383238,2286519.4240212,-5711.7167251363,3195328.1645941,12.532383238324,0,0
60.982173141859,-6.5915442598198,7.3368136813681,2286519.4240212,-5711.7167251363,3195328.1645941,12.536813681368,0,0
60.982173383196,-6.5952183971997,7.3412441244124,2286519.4240212,-5711.7167251363,3195328.1645941,12.541244124412,0,0
60.982173624534,-6.5988925345796,7.3456745674567,2286519.4240212,-5711.7167251363,3195328.1645941,12.545674567457,0,0
60.982173865871,-6.6025666719595,7.350105010501,2286519.4240212,-5711.7167251363,3195328.1645941,12.550105010501,0,0
60.982174107209,-6.6062408093394,7.3545354535454,2286519.4240212,-5711.7167251363,3195328.1645941,12.554535453545,0,0
60.982174348546,-6.6099149467193,7.3589658965897,2286519.4240212,-5711.7167251363,3195328.1645941,12.55896589659,0,0
60.982174589884,-6.6135890840992,7.363396339634,2286519.4240212,-5711.7167251363,3195328.1645941,12.563396339634,0,0
60.982174831221,-6.617263221479,7.3678267826783,2286519.4240212,-5711.7167251363,3195328.1645941,12.567826782678,0,0
60.982175072559,-6.6209373588589,7.3722572257226,2286519.4240212,-5711.7167251363,3195328.1645941,12.572257225723,0,0
60.982175313896,-6.6246114962388,7.3766876687669,2286519.4240212,-5711.7167251363,3195328.1645941,12.576687668767,0,0
60.982175555233,-6.6282856336187,7.3811181118112,2286519.4240212,-5711.7167251363,3195328.1645941,12.581118111811,0,0
60.982175796571,-6.6319597709986,7.3855485548555,2286519.4240212,-5711.7167251363,3195328.1645941,12.585548554855,0,0
60.982176037908,-6.6356339083785,7.3899789978998,2286519.4240212,-5711.7167251363,3195328.1645941,12.5899789979,0,0
60.982176279246,-6.6393080457584,7.3944094409441,2286519.4240212,-5711.7167251363,3195328.1645941,12.594409440944,0,0
60.982176521696,-6.6429821872188,7.3988398839884,2285787.3296361,-24731.34661715,3139165.5196459,12.598839883988,0,0
60.98217676447,-6.6466563298679,7.4032703270327,2285787.3296361,-24731.34661715,3139165.5196459,12.603270327033,0,0
60.982177007245,-6.650330472517,7.407700770077,2285787.3296361,-24731.34661715,3139165.5196459,12.607700770077,0,0
60.982177250019,-6.6540046151661,7.4121312131213,2285787.3296361,-24731.34661715,3139165.5196459,12.612131213121,0,0
60.982177492793,-6.6576787578152,7.4165616561656,2285787.3296361,-24731.34661715,3139165.5196459,12.616561656166,0,0
60.982177735568,-6.6613529004643,7.4209920992099,2285787.3296361,-24731.34661715,3139165.5196459,12.62099209921,0,0
60.982177978342,-6.6650270431134,7.4254225422542,2285787.3296361,-24731.34661715,3139165.5196459,12.625422542254,0,0
60.982178221116,-6.6687011857625,7.4298529852985,2285787.3296361,-24731.34661715,3139165.5196459,12.629852985299,0,0
60.982178463891,-6.6723753284116,7.4342834283428,2285787.3296361,-24731.34661715,3139165.5196459,12.634283428343,0,0
60.982178706665,-6.6760494710607,7.4387138713871,2285787.3296361,-24731.34661715,3139165.5196459,12.638713871387,0,0
60.98217894944,-6.6797236137098,7.4431443144314,2285787.3296361,-24731.34661715,3139165.5196459,12.643144314431,0,0
60.982179192214,-6.6833977563589,7.4475747574757,2285787.3296361,-24731.34661715,3139165.5196459,12.647574757476,0,0
60.982179434988,-6.687071899008,7.4520052005201,2285787.3296361,-24731.34661715,3139165.5196459,12.65200520052,0,0
60.982179677763,-6.6907460416571,7.4564356435644,2285787.3296361,-24731.34661715,3139165.5196459,12.656435643564,0,0
60.982179920537,-6.6944201843062,7.4608660866087,2285787.3296361,-24731.34661715,3139165.5196459,12.660866086609,0,0
60.982180163311,-6.6980943269553,7.465296529653,2285787.3296361,-24731.34661715,3139165.5196459,12.665296529653,0,0
60.982180406086,-6.7017684696044,7.4697269726973,2285787.3296361,-24731.34661715,3139165.5196459,12.669726972697,0,0
60.98218064886,-6.7054426122535,7.4741574157416,2285787.3296361,-24731.34661715,3139165.5196459,12.674157415742,0,0
60.982180891634,-6.7091167549026,7.4785878587859,2285787.3296361,-24731.34661715,3139165.5196459,12.678587858786,0,0
60.982181134409,-6.7127908975517,7.4830183018302,2285787.3296361,-24731.34661715,3139165.5196459,12.68301830183,0,0
60.982181377183,-6.7164650402008,7.4874487448745,2285787.3296361,-24731.34661715,3139165.5196459,12.687448744874,0,0
60.982181619957,-6.7201391828499,7.4918791879188,2285787.3296361,-24731.34661715,3139165.5196459,12.691879187919,0,0
60.982181862732,-6.723813325499,7.4963096309631,2285787.3296361,-24731.34661715,3139165.5196459,12.696309630963,0,0
60.982182105506,-6.7274874681481,7.5007400740074,2285787.3296361,-24731.34661715,3139165.5196459,12.700740074007,0,0
60.982182349607,-6.7311616093554,7.5051705170517,2336207.8137681,-12610.418416818,3126618.319773,12.705170517052,0,0
60.982182596743,-6.734835747265,7.509600960096,2336207.8137681,-12610.418416818,3126618.319773,12.709600960096,0,0
60.982182843879,-6.7385098851746,7.5140314031403,2336207.8137681,-12610.418416818,3126618.319773,12.71403140314,0,0
60.982183091014,-6.7421840230843,7.5184618461846,2336207.8137681,-12610.418416818,3126618.319773,12.718461846185,0,0
60.98218333815,-6.7458581609939,7.5228922892289,2336207.8137681,-12610.418416818,3126618.319773,12.722892289229,0,0
60.982183585286,-6.7495322989036,7.5273227322732,2336207.8137681,-12610.418416818,3126618.319773,12.727322732273,0,0
60.982183832422,-6.7532064368132,7.5317531753175,2336207.8137681,-12610.418416818,3126618.319773,12.731753175318,0,0
60.982184079558,-6.7568805747229,7.5361836183618,2336207.8137681,-12610.418416818,3126618.319773,12.736183618362,0,0
60.982184326693,-6.7605547126325,7.5406140614061,2336207.8137681,-12610.418416818,3126618.319773,12.740614061406,0,0
60.982184573829,-6.7642288505421,7.5450445044504,2336207.8137681,-12610.418416818,3126618.319773,12.74504450445,0,0
60.982184820965,-6.7679029884518,7.5494749474947,2336207.8137681,-12610.418416818,3126618.319773,12.749474947495,0,0
60.982185068101,-6.7715771263614,7.5539053905391,2336207.8137681,-12610.418416818,3126618.319773,12.753905390539,0,0
60.982185315237,-6.7752512642711,7.5583358335834,2336207.8137681,-12610.418416818,3126618.319773,12.758335833583,0,0
60.982185562372,-6.7789254021807,7.5627662766277,2336207.8137681,-12610.418416818,3126618.319773,12.762766276628,0,0
60.982185809508,-6.7825995400904,7.567196719672,2336207.8137681,-12610.418416818,3126618.319773,12.767196719672,0,0
60.982186056644,-6.786273678,7.5716271627163,2336207.8137681,-12610.418416818,3126618.319773,12.771627162716,0,0
60.98218630378,-6.7899478159096,7.5760576057606,2336207.8137681,-12610.418416818,3126618.319773,12.776057605761,0,0
60.982186550915,-6.7936219538193,7.5804880488049,2336207.8137681,-12610.418416818,3126618.319773,12.780488048805,0,0
60.982186798051,-6.7972960917289,7.5849184918492,2336207.8137681,-12610.418416818,3126618.319773,12.784918491849,0,0
60.982187045187,-6.8009702296386,7.5893489348935,2336207.8137681,-12610.418416818,3126618.319773,12.789348934893,0,0
60.982187292323,-6.8046443675482,7.5937793779378,2336207.8137681,-12610.418416818,3126618.319773,12.793779377938,0,0
60.982187539459,-6.8083185054579,7.5982098209821,2336207.8137681,-12610.418416818,3126618.319773,12.798209820982,0,0
60.982187786594,-6.8119926433675,7.6026402640264,2336207.8137681,-12610.418416818,3126618.319773,12.802640264026,0,0
60.98218803373,-6.8156667812771,7.6070707070707,2336207.8137681,-12610.418416818,3126618.319773,12.807070707071,0,0
60.982188280866,-6.8193409191868,7.611501150115,2336207.8137681,-12610.418416818,3126618.319773,12.811501150115,0,0
60.982188528002,-6.8230150570964,7.6159315931593,2336207.8137681,-12610.418416818,3126618.319773,12.815931593159,0,0
60.982188775138,-6.8266891950061,7.6203620362036,2336207.8137681,-12610.418416818,3126618.319773,12.820362036204,0,0
60.982189022273,-6.8303633329157,7.6247924792479,2336207.8137681,-12610.418416818,3126618.319773,12.824792479248,0,0
60.982189269409,-6.8340374708254,7.6292229222922,2336207.8137681,-12610.418416818,3126618.319773,12.829222922292,0,0
60.982189516545,-6.837711608735,7.6336533653365,2336207.8137681,-12610.418416818,3126618.319773,12.833653365337,0,0
60.982189763681,-6.8413857466446,7.6380838083808,2336207.8137681,-12610.418416818,3126618.319773,12.838083808381,0,0
60.982190010816,-6.8450598845543,7.6425142514251,2336207.8137681,-12610.418416818,3126618.319773,12.842514251425,0,0
60.982190257952,-6.8487340224639,7.6469446944694,2336207.8137681,-12610.418416818,3126618.319773,12.846944694469,0,0
60.982190505088,-6.8524081603736,7.6513751375138,2336207.8137681,-12610.418416818,3126618.319773,12.851375137514,0,0
60.982190752224,-6.8560822982832,7.6558055805581,2336207.8137681,-12610.418416818,3126618.319773,12.855805580558,0,0
60.98219099936,-6.8597564361928,7.6602360236024,2336207.8137681,-12610.418416818,3126618.319773,12.860236023602,0,0
60.982191246495,-6.8634305741025,7.6646664666467,2336207.8137681,-12610.418416818,3126618.319773,12.864666466647,0,0
60.982191493631,-6.8671047120121,7.669096909691,2336207.8137681,-12610.418416818,3126618.319773,12.869096909691,0,0
60.982191740767,-6.8707788499218,7.6735273527353,2336207.8137681,-12610.418416818,3126618.319773,12.873527352735,0,0
60.982191987903,-6.8744529878314,7.6779577957796,2336207.8137681,-12610.418416818,3126618.319773,12.87795779578,0,0
60.982192235039,-6.8781271257411,7.6823882388239,2336207.8137681,-12610.418416818,3126618.319773,12.882388238824,0,0
60.982192482174,-6.8818012636507,7.6868186818682,2336207.8137681,-12610.418416818,3126618.319773,12.886818681868,0,0
60.98219272931,-6.8854754015603,7.6912491249125,2336207.8137681,-12610.418416818,3126618.319773,12.891249124912,0,0
60.982192976446,-6.88914953947,7.6956795679568,2336207.8137681,-12610.418416818,3126618.319773,12.895679567957,0,0
60.982193223582,-6.8928236773796,7.7001100110011,2336207.8137681,-12610.418416818,3126618.319773,12.900110011001,0,0
60.982193470718,-6.8964978152893,7.7045404540454,2336207.8137681,-12610.418416818,3126618.319773,12.904540454045,0,0
60.982193717853,-6.9001719531989,7.7089708970897,2336207.8137681,-12610.418416818,3126618.319773,12.90897089709,0,0
60.982193964989,-6.9038460911086,7.713401340134,2336207.8137681,-12610.418416818,3126618.319773,12.913401340134,0,0
60.982194212125,-6.9075202290182,7.7178317831783,2336207.8137681,-12610.418416818,3126618.319773,12.917831783178,0,0
60.982194459261,-6.9111943669278,7.7222622262226,2336207.8137681,-12610.418416818,3126618.319773,12.922262226223,0,0
60.982194706396,-6.9148685048375,7.7266926692669,2336207.8137681,-12610.418416818,3126618.319773,12.926692669267,0,0
60.982194953532,-6.9185426427471,7.7311231123112,2336207.8137681,-12610.418416818,3126618.319773,12.931123112311,0,0
60.982195200668,-6.9222167806568,7.7355535553555,2336207.8137681,-12610.418416818,3126618.319773,12.935553555356,0,0
60.982195447804,-6.9258909185664,7.7399839983998,2336207.8137681,-12610.418416818,3126618.319773,12.9399839984,0,0
60.98219569494,-6.9295650564761,7.7444144414441,2336207.8137681,-12610.418416818,3126618.319773,12.944414441444,0,0
60.982195942075,-6.9332391943857,7.7488448844884,2336207.8137681,-12610.418416818,3126618.319773,12.948844884488,0,0
60.982196189211,-6.9369133322953,7.7532753275328,2336207.8137681,-12610.418416818,3126618.319773,12.953275327533,0,0
60.982196436347,-6.940587470205,7.7577057705771,2336207.8137681,-12610.418416818,3126618.319773,12.957705770577,0,0
60.982196683483,-6.9442616081146,7.7621362136214,2336207.8137681,-12610.418416818,3126618.319773,12.962136213621,0,0
60.982196930619,-6.9479357460243,7.7665666566657,2336207.8137681,-12610.418416818,3126618.319773,12.966566656666,0,0
60.982197177754,-6.9516098839339,7.77099709971,2336207.8137681,-12610.418416818,3126618.319773,12.97099709971,0,0
60.98219742489,-6.9552840218436,7.7754275427543,2336207.8137681,-12610.418416818,3126618.319773,12.975427542754,0,0
60.982197672026,-6.9589581597532,7.7798579857986,2336207.8137681,-12610.418416818,3126618.319773,12.979857985799,0,0
60.982197919162,-6.9626322976628,7.7842884288429,2336207.8137681,-12610.418416818,3126618.319773,12.984288428843,0,0
60.982198166297,-6.9663064355725,7.7887188718872,2336207.8137681,-12610.418416818,3126618.319773,12.988718871887,0,0
60.982198413433,-6.9699805734821,7.7931493149315,2336207.8137681,-12610.418416818,3126618.319773,12.993149314931,0,0
60.982198660569,-6.9736547113918,7.7975797579758,2336207.8137681,-12610.418416818,3126618.319773,12.997579757976,0,0
60.982198907705,-6.9773288493014,7.8020102010201,2336207.8137681,-12610.418416818,3126618.319773,13.00201020102,0,0
60.982199154841,-6.9810029872111,7.8064406440644,2336207.8137681,-12610.418416818,3126618.319773,13.006440644064,0,0
60.982199401976,-6.9846771251207,7.8108710871087,2336207.8137681,-12610.418416818,3126618.319773,13.010871087109,0,0
60.982199649112,-6.9883512630303,7.815301530153,2336207.8137681,-12610.418416818,3126618.319773,13.015301530153,0,0
60.982199896248,-6.99202540094,7.8197319731973,2336207.8137681,-12610.418416818,3126618.319773,13.019731973197,0,0
60.982200143384,-6.9956995388496,7.8241624162416,2336207.8137681,-12610.418416818,3126618.319773,13.024162416242,0,0
60.98220039052,-6.9993736767593,7.8285928592859,2336207.8137681,-12610.418416818,3126618.319773,13.028592859286,0,0
60.982200637655,-7.0030478146689,7.8330233023302,2336207.8137681,-12610.418416818,3126618.319773,13.03302330233,0,0
60.982200884791,-7.0067219525786,7.8374537453745,2336207.8137681,-12610.418416818,3126618.319773,13.037453745375,0,0
60.982201131927,-7.0103960904882,7.8418841884188,2336207.8137681,-12610.418416818,3126618.319773,13.041884188419,0,0
60.982201379063,-7.0140702283978,7.8463146314631,2336207.8137681,-12610.418416818,3126618.319773,13.046314631463,0,0
60.982201626199,-7.0177443663075,7.8507450745074,2336207.8137681,-12610.418416818,3126618.319773,13.050745074507,0,0
60.982201873334,-7.0214185042171,7.8551755175518,2336207.8137681,-12610.418416818,3126618.319773,13.055175517552,0,0
60.98220212047,-7.0250926421268,7.8596059605961,2336207.8137681,-12610.418416818,3126618.319773,13.059605960596,0,0
60.982202367606,-7.0287667800364,7.8640364036404,2336207.8137681,-12610.418416818,3126618.319773,13.06403640364,0,0
60.982202614742,-7.0324409179461,7.8684668466847,2336207.8137681,-12610.418416818,3126618.319773,13.068466846685,0,0
60.982202861877,-7.0361150558557,7.872897289729,2336207.8137681,-12610.418416818,3126618.319773,13.072897289729,0,0
60.982203109013,-7.0397891937653,7.8773277327733,2336207.8137681,-12610.418416818,3126618.319773,13.077327732773,0,0
60.982203356149,-7.043463331675,7.8817581758176,2336207.8137681,-12610.418416818,3126618.319773,13.081758175818,0,0
60.982203603285,-7.0471374695846,7.8861886188619,2336207.8137681,-12610.418416818,3126618.319773,13.086188618862,0,0
60.982203850421,-7.0508116074943,7.8906190619062,2336207.8137681,-12610.418416818,3126618.319773,13.090619061906,0,0
60.982204097556,-7.0544857454039,7.8950495049505,2336207.8137681,-12610.418416818,3126618.319773,13.09504950495,0,0
60.982204344692,-7.0581598833136,7.8994799479948,2336207.8137681,-12610.418416818,3126618.319773,13.099479947995,0,0
60.982204591828,-7.0618340212232,7.9039103910391,2336207.8137681,-12610.418416818,3126618.319773,13.103910391039,0,0
60.982204838964,-7.0655081591328,7.9083408340834,2336207.8137681,-12610.418416818,3126618.319773,13.108340834083,0,0
60.9822050861,-7.0691822970425,7.9127712771277,2336207.8137681,-12610.418416818,3126618.319773,13.112771277128,0,0
60.982205333235,-7.0728564349521,7.917201720172,2336207.8137681,-12610.418416818,3126618.319773,13.117201720172,0,0
60.982205580371,-7.0765305728618,7.9216321632163,2336207.8137681,-12610.418416818,3126618.319773,13.121632163216,0,0
60.982205827507,-7.0802047107714,7.9260626062606,2336207.8137681,-12610.418416818,3126618.319773,13.126062606261,0,0
60.982206074643,-7.0838788486811,7.9304930493049,2336207.8137681,-12610.418416818,3126618.319773,13.130493049305,0,0
60.982206321778,-7.0875529865907,7.9349234923492,2336207.8137681,-12610.418416818,3126618.319773,13.134923492349,0,0
60.982206568914,-7.0912271245003,7.9393539353935,2336207.8137681,-12610.418416818,3126618.319773,13.139353935394,0,0
60.98220681605,-7.09490126241,7.9437843784378,2336207.8137681,-12610.418416818,3126618.319773,13.143784378438,0,0
60.982207063186,-7.0985754003196,7.9482148214821,2336207.8137681,-12610.418416818,3126618.319773,13.148214821482,0,0
60.982207310322,-7.1022495382293,7.9526452645265,2336207.8137681,-12610.418416818,3126618.319773,13.152645264526,0,0
60.982207557457,-7.1059236761389,7.9570757075708,2336207.8137681,-12610.418416818,3126618.319773,13.157075707571,0,0
60.982207804593,-7.1095978140486,7.9615061506151,2336207.8137681,-12610.418416818,3126618.319773,13.161506150615,0,0
60.982208051729,-7.1132719519582,7.9659365936594,2336207.8137681,-12610.418416818,3126618.319773,13.165936593659,0,0
60.982208298865,-7.1169460898678,7.9703670367037,2336207.8137681,-12610.418416818,3126618.319773,13.170367036704,0,0
60.982208546001,-7.1206202277775,7.974797479748,2336207.8137681,-12610.418416818,3126618.319773,13.174797479748,0,0
60.982208793136,-7.1242943656871,7.9792279227923,2336207.8137681,-12610.418416818,3126618.319773,13.179227922792,0,0
60.982209040272,-7.1279685035968,7.9836583658366,2336207.8137681,-12610.418416818,3126618.319773,13.183658365837,0,0
60.982209287408,-7.1316426415064,7.9880888088809,2336207.8137681,-12610.418416818,3126618.319773,13.188088808881,0,0
60.982209534544,-7.1353167794161,7.9925192519252,2336207.8137681,-12610.418416818,3126618.319773,13.192519251925,0,0
60.98220978168,-7.1389909173257,7.9969496949695,2336207.8137681,-12610.418416818,3126618.319773,13.196949694969,0,0
60.982210028815,-7.1426650552353,8.0013801380138,2336207.8137681,-12610.418416818,3126618.319773,13.201380138014,0,0
60.982210275951,-7.146339193145,8.0058105810581,2336207.8137681,-12610.418416818,3126618.319773,13.205810581058,0,0
60.982210523087,-7.1500133310546,8.0102410241024,2336207.8137681,-12610.418416818,3126618.319773,13.210241024102,0,0
60.982210770223,-7.1536874689643,8.0146714671467,2336207.8137681,-12610.418416818,3126618.319773,13.214671467147,0,0
60.982211017358,-7.1573616068739,8.019101910191,2336207.8137681,-12610.418416818,3126618.319773,13.219101910191,0,0
60.982211264494,-7.1610357447836,8.0235323532353,2336207.8137681,-12610.418416818,3126618.319773,13.223532353235,0,0
60.98221151163,-7.1647098826932,8.0279627962796,2336207.8137681,-12610.418416818,3126618.319773,13.22796279628,0,0
60.982211758766,-7.1683840206028,8.0323932393239,2336207.8137681,-12610.418416818,3126618.319773,13.232393239324,0,0
60.982212005902,-7.1720581585125,8.0368236823682,2336207.8137681,-12610.418416818,3126618.319773,13.236823682368,0,0
60.982212253037,-7.1757322964221,8.0412541254125,2336207.8137681,-12610.418416818,3126618.319773,13.241254125413,0,0
60.982212500173,-7.1794064343318,8.0456845684568,2336207.8137681,-12610.418416818,3126618.319773,13.245684568457,0,0
60.982212747309,-7.1830805722414,8.0501150115011,2336207.8137681,-12610.418416818,3126618.319773,13.250115011501,0,0
60.982212994445,-7.1867547101511,8.0545454545455,2336207.8137681,-12610.418416818,3126618.319773,13.254545454545,0,0
60.982213241581,-7.1904288480607,8.0589758975898,2336207.8137681,-12610.418416818,3126618.319773,13.25897589759,0,0
60.982213488716,-7.1941029859703,8.0634063406341,2336207.8137681,-12610.418416818,3126618.319773,13.263406340634,0,0
60.982213735852,-7.19777712388,8.0678367836784,2336207.8137681,-12610.418416818,3126618.319773,13.267836783678,0,0
60.982213982988,-7.2014512617896,8.0722672267227,2336207.8137681,-12610.418416818,3126618.319773,13.272267226723,0,0
60.982214230124,-7.2051253996993,8.076697669767,2336207.8137681,-12610.418416818,3126618.319773,13.276697669767,0,0
60.982214477259,-7.2087995376089,8.0811281128113,2336207.8137681,-12610.418416818,3126618.319773,13.281128112811,0,0
60.982214724395,-7.2124736755186,8.0855585558556,2336207.8137681,-12610.418416818,3126618.319773,13.285558555856,0,0
60.982214971531,-7.2161478134282,8.0899889988999,2336207.8137681,-12610.418416818,3126618.319773,13.2899889989,0,0
60.982215218667,-7.2198219513378,8.0944194419442,2336207.8137681,-12610.418416818,3126618.319773,13.294419441944,0,0
60.982215465803,-7.2234960892475,8.0988498849885,2336207.8137681,-12610.418416818,3126618.3197731,13.298849884988,0,0
60.982215712938,-7.2271702271571,8.1032803280328,2336207.8137681,-12610.418416818,3126618.3197731,13.303280328033,0,0
60.982215960074,-7.2308443650668,8.1077107710771,2336207.8137681,-12610.418416818,3126618.3197731,13.307710771077,0,0
60.98221620721,-7.2345185029764,8.1121412141214,2336207.8137681,-12610.418416818,3126618.3197731,13.312141214121,0,0
60.982216454346,-7.2381926408861,8.1165716571657,2336207.8137681,-12610.418416818,3126618.3197731,13.316571657166,0,0
60.982216701482,-7.2418667787957,8.12100210021,2336207.8137681,-12610.418416818,3126618.3197731,13.32100210021,0,0
60.982216948617,-7.2455409167053,8.1254325432543,2336207.8137681,-12610.418416818,3126618.3197731,13.325432543254,0,0
60.982217195753,-7.249215054615,8.1298629862986,2336207.8137681,-12610.418416818,3126618.3197731,13.329862986299,0,0
60.982217442889,-7.2528891925246,8.1342934293429,2336207.8137681,-12610.418416818,3126618.3197731,13.334293429343,0,0
60.982217690025,-7.2565633304343,8.1387238723872,2336207.8137681,-12610.418416818,3126618.3197731,13.338723872387,0,0
60.98221793716,-7.2602374683439,8.1431543154315,2336207.8137681,-12610.418416818,3126618.3197731,13.343154315432,0,0
60.982218184296,-7.2639116062536,8.1475847584758,2336207.8137681,-12610.418416818,3126618.3197731,13.347584758476,0,0
60.982218431432,-7.2675857441632,8.1520152015202,2336207.8137681,-12610.418416818,3126618.3197731,13.35201520152,0,0
60.982218678568,-7.2712598820728,8.1564456445645,2336207.8137681,-12610.418416818,3126618.3197731,13.356445644564,0,0
60.982218925704,-7.2749340199825,8.1608760876088,2336207.8137681,-12610.418416818,3126618.3197731,13.360876087609,0,0
60.982219172839,-7.2786081578921,8.1653065306531,2336207.8137681,-12610.418416818,3126618.3197731,13.365306530653,0,0
60.982219419975,-7.2822822958018,8.1697369736974,2336207.8137681,-12610.418416818,3126618.3197731,13.369736973697,0,0
60.982219667111,-7.2859564337114,8.1741674167417,2336207.8137681,-12610.418416818,3126618.3197731,13.374167416742,0,0
60.982219914247,-7.2896305716211,8.178597859786,2336207.8137681,-12610.418416818,3126618.3197731,13.378597859786,0,0
60.982220161383,-7.2933047095307,8.1830283028303,2336207.8137681,-12610.418416818,3126618.3197731,13.38302830283,0,0
60.982220408518,-7.2969788474403,8.1874587458746,2336207.8137681,-12610.418416818,3126618.3197731,13.387458745875,0,0
60.982220655654,-7.30065298535,8.1918891889189,2336207.8137681,-12610.418416818,3126618.3197731,13.391889188919,0,0
60.98222090279,-7.3043271232596,8.1963196319632,2336207.8137681,-12610.418416818,3126618.3197731,13.396319631963,0,0
60.982221149926,-7.3080012611693,8.2007500750075,2336207.8137681,-12610.418416818,3126618.3197731,13.400750075008,0,0
60.982221397062,-7.3116753990789,8.2051805180518,2336207.8137681,-12610.418416818,3126618.3197731,13.405180518052,0,0
60.982221644197,-7.3153495369886,8.2096109610961,2336207.8137681,-12610.418416818,3126618.3197731,13.409610961096,0,0
60.982221891333,-7.3190236748982,8.2140414041404,2336207.8137681,-12610.418416818,3126618.3197731,13.41404140414,0,0
60.982222138469,-7.3226978128078,8.2184718471847,2336207.8137681,-12610.418416818,3126618.3197731,13.418471847185,0,0
60.982222385605,-7.3263719507175,8.222902290229,2336207.8137681,-12610.418416818,3126618.3197731,13.422902290229,0,0
60.98222263274,-7.3300460886271,8.2273327332733,2336207.8137681,-12610.418416818,3126618.3197731,13.427332733273,0,0
60.982222879876,-7.3337202265368,8.2317631763176,2336207.8137681,-12610.418416818,3126618.3197731,13.431763176318,0,0
60.982223127012,-7.3373943644464,8.2361936193619,2336207.8137681,-12610.418416818,3126618.3197731,13.436193619362,0,0
60.982223374148,-7.3410685023561,8.2406240624062,2336207.8137681,-12610.418416818,3126618.3197731,13.440624062406,0,0
60.982223621284,-7.3447426402657,8.2450545054505,2336207.8137681,-12610.418416818,3126618.3197731,13.445054505451,0,0
60.982223868419,-7.3484167781753,8.2494849484948,2336207.8137681,-12610.418416818,3126618.3197731,13.449484948495,0,0
60.982224115555,-7.352090916085,8.2539153915392,2336207.8137681,-12610.418416818,3126618.3197731,13.453915391539,0,0
60.982224362691,-7.3557650539946,8.2583458345835,2336207.8137681,-12610.418416818,3126618.3197731,13.458345834583,0,0
60.982224609827,-7.3594391919043,8.2627762776278,2336207.8137681,-12610.418416818,3126618.3197731,13.462776277628,0,0
60.982224856963,-7.3631133298139,8.2672067206721,2336207.8137681,-12610.418416818,3126618.3197731,13.467206720672,0,0
60.982225104098,-7.3667874677236,8.2716371637164,2336207.8137681,-12610.418416818,3126618.3197731,13.471637163716,0,0
60.982225351234,-7.3704616056332,8.2760676067607,2336207.8137681,-12610.418416818,3126618.3197731,13.476067606761,0,0
60.98222559837,-7.3741357435428,8.280498049805,2336207.8137681,-12610.418416818,3126618.3197731,13.480498049805,0,0
60.982225845506,-7.3778098814525,8.2849284928493,2336207.8137681,-12610.418416818,3126618.3197731,13.484928492849,0,0
60.982226092641,-7.3814840193621,8.2893589358936,2336207.8137681,-12610.418416818,3126618.3197731,13.489358935894,0,0
60.982226339777,-7.3851581572718,8.2937893789379,2336207.8137681,-12610.418416818,3126618.3197731,13.493789378938,0,0
60.982226586913,-7.3888322951814,8.2982198219822,2336207.8137681,-12610.418416818,3126618.3197731,13.498219821982,0,0
60.982226834049,-7.3925064330911,8.3026502650265,2336207.8137681,-12610.418416818,3126618.3197731,13.502650265027,0,0
60.982227081185,-7.3961805710007,8.3070807080708,2336207.8137681,-12610.418416818,3126618.3197731,13.507080708071,0,0
60.98222732832,-7.3998547089103,8.3115111511151,2336207.8137681,-12610.418416818,3126618.3197731,13.511511151115,0,0
60.982227575456,-7.40352884682,8.3159415941594,2336207.8137681,-12610.418416818,3126618.3197731,13.515941594159,0,0
60.982227822592,-7.4072029847296,8.3203720372037,2336207.8137681,-12610.418416818,3126618.3197731,13.520372037204,0,0
60.982228069728,-7.4108771226393,8.324802480248,2336207.8137681,-12610.418416818,3126618.3197731,13.524802480248,0,0
60.982228316864,-7.4145512605489,8.3292329232923,2336207.8137681,-12610.418416818,3126618.3197731,13.529232923292,0,0
60.982228563999,-7.4182253984586,8.3336633663366,2336207.8137681,-12610.418416818,3126618.3197731,13.533663366337,0,0
60.982228811135,-7.4218995363682,8.3380938093809,2336207.8137681,-12610.418416818,3126618.3197731,13.538093809381,0,0
60.982229059674,-7.4255736772369,8.3425242524252,2353135.4745686,-28025.035900419,3091216.5859733,13.542524252425,0,0
60.982229309105,-7.4292478199848,8.3469546954695,2353135.4745686,-28025.035900419,3091216.5859733,13.54695469547,0,0
60.982229559001,-7.4329219620513,8.3513851385139,2384575.4058074,-14662.493007071,3074829.3661732,13.551385138514,0,0
60.982229811379,-7.4365961004863,8.3558155815582,2384575.4058074,-14662.493007071,3074829.3661732,13.555815581558,0,0
60.982230063757,-7.4402702389213,8.3602460246025,2384575.4058074,-14662.493007071,3074829.3661732,13.560246024602,0,0
60.982230316135,-7.4439443773562,8.3646764676468,2384575.4058074,-14662.493007071,3074829.3661732,13.564676467647,0,0
60.982230568513,-7.4476185157912,8.3691069106911,2384575.4058074,-14662.493007071,3074829.3661732,13.569106910691,0,0
60.982230820891,-7.4512926542262,8.3735373537354,2384575.4058074,-14662.493007071,3074829.3661732,13.573537353735,0,0
60.982231073269,-7.4549667926611,8.3779677967797,2384575.4058074,-14662.493007071,3074829.3661732,13.57796779678,0,0
60.982231325648,-7.4586409310961,8.382398239824,2384575.4058074,-14662.493007071,3074829.3661732,13.582398239824,0,0
60.982231578026,-7.4623150695311,8.3868286828683,2384575.4058074,-14662.493007071,3074829.3661732,13.586828682868,0,0
60.982231830404,-7.465989207966,8.3912591259126,2384575.4058074,-14662.493007071,3074829.3661732,13.591259125913,0,0
60.982232082782,-7.469663346401,8.3956895689569,2384575.4058074,-14662.493007071,3074829.3661732,13.595689568957,0,0
60.98223233516,-7.473337484836,8.4001200120012,2384575.4058074,-14662.493007071,3074829.3661732,13.600120012001,0,0
60.982232587538,-7.4770116232709,8.4045504550455,2384575.4058074,-14662.493007071,3074829.3661732,13.604550455046,0,0
60.982232839916,-7.4806857617059,8.4089808980898,2384575.4058074,-14662.493007071,3074829.3661732,13.60898089809,0,0
60.982233092294,-7.4843599001409,8.4134113411341,2384575.4058074,-14662.493007071,3074829.3661732,13.613411341134,0,0
60.982233344672,-7.4880340385758,8.4178417841784,2384575.4058074,-14662.493007071,3074829.3661732,13.617841784178,0,0
60.98223359705,-7.4917081770108,8.4222722272227,2384575.4058074,-14662.493007071,3074829.3661732,13.622272227223,0,0
60.982233849428,-7.4953823154458,8.426702670267,2384575.4058074,-14662.493007071,3074829.3661732,13.626702670267,0,0
60.982234101806,-7.4990564538807,8.4311331133113,2384575.4058074,-14662.493007071,3074829.3661732,13.631133113311,0,0
60.982234354184,-7.5027305923157,8.4355635563556,2384575.4058074,-14662.493007071,3074829.3661732,13.635563556356,0,0
60.982234606563,-7.5064047307507,8.4399939993999,2384575.4058074,-14662.493007071,3074829.3661732,13.6399939994,0,0
60.982234858941,-7.5100788691856,8.4444244424442,2384575.4058074,-14662.493007071,3074829.3661732,13.644424442444,0,0
60.982235111319,-7.5137530076206,8.4488548854885,2384575.4058074,-14662.493007071,3074829.3661732,13.648854885489,0,0
60.982235363697,-7.5174271460556,8.4532853285329,2384575.4058074,-14662.493007071,3074829.3661732,13.653285328533,0,0
60.982235616075,-7.5211012844905,8.4577157715772,2384575.4058074,-14662.493007071,3074829.3661732,13.657715771577,0,0
60.982235868453,-7.5247754229255,8.4621462146215,2384575.4058074,-14662.493007071,3074829.3661732,13.662146214621,0,0
60.982236120831,-7.5284495613605,8.4665766576658,2384575.4058074,-14662.493007071,3074829.3661732,13.666576657666,0,0
60.982236373209,-7.5321236997954,8.4710071007101,2384575.4058074,-14662.493007071,3074829.3661732,13.67100710071,0,0
60.982236625587,-7.5357978382304,8.4754375437544,2384575.4058074,-14662.493007071,3074829.3661732,13.675437543754,0,0
60.982236877965,-7.5394719766654,8.4798679867987,2384575.4058074,-14662.493007071,3074829.3661732,13.679867986799,0,0
60.982237130343,-7.5431461151003,8.484298429843,2384575.4058074,-14662.493007071,3074829.3661732,13.684298429843,0,0
60.982237382721,-7.5468202535353,8.4887288728873,2384575.4058074,-14662.493007071,3074829.3661732,13.688728872887,0,0
60.982237635044,-7.5504943919628,8.4931593159316,2375891.6923982,12310.101166031,3062296.7254886,13.693159315932,0,0
60.982237887063,-7.5541685303491,8.4975897589759,2375891.6923982,12310.101166031,3062296.7254886,13.697589758976,0,0
60.982238139081,-7.5578426687355,8.5020202020202,2375891.6923982,12310.101166031,3062296.7254886,13.70202020202,0,0
60.982238391099,-7.5615168071218,8.5064506450645,2375891.6923982,12310.101166031,3062296.7254886,13.706450645065,0,0
60.982238643117,-7.5651909455081,8.5108810881088,2375891.6923982,12310.101166031,3062296.7254886,13.710881088109,0,0
60.982238895135,-7.5688650838944,8.5153115311531,2375891.6923982,12310.101166031,3062296.7254886,13.715311531153,0,0
60.982239147153,-7.5725392222808,8.5197419741974,2375891.6923982,12310.101166031,3062296.7254886,13.719741974197,0,0
60.982239399171,-7.5762133606671,8.5241724172417,2375891.6923982,12310.101166031,3062296.7254886,13.724172417242,0,0
60.98223965119,-7.5798874990534,8.528602860286,2375891.6923982,12310.101166031,3062296.7254886,13.728602860286,0,0
60.982239903208,-7.5835616374397,8.5330333033303,2375891.6923982,12310.101166031,3062296.7254886,13.73303330333,0,0
60.982240155226,-7.5872357758261,8.5374637463746,2375891.6923982,12310.101166031,3062296.7254886,13.737463746375,0,0
60.982240407244,-7.5909099142124,8.5418941894189,2375891.6923982,12310.101166031,3062296.7254886,13.741894189419,0,0
60.982240659262,-7.5945840525987,8.5463246324632,2375891.6923982,12310.101166031,3062296.7254886,13.746324632463,0,0
60.98224091128,-7.598258190985,8.5507550755075,2375891.6923982,12310.101166031,3062296.7254886,13.750755075508,0,0
60.982241163298,-7.6019323293714,8.5551855185519,2375891.6923982,12310.101166031,3062296.7254886,13.755185518552,0,0
60.982241415317,-7.6056064677577,8.5596159615962,2375891.6923982,12310.101166031,3062296.7254886,13.759615961596,0,0
60.982241667335,-7.609280606144,8.5640464046405,2375891.6923982,12310.101166031,3062296.7254886,13.76404640464,0,0
60.982241919353,-7.6129547445303,8.5684768476848,2375891.6923982,12310.101166031,3062296.7254886,13.768476847685,0,0
60.982242171371,-7.6166288829166,8.5729072907291,2375891.6923982,12310.101166031,3062296.7254886,13.772907290729,0,0
60.982242423389,-7.620303021303,8.5773377337734,2375891.6923982,12310.101166031,3062296.7254886,13.777337733773,0,0
60.982242675407,-7.6239771596893,8.5817681768177,2375891.6923982,12310.101166031,3062296.7254886,13.781768176818,0,0
60.982242927426,-7.6276512980756,8.586198619862,2375891.6923982,12310.101166031,3062296.7254886,13.786198619862,0,0
60.982243179444,-7.6313254364619,8.5906290629063,2375891.6923982,12310.101166031,3062296.7254886,13.790629062906,0,0
60.982243431462,-7.6349995748483,8.5950595059506,2375891.6923982,12310.101166031,3062296.7254886,13.795059505951,0,0
60.98224368348,-7.6386737132346,8.5994899489949,2375891.6923982,12310.101166031,3062296.7254886,13.799489948995,0,0
60.982243935498,-7.6423478516209,8.6039203920392,2375891.6923982,12310.101166031,3062296.7254886,13.803920392039,0,0
60.982244187516,-7.6460219900072,8.6083508350835,2375891.6923982,12310.101166031,3062296.7254886,13.808350835084,0,0
60.982244439534,-7.6496961283936,8.6127812781278,2375891.6923982,12310.101166031,3062296.7254886,13.812781278128,0,0
60.982244691553,-7.6533702667799,8.6172117211721,2375891.6923982,12310.101166031,3062296.7254886,13.817211721172,0,0
60.982244943571,-7.6570444051662,8.6216421642164,2375891.6923982,12310.101166031,3062296.7254886,13.821642164216,0,0
60.982245195589,-7.6607185435525,8.6260726072607,2375891.6923982,12310.101166031,3062296.7254886,13.826072607261,0,0
60.982245447607,-7.6643926819389,8.630503050305,2375891.6923982,12310.101166031,3062296.7254886,13.830503050305,0,0
60.982245699625,-7.6680668203252,8.6349334933493,2375891.6923982,12310.101166031,3062296.7254886,13.834933493349,0,0
60.982245951643,-7.6717409587115,8.6393639363936,2375891.6923982,12310.101166031,3062296.7254886,13.839363936394,0,0
60.982246203661,-7.6754150970978,8.6437943794379,2375891.6923982,12310.101166031,3062296.7254886,13.843794379438,0,0
60.98224645568,-7.6790892354842,8.6482248224822,2375891.6923982,12310.101166031,3062296.7254886,13.848224822482,0,0
60.982246707698,-7.6827633738705,8.6526552655266,2375891.6923982,12310.101166031,3062296.7254886,13.852655265527,0,0
60.982246959716,-7.6864375122568,8.6570857085709,2375891.6923982,12310.101166031,3062296.7254886,13.857085708571,0,0
60.982247211734,-7.6901116506431,8.6615161516152,2375891.6923982,12310.101166031,3062296.7254886,13.861516151615,0,0
60.982247463752,-7.6937857890295,8.6659465946595,2375891.6923982,12310.101166031,3062296.7254886,13.865946594659,0,0
60.98224771577,-7.6974599274158,8.6703770377038,2375891.6923982,12310.101166031,3062296.7254886,13.870377037704,0,0
60.982247967788,-7.7011340658021,8.6748074807481,2375891.6923982,12310.101166031,3062296.7254886,13.874807480748,0,0
60.982248219807,-7.7048082041884,8.6792379237924,2375891.6923982,12310.101166031,3062296.7254886,13.879237923792,0,0
60.982248471825,-7.7084823425748,8.6836683668367,2375891.6923982,12310.101166031,3062296.7254886,13.883668366837,0,0
60.982248723843,-7.7121564809611,8.688098809881,2375891.6923982,12310.101166031,3062296.7254886,13.888098809881,0,0
60.982248975861,-7.7158306193474,8.6925292529253,2375891.6923982,12310.101166031,3062296.7254886,13.892529252925,0,0
60.982249227879,-7.7195047577337,8.6969596959696,2375891.6923982,12310.101166031,3062296.7254886,13.89695969597,0,0
60.982249479897,-7.72317889612,8.7013901390139,2375891.6923982,12310.101166031,3062296.7254886,13.901390139014,0,0
60.982249731916,-7.7268530345064,8.7058205820582,2375891.6923982,12310.101166031,3062296.7254886,13.905820582058,0,0
60.982249983934,-7.7305271728927,8.7102510251025,2375891.6923982,12310.101166031,3062296.7254886,13.910251025103,0,0
60.982250235952,-7.734201311279,8.7146814681468,2375891.6923982,12310.101166031,3062296.7254886,13.914681468147,0,0
60.98225048797,-7.7378754496653,8.7191119111911,2375891.6923982,12310.101166031,3062296.7254886,13.919111911191,0,0
60.982250739988,-7.7415495880517,8.7235423542354,2375891.6923982,12310.101166031,3062296.7254886,13.923542354235,0,0
60.982250992006,-7.745223726438,8.7279727972797,2375891.6923982,12310.101166031,3062296.7254886,13.92797279728,0,0
60.982251244024,-7.7488978648243,8.732403240324,2375891.6923982,12310.101166031,3062296.7254886,13.932403240324,0,0
60.982251496043,-7.7525720032106,8.7368336833683,2375891.6923982,12310.101166031,3062296.7254886,13.936833683368,0,0
60.982251748061,-7.756246141597,8.7412641264126,2375891.6923982,12310.101166031,3062296.7254886,13.941264126413,0,0
60.982252000079,-7.7599202799833,8.7456945694569,2375891.6923982,12310.101166031,3062296.7254886,13.945694569457,0,0
60.982252252097,-7.7635944183696,8.7501250125013,2375891.6923982,12310.101166031,3062296.7254886,13.950125012501,0,0
60.982252504115,-7.7672685567559,8.7545554555456,2375891.6923982,12310.101166031,3062296.7254886,13.954555455546,0,0
60.982252756133,-7.7709426951423,8.7589858985899,2375891.6923982,12310.101166031,3062296.7254886,13.95898589859,0,0
60.982253008151,-7.7746168335286,8.7634163416342,2375891.6923982,12310.101166031,3062296.7254886,13.963416341634,0,0
60.98225326017,-7.7782909719149,8.7678467846785,2375891.6923982,12310.101166031,3062296.7254886,13.967846784678,0,0
60.982253512188,-7.7819651103012,8.7722772277228,2375891.6923982,12310.101166031,3062296.7254886,13.972277227723,0,0
60.982253764206,-7.7856392486876,8.7767076707671,2375891.6923982,12310.101166031,3062296.7254886,13.976707670767,0,0
60.982254016224,-7.7893133870739,8.7811381138114,2375891.6923982,12310.101166031,3062296.7254886,13.981138113811,0,0
60.982254268242,-7.7929875254602,8.7855685568557,2375891.6923982,12310.101166031,3062296.7254886,13.985568556856,0,0
60.98225452026,-7.7966616638465,8.7899989999,2375891.6923982,12310.101166031,3062296.7254886,13.9899989999,0,0
60.982254772278,-7.8003358022329,8.7944294429443,2375891.6923982,12310.101166031,3062296.7254886,13.994429442944,0,0
60.982255024297,-7.8040099406192,8.7988598859886,2375891.6923982,12310.101166031,3062296.7254886,13.998859885989,0,0
60.982255276315,-7.8076840790055,8.8032903290329,2375891.6923982,12310.101166031,3062296.7254886,14.003290329033,0,0
60.982255528333,-7.8113582173918,8.8077207720772,2375891.6923982,12310.101166031,3062296.7254886,14.007720772077,0,0
60.982255780351,-7.8150323557781,8.8121512151215,2375891.6923982,12310.101166031,3062296.7254886,14.012151215122,0,0
60.982256032369,-7.8187064941645,8.8165816581658,2375891.6923982,12310.101166031,3062296.7254886,14.016581658166,0,0
60.982256284387,-7.8223806325508,8.8210121012101,2375891.6923982,12310.101166031,3062296.7254886,14.02101210121,0,0
60.982256536405,-7.8260547709371,8.8254425442544,2375891.6923982,12310.101166031,3062296.7254886,14.025442544254,0,0
60.982256788424,-7.8297289093234,8.8298729872987,2375891.6923982,12310.101166031,3062296.7254886,14.029872987299,0,0
60.982257040442,-7.8334030477098,8.834303430343,2375891.6923982,12310.101166031,3062296.7254886,14.034303430343,0,0
60.98225729246,-7.8370771860961,8.8387338733873,2375891.6923982,12310.101166031,3062296.7254886,14.038733873387,0,0
60.982257544478,-7.8407513244824,8.8431643164316,2375891.6923982,12310.101166031,3062296.7254886,14.043164316432,0,0
60.982257796496,-7.8444254628687,8.8475947594759,2375891.6923982,12310.101166031,3062296.7254886,14.047594759476,0,0
60.982258048514,-7.8480996012551,8.8520252025203,2375891.6923982,12310.101166031,3062296.7254886,14.05202520252,0,0
60.982258300533,-7.8517737396414,8.8564556455646,2375891.6923982,12310.101166031,3062296.7254886,14.056455645565,0,0
60.982258552551,-7.8554478780277,8.8608860886089,2375891.6923982,12310.101166031,3062296.7254886,14.060886088609,0,0
60.982258804569,-7.859122016414,8.8653165316532,2375891.6923982,12310.101166031,3062296.7254886,14.065316531653,0,0
60.982259056587,-7.8627961548004,8.8697469746975,2375891.6923982,12310.101166031,3062296.7254886,14.069746974697,0,0
60.982259308605,-7.8664702931867,8.8741774177418,2375891.6923982,12310.101166031,3062296.7254886,14.074177417742,0,0
60.982259560623,-7.870144431573,8.8786078607861,2375891.6923982,12310.101166031,3062296.7254886,14.078607860786,0,0
60.982259812641,-7.8738185699593,8.8830383038304,2375891.6923982,12310.101166031,3062296.7254886,14.08303830383,0,0
60.98226006466,-7.8774927083457,8.8874687468747,2375891.6923982,12310.101166031,3062296.7254886,14.087468746875,0,0
60.982260316678,-7.881166846732,8.891899189919,2375891.6923982,12310.101166031,3062296.7254886,14.091899189919,0,0
60.982260568696,-7.8848409851183,8.8963296329633,2375891.6923982,12310.101166031,3062296.7254886,14.096329632963,0,0
60.982260820714,-7.8885151235046,8.9007600760076,2375891.6923982,12310.101166031,3062296.7254886,14.100760076008,0,0
60.982261072732,-7.892189261891,8.9051905190519,2375891.6923982,12310.101166031,3062296.7254886,14.105190519052,0,0
60.98226132475,-7.8958634002773,8.9096209620962,2375891.6923982,12310.101166031,3062296.7254886,14.109620962096,0,0
60.982261576768,-7.8995375386636,8.9140514051405,2375891.6923982,12310.101166031,3062296.7254886,14.114051405141,0,0
60.982261828787,-7.9032116770499,8.9184818481848,2375891.6923982,12310.101166031,3062296.7254886,14.118481848185,0,0
60.982262080805,-7.9068858154363,8.9229122912291,2375891.6923982,12310.101166031,3062296.7254886,14.122912291229,0,0
60.982262332823,-7.9105599538226,8.9273427342734,2375891.6923982,12310.101166031,3062296.7254886,14.127342734273,0,0
60.982262584841,-7.9142340922089,8.9317731773177,2375891.6923982,12310.101166031,3062296.7254886,14.131773177318,0,0
60.982262836859,-7.9179082305952,8.936203620362,2375891.6923982,12310.101166031,3062296.7254886,14.136203620362,0,0
60.982263088877,-7.9215823689815,8.9406340634063,2375891.6923982,12310.101166031,3062296.7254886,14.140634063406,0,0
60.982263340895,-7.9252565073679,8.9450645064506,2375891.6923982,12310.101166031,3062296.7254886,14.145064506451,0,0
60.982263592914,-7.9289306457542,8.9494949494949,2375891.6923982,12310.101166031,3062296.7254886,14.149494949495,0,0
60.982263844932,-7.9326047841405,8.9539253925393,2375891.6923982,12310.101166031,3062296.7254886,14.153925392539,0,0
60.98226409695,-7.9362789225268,8.9583558355836,2375891.6923982,12310.101166031,3062296.7254886,14.158355835584,0,0
60.982264348968,-7.9399530609132,8.9627862786279,2375891.6923982,12310.101166031,3062296.7254886,14.162786278628,0,0
60.982264600986,-7.9436271992995,8.9672167216722,2375891.6923982,12310.101166031,3062296.7254886,14.167216721672,0,0
60.982264853004,-7.9473013376858,8.9716471647165,2375891.6923982,12310.101166031,3062296.7254886,14.171647164716,0,0
60.982265105022,-7.9509754760721,8.9760776077608,2375891.6923982,12310.101166031,3062296.7254886,14.176077607761,0,0
60.982265357041,-7.9546496144585,8.9805080508051,2375891.6923982,12310.101166031,3062296.7254886,14.180508050805,0,0
60.982265609059,-7.9583237528448,8.9849384938494,2375891.6923982,12310.101166031,3062296.7254886,14.184938493849,0,0
60.982265861077,-7.9619978912311,8.9893689368937,2375891.6923982,12310.101166031,3062296.7254886,14.189368936894,0,0
60.982266113095,-7.9656720296174,8.993799379938,2375891.6923982,12310.101166031,3062296.7254886,14.193799379938,0,0
60.982266365113,-7.9693461680038,8.9982298229823,2375891.6923982,12310.101166031,3062296.7254886,14.198229822982,0,0
60.982266617131,-7.9730203063901,9.0026602660266,2375891.6923982,12310.101166031,3062296.7254886,14.202660266027,0,0
60.98226686915,-7.9766944447764,9.0070907090709,2375891.6923982,12310.101166031,3062296.7254886,14.207090709071,0,0
60.982267121168,-7.9803685831627,9.0115211521152,2375891.6923982,12310.101166031,3062296.7254886,14.211521152115,0,0
60.982267373186,-7.9840427215491,9.0159515951595,2375891.6923982,12310.101166031,3062296.7254886,14.21595159516,0,0
60.982267625204,-7.9877168599354,9.0203820382038,2375891.6923982,12310.101166031,3062296.7254886,14.220382038204,0,0
60.982267877222,-7.9913909983217,9.0248124812481,2375891.6923982,12310.101166031,3062296.7254886,14.224812481248,0,0
60.98226812924,-7.995065136708,9.0292429242924,2375891.6923982,12310.101166031,3062296.7254886,14.229242924292,0,0
60.982268381258,-7.9987392750943,9.0336733673367,2375891.6923982,12310.101166031,3062296.7254886,14.233673367337,0,0
60.982268633277,-8.0024134134807,9.038103810381,2375891.6923982,12310.101166031,3062296.7254886,14.238103810381,0,0
60.982268885295,-8.006087551867,9.0425342534253,2375891.6923982,12310.101166031,3062296.7254886,14.242534253425,0,0
60.982269137313,-8.0097616902533,9.0469646964696,2375891.6923982,12310.101166031,3062296.7254886,14.24696469647,0,0
60.982269389331,-8.0134358286396,9.051395139514,2375891.6923982,12310.101166031,3062296.7254886,14.251395139514,0,0
60.982269641349,-8.017109967026,9.0558255825583,2375891.6923982,12310.101166031,3062296.7254886,14.255825582558,0,0
60.982269893367,-8.0207841054123,9.0602560256026,2375891.6923982,12310.101166031,3062296.7254886,14.260256025603,0,0
60.982270145385,-8.0244582437986,9.0646864686469,2375891.6923982,12310.101166031,3062296.7254886,14.264686468647,0,0
60.982270397404,-8.0281323821849,9.0691169116912,2375891.6923982,12310.101166031,3062296.7254886,14.269116911691,0,0
60.982270649422,-8.0318065205713,9.0735473547355,2375891.6923982,12310.101166031,3062296.7254886,14.273547354735,0,0
60.98227090144,-8.0354806589576,9.0779777977798,2375891.6923982,12310.101166031,3062296.7254886,14.27797779778,0,0
60.982271153458,-8.0391547973439,9.0824082408241,2375891.6923982,12310.101166031,3062296.7254886,14.282408240824,0,0
60.982271405476,-8.0428289357302,9.0868386838684,2375891.6923982,12310.101166031,3062296.7254886,14.286838683868,0,0
60.982271657494,-8.0465030741166,9.0912691269127,2375891.6923982,12310.101166031,3062296.7254886,14.291269126913,0,0
60.982271909512,-8.0501772125029,9.095699569957,2375891.6923982,12310.101166031,3062296.7254886,14.295699569957,0,0
60.982272161531,-8.0538513508892,9.1001300130013,2375891.6923982,12310.101166031,3062296.7254886,14.300130013001,0,0
60.982272413549,-8.0575254892755,9.1045604560456,2375891.6923982,12310.101166031,3062296.7254886,14.304560456046,0,0
60.982272665567,-8.0611996276619,9.1089908990899,2375891.6923982,12310.101166031,3062296.7254886,14.30899089909,0,0
60.982272917585,-8.0648737660482,9.1134213421342,2375891.6923982,12310.101166031,3062296.7254886,14.313421342134,0,0
60.982273169603,-8.0685479044345,9.1178517851785,2375891.6923982,12310.101166031,3062296.7254886,14.317851785179,0,0
60.982273421621,-8.0722220428208,9.1222822282228,2375891.6923982,12310.101166031,3062296.7254886,14.322282228223,0,0
60.982273673639,-8.0758961812072,9.1267126712671,2375891.6923982,12310.101166031,3062296.7254886,14.326712671267,0,0
60.982273925658,-8.0795703195935,9.1311431143114,2375891.6923982,12310.101166031,3062296.7254886,14.331143114311,0,0
60.982274177676,-8.0832444579798,9.1355735573557,2375891.6923982,12310.101166031,3062296.7254886,14.335573557356,0,0
60.982274429694,-8.0869185963661,9.1400040004,2375891.6923982,12310.101166031,3062296.7254886,14.3400040004,0,0
60.982274681712,-8.0905927347525,9.1444344434443,2375891.6923982,12310.101166031,3062296.7254886,14.344434443444,0,0
60.98227493373,-8.0942668731388,9.1488648864886,2375891.6923982,12310.101166031,3062296.7254886,14.348864886489,0,0
60.982275185748,-8.0979410115251,9.153295329533,2375891.6923982,12310.101166031,3062296.7254886,14.353295329533,0,0
60.982275437767,-8.1016151499114,9.1577257725773,2375891.6923982,12310.101166031,3062296.7254886,14.357725772577,0,0
60.982275689785,-8.1052892882977,9.1621562156216,2375891.6923982,12310.101166031,3062296.7254886,14.362156215622,0,0
60.982275941803,-8.1089634266841,9.1665866586659,2375891.6923982,12310.101166031,3062296.7254886,14.366586658666,0,0
60.982276193821,-8.1126375650704,9.1710171017102,2375891.6923982,12310.101166031,3062296.7254886,14.37101710171,0,0
60.982276445839,-8.1163117034567,9.1754475447545,2375891.6923982,12310.101166031,3062296.7254886,14.375447544754,0,0
60.982276697857,-8.119985841843,9.1798779877988,2375891.6923982,12310.101166031,3062296.7254886,14.379877987799,0,0
60.982276949875,-8.1236599802294,9.1843084308431,2375891.6923982,12310.101166031,3062296.7254886,14.384308430843,0,0
60.982277201894,-8.1273341186157,9.1887388738874,2375891.6923982,12310.101166031,3062296.7254886,14.388738873887,0,0
60.982277453912,-8.131008257002,9.1931693169317,2375891.6923982,12310.101166031,3062296.7254886,14.393169316932,0,0
60.98227770593,-8.1346823953883,9.197599759976,2375891.6923982,12310.101166031,3062296.7254886,14.397599759976,0,0
60.982277957948,-8.1383565337747,9.2020302030203,2375891.6923982,12310.101166031,3062296.7254886,14.40203020302,0,0
60.982278209966,-8.142030672161,9.2064606460646,2375891.6923982,12310.101166031,3062296.7254886,14.406460646065,0,0
60.982278461984,-8.1457048105473,9.2108910891089,2375891.6923982,12310.101166031,3062296.7254886,14.410891089109,0,0
60.982278714002,-8.1493789489336,9.2153215321532,2375891.6923982,12310.101166031,3062296.7254886,14.415321532153,0,0
60.982278966021,-8.15305308732,9.2197519751975,2375891.6923982,12310.101166031,3062296.7254886,14.419751975198,0,0
60.982279218039,-8.1567272257063,9.2241824182418,2375891.6923982,12310.101166031,3062296.7254886,14.424182418242,0,0
60.982279470057,-8.1604013640926,9.2286128612861,2375891.6923982,12310.101166031,3062296.7254886,14.428612861286,0,0
60.982279722075,-8.1640755024789,9.2330433043304,2375891.6923982,12310.101166031,3062296.7254886,14.43304330433,0,0
60.982279974093,-8.1677496408653,9.2374737473747,2375891.6923982,12310.101166031,3062296.7254886,14.437473747375,0,0
60.982280226111,-8.1714237792516,9.241904190419,2375891.6923982,12310.101166031,3062296.7254886,14.441904190419,0,0
60.982280478129,-8.1750979176379,9.2463346334633,2375891.6923982,12310.101166031,3062296.7254886,14.446334633463,0,0
60.982280730148,-8.1787720560242,9.2507650765077,2375891.6923982,12310.101166031,3062296.7254886,14.450765076508,0,0
60.982280982166,-8.1824461944106,9.255195519552,2375891.6923982,12310.101166031,3062296.7254886,14.455195519552,0,0
60.982281234184,-8.1861203327969,9.2596259625963,2375891.6923982,12310.101166031,3062296.7254886,14.459625962596,0,0
60.982281488643,-8.1897944686746,9.2640564056406,2415922.543655,20689.269351999,3053070.3346401,14.464056405641,0,0
60.982281744104,-8.1934686035221,9.2684868486849,2415922.543655,20689.269351999,3053070.3346401,14.468486848685,0,0
60.982281999565,-8.1971427383696,9.2729172917292,2415922.543655,20689.269351999,3053070.3346401,14.472917291729,0,0
60.982282255027,-8.2008168732171,9.2773477347735,2415922.543655,20689.269351999,3053070.3346401,14.477347734773,0,0
60.982282510488,-8.2044910080646,9.2817781778178,2415922.543655,20689.269351999,3053070.3346401,14.481778177818,0,0
60.982282765949,-8.2081651429121,9.2862086208621,2415922.543655,20689.269351999,3053070.3346401,14.486208620862,0,0
60.982283021411,-8.2118392777596,9.2906390639064,2415922.543655,20689.269351999,3053070.3346401,14.490639063906,0,0
60.982283276872,-8.2155134126071,9.2950695069507,2415922.543655,20689.269351999,3053070.3346401,14.495069506951,0,0
60.982283532333,-8.2191875474546,9.299499949995,2415922.543655,20689.269351999,3053070.3346401,14.499499949995,0,0
60.982283787794,-8.2228616823021,9.3039303930393,2415922.543655,20689.269351999,3053070.3346401,14.503930393039,0,0
60.982284043256,-8.2265358171496,9.3083608360836,2415922.543655,20689.269351999,3053070.3346401,14.508360836084,0,0
60.982284298717,-8.230209951997,9.3127912791279,2415922.543655,20689.269351999,3053070.3346401,14.512791279128,0,0
60.982284554178,-8.2338840868445,9.3172217221722,2415922.543655,20689.269351999,3053070.3346401,14.517221722172,0,0
60.98228480964,-8.237558221692,9.3216521652165,2415922.543655,20689.269351999,3053070.3346401,14.521652165217,0,0
60.982285065587,-8.2412323581414,9.3260826082608,2418644.4313814,7542.2842762919,3019904.2171888,14.526082608261,0,0
60.982285322149,-8.2449064966152,9.3305130513051,2418644.4313814,7542.2842762919,3019904.2171888,14.530513051305,0,0
60.982285578711,-8.248580635089,9.3349434943494,2418644.4313814,7542.2842762919,3019904.2171888,14.534943494349,0,0
60.982285835272,-8.2522547735627,9.3393739373937,2418644.4313814,7542.2842762919,3019904.2171888,14.539373937394,0,0
60.982286091834,-8.2559289120365,9.343804380438,2418644.4313814,7542.2842762919,3019904.2171888,14.543804380438,0,0
60.982286348396,-8.2596030505103,9.3482348234823,2418644.4313814,7542.2842762919,3019904.2171888,14.548234823482,0,0
60.982286604958,-8.263277188984,9.3526652665267,2418644.4313814,7542.2842762919,3019904.2171888,14.552665266527,0,0
60.982286861519,-8.2669513274578,9.357095709571,2418644.4313814,7542.2842762919,3019904.2171888,14.557095709571,0,0
60.982287118081,-8.2706254659316,9.3615261526153,2418644.4313814,7542.2842762919,3019904.2171888,14.561526152615,0,0
60.982287374643,-8.2742996044053,9.3659565956596,2418644.4313814,7542.2842762919,3019904.2171888,14.56595659566,0,0
60.982287631205,-8.2779737428791,9.3703870387039,2418644.4313814,7542.2842762919,3019904.2171888,14.570387038704,0,0
60.982287887766,-8.2816478813528,9.3748174817482,2418644.4313814,7542.2842762919,3019904.2171888,14.574817481748,0,0
60.982288144328,-8.2853220198266,9.3792479247925,2418644.4313814,7542.2842762919,3019904.2171888,14.579247924792,0,0
60.98228840089,-8.2889961583004,9.3836783678368,2418644.4313814,7542.2842762919,3019904.2171888,14.583678367837,0,0
60.982288657452,-8.2926702967741,9.3881088108811,2418644.4313814,7542.2842762919,3019904.2171888,14.588108810881,0,0
60.982288914014,-8.2963444352479,9.3925392539254,2418644.4313814,7542.2842762919,3019904.2171888,14.592539253925,0,0
60.982289170575,-8.3000185737217,9.3969696969697,2418644.4313814,7542.2842762919,3019904.2171888,14.59696969697,0,0
60.982289427137,-8.3036927121954,9.401400140014,2418644.4313814,7542.2842762919,3019904.2171888,14.601400140014,0,0
60.982289683699,-8.3073668506692,9.4058305830583,2418644.4313814,7542.2842762919,3019904.2171888,14.605830583058,0,0
60.982289940261,-8.311040989143,9.4102610261026,2418644.4313814,7542.2842762919,3019904.2171888,14.610261026103,0,0
60.982290196822,-8.3147151276167,9.4146914691469,2418644.4313814,7542.2842762919,3019904.2171888,14.614691469147,0,0
60.982290453384,-8.3183892660905,9.4191219121912,2418644.4313814,7542.2842762919,3019904.2171888,14.619121912191,0,0
60.982290709946,-8.3220634045643,9.4235523552355,2418644.4313814,7542.2842762919,3019904.2171888,14.623552355236,0,0
60.982290966508,-8.325737543038,9.4279827982798,2418644.4313814,7542.2842762919,3019904.2171888,14.62798279828,0,0
60.982291223069,-8.3294116815118,9.4324132413241,2418644.4313814,7542.2842762919,3019904.2171888,14.632413241324,0,0
60.982291479631,-8.3330858199856,9.4368436843684,2418644.4313814,7542.2842762919,3019904.2171888,14.636843684368,0,0
60.982291736193,-8.3367599584593,9.4412741274127,2418644.4313814,7542.2842762919,3019904.2171888,14.641274127413,0,0
60.982291992755,-8.3404340969331,9.445704570457,2418644.4313814,7542.2842762919,3019904.2171888,14.645704570457,0,0
60.982292249317,-8.3441082354068,9.4501350135013,2418644.4313814,7542.2842762919,3019904.2171888,14.650135013501,0,0
60.982292505878,-8.3477823738806,9.4545654565457,2418644.4313814,7542.2842762919,3019904.2171888,14.654565456546,0,0
60.98229276244,-8.3514565123544,9.45899589959,2418644.4313814,7542.2842762919,3019904.2171888,14.65899589959,0,0
60.982293019002,-8.3551306508281,9.4634263426343,2418644.4313814,7542.2842762919,3019904.2171888,14.663426342634,0,0
60.982293275564,-8.3588047893019,9.4678567856786,2418644.4313814,7542.2842762919,3019904.2171888,14.667856785679,0,0
60.982293532125,-8.3624789277757,9.4722872287229,2418644.4313814,7542.2842762919,3019904.2171888,14.672287228723,0,0
60.982293788687,-8.3661530662494,9.4767176717672,2418644.4313814,7542.2842762919,3019904.2171888,14.676717671767,0,0
60.982294045249,-8.3698272047232,9.4811481148115,2418644.4313814,7542.2842762919,3019904.2171888,14.681148114811,0,0
60.982294301811,-8.373501343197,9.4855785578558,2418644.4313814,7542.2842762919,3019904.2171888,14.685578557856,0,0
60.982294558372,-8.3771754816707,9.4900090009001,2418644.4313814,7542.2842762919,3019904.2171888,14.6900090009,0,0
60.982294814934,-8.3808496201445,9.4944394439444,2418644.4313814,7542.2842762919,3019904.2171888,14.694439443944,0,0
60.982295071496,-8.3845237586183,9.4988698869887,2418644.4313814,7542.2842762919,3019904.2171888,14.698869886989,0,0
60.982295328058,-8.388197897092,9.503300330033,2418644.4313814,7542.2842762919,3019904.2171888,14.703300330033,0,0
60.98229558462,-8.3918720355658,9.5077307730773,2418644.4313814,7542.2842762919,3019904.2171888,14.707730773077,0,0
60.982295841181,-8.3955461740396,9.5121612161216,2418644.4313814,7542.2842762919,3019904.2171888,14.712161216122,0,0
60.982296097743,-8.3992203125133,9.5165916591659,2418644.4313814,7542.2842762919,3019904.2171888,14.716591659166,0,0
60.982296354305,-8.4028944509871,9.5210221022102,2418644.4313814,7542.2842762919,3019904.2171888,14.72102210221,0,0
60.982296610867,-8.4065685894609,9.5254525452545,2418644.4313814,7542.2842762919,3019904.2171888,14.725452545255,0,0
60.982296867428,-8.4102427279346,9.5298829882988,2418644.4313814,7542.2842762919,3019904.2171888,14.729882988299,0,0
60.98229712399,-8.4139168664084,9.5343134313431,2418644.4313814,7542.2842762919,3019904.2171888,14.734313431343,0,0
60.982297380552,-8.4175910048822,9.5387438743874,2418644.4313814,7542.2842762919,3019904.2171888,14.738743874387,0,0
60.982297637114,-8.4212651433559,9.5431743174317,2418644.4313814,7542.2842762919,3019904.2171888,14.743174317432,0,0
60.982297893675,-8.4249392818297,9.547604760476,2418644.4313814,7542.2842762919,3019904.2171888,14.747604760476,0,0
60.982298150237,-8.4286134203034,9.5520352035204,2418644.4313814,7542.2842762919,3019904.2171888,14.75203520352,0,0
60.982298406799,-8.4322875587772,9.5564656465647,2418644.4313814,7542.2842762919,3019904.2171888,14.756465646565,0,0
60.982298663361,-8.435961697251,9.560896089609,2418644.4313814,7542.2842762919,3019904.2171888,14.760896089609,0,0
60.982298919922,-8.4396358357247,9.5653265326533,2418644.4313814,7542.2842762919,3019904.2171888,14.765326532653,0,0
60.982299176484,-8.4433099741985,9.5697569756976,2418644.4313814,7542.2842762919,3019904.2171888,14.769756975698,0,0
60.982299433046,-8.4469841126723,9.5741874187419,2418644.4313814,7542.2842762919,3019904.2171888,14.774187418742,0,0
60.982299689608,-8.450658251146,9.5786178617862,2418644.4313814,7542.2842762919,3019904.2171888,14.778617861786,0,0
60.98229994617,-8.4543323896198,9.5830483048305,2418644.4313814,7542.2842762919,3019904.2171888,14.78304830483,0,0
60.982300202731,-8.4580065280936,9.5874787478748,2418644.4313814,7542.2842762919,3019904.2171888,14.787478747875,0,0
60.982300459293,-8.4616806665673,9.5919091909191,2418644.4313814,7542.2842762919,3019904.2171888,14.791909190919,0,0
60.982300715855,-8.4653548050411,9.5963396339634,2418644.4313814,7542.2842762919,3019904.2171888,14.796339633963,0,0
60.982300972417,-8.4690289435149,9.6007700770077,2418644.4313814,7542.2842762919,3019904.2171888,14.800770077008,0,0
60.982301228978,-8.4727030819886,9.605200520052,2418644.4313814,7542.2842762919,3019904.2171888,14.805200520052,0,0
60.98230148554,-8.4763772204624,9.6096309630963,2418644.4313814,7542.2842762919,3019904.2171888,14.809630963096,0,0
60.982301742102,-8.4800513589362,9.6140614061406,2418644.4313814,7542.2842762919,3019904.2171888,14.814061406141,0,0
60.982301998664,-8.4837254974099,9.6184918491849,2418644.4313814,7542.2842762919,3019904.2171888,14.818491849185,0,0
60.982302255225,-8.4873996358837,9.6229222922292,2418644.4313814,7542.2842762919,3019904.2171888,14.822922292229,0,0
60.982302511787,-8.4910737743575,9.6273527352735,2418644.4313814,7542.2842762919,3019904.2171888,14.827352735274,0,0
60.982302768349,-8.4947479128312,9.6317831783178,2418644.4313814,7542.2842762919,3019904.2171888,14.831783178318,0,0
60.982303024911,-8.498422051305,9.6362136213621,2418644.4313814,7542.2842762919,3019904.2171888,14.836213621362,0,0
60.982303281473,-8.5020961897788,9.6406440644064,2418644.4313814,7542.2842762919,3019904.2171888,14.840644064406,0,0
60.982303538034,-8.5057703282525,9.6450745074507,2418644.4313814,7542.2842762919,3019904.2171888,14.845074507451,0,0
60.982303794596,-8.5094444667263,9.6495049504951,2418644.4313814,7542.2842762919,3019904.2171888,14.849504950495,0,0
60.982304051158,-8.5131186052,9.6539353935394,2418644.4313814,7542.2842762919,3019904.2171888,14.853935393539,0,0
60.98230430772,-8.5167927436738,9.6583658365837,2418644.4313814,7542.2842762919,3019904.2171888,14.858365836584,0,0
60.982304564281,-8.5204668821476,9.662796279628,2418644.4313814,7542.2842762919,3019904.2171888,14.862796279628,0,0
60.982304820843,-8.5241410206213,9.6672267226723,2418644.4313814,7542.2842762919,3019904.2171888,14.867226722672,0,0
60.982305077405,-8.5278151590951,9.6716571657166,2418644.4313814,7542.2842762919,3019904.2171888,14.871657165717,0,0
60.982305333967,-8.5314892975689,9.6760876087609,2418644.4313814,7542.2842762919,3019904.2171888,14.876087608761,0,0
60.982305590528,-8.5351634360426,9.6805180518052,2418644.4313814,7542.2842762919,3019904.2171888,14.880518051805,0,0
60.98230584709,-8.5388375745164,9.6849484948495,2418644.4313814,7542.2842762919,3019904.2171888,14.884948494849,0,0
60.982306103652,-8.5425117129902,9.6893789378938,2418644.4313814,7542.2842762919,3019904.2171888,14.889378937894,0,0
60.982306360214,-8.5461858514639,9.6938093809381,2418644.4313814,7542.2842762919,3019904.2171888,14.893809380938,0,0
60.982306616775,-8.5498599899377,9.6982398239824,2418644.4313814,7542.2842762919,3019904.2171888,14.898239823982,0,0
60.982306873337,-8.5535341284115,9.7026702670267,2418644.4313814,7542.2842762919,3019904.2171888,14.902670267027,0,0
60.982307129899,-8.5572082668852,9.707100710071,2418644.4313814,7542.2842762919,3019904.2171888,14.907100710071,0,0
60.982307386461,-8.560882405359,9.7115311531153,2418644.4313814,7542.2842762919,3019904.2171888,14.911531153115,0,0
60.982307643023,-8.5645565438328,9.7159615961596,2418644.4313814,7542.2842762919,3019904.2171888,14.91596159616,0,0
60.982307899584,-8.5682306823065,9.7203920392039,2418644.4313814,7542.2842762919,3019904.2171888,14.920392039204,0,0
60.982308156146,-8.5719048207803,9.7248224822482,2418644.4313814,7542.2842762919,3019904.2171888,14.924822482248,0,0
60.982308412708,-8.5755789592541,9.7292529252925,2418644.4313814,7542.2842762919,3019904.2171888,14.929252925293,0,0
60.98230866927,-8.5792530977278,9.7336833683368,2418644.4313814,7542.2842762919,3019904.2171888,14.933683368337,0,0
60.982308925831,-8.5829272362016,9.7381138113811,2418644.4313814,7542.2842762919,3019904.2171888,14.938113811381,0,0
60.982309182393,-8.5866013746753,9.7425442544254,2418644.4313814,7542.2842762919,3019904.2171888,14.942544254425,0,0
60.982309438955,-8.5902755131491,9.7469746974697,2418644.4313814,7542.2842762919,3019904.2171888,14.94697469747,0,0
60.982309695517,-8.5939496516229,9.7514051405141,2418644.4313814,7542.2842762919,3019904.2171888,14.951405140514,0,0
60.982309952078,-8.5976237900966,9.7558355835584,2418644.4313814,7542.2842762919,3019904.2171888,14.955835583558,0,0
60.98231020864,-8.6012979285704,9.7602660266027,2418644.4313814,7542.2842762919,3019904.2171888,14.960266026603,0,0
60.982310465202,-8.6049720670442,9.764696469647,2418644.4313814,7542.2842762919,3019904.2171888,14.964696469647,0,0
60.982310721764,-8.6086462055179,9.7691269126913,2418644.4313814,7542.2842762919,3019904.2171888,14.969126912691,0,0
60.982310978326,-8.6123203439917,9.7735573557356,2418644.4313814,7542.2842762919,3019904.2171888,14.973557355736,0,0
60.982311234887,-8.6159944824655,9.7779877987799,2418644.4313814,7542.2842762919,3019904.2171888,14.97798779878,0,0
60.982311491449,-8.6196686209392,9.7824182418242,2418644.4313814,7542.2842762919,3019904.2171888,14.982418241824,0,0
60.982311748011,-8.623342759413,9.7868486848685,2418644.4313814,7542.2842762919,3019904.2171888,14.986848684868,0,0
60.982312004573,-8.6270168978868,9.7912791279128,2418644.4313814,7542.2842762919,3019904.2171888,14.991279127913,0,0
60.982312261134,-8.6306910363605,9.7957095709571,2418644.4313814,7542.2842762919,3019904.2171888,14.995709570957,0,0
60.982312517696,-8.6343651748343,9.8001400140014,2418644.4313814,7542.2842762919,3019904.2171888,15.000140014001,0,0
60.982312774258,-8.6380393133081,9.8045704570457,2418644.4313814,7542.2842762919,3019904.2171888,15.004570457046,0,0
60.98231303082,-8.6417134517818,9.80900090009,2418644.4313814,7542.2842762919,3019904.2171888,15.00900090009,0,0
60.982313287381,-8.6453875902556,9.8134313431343,2418644.4313814,7542.2842762919,3019904.2171888,15.013431343134,0,0
60.982313543943,-8.6490617287294,9.8178617861786,2418644.4313814,7542.2842762919,3019904.2171888,15.017861786179,0,0
60.982313800505,-8.6527358672031,9.8222922292229,2418644.4313814,7542.2842762919,3019904.2171888,15.022292229223,0,0
60.982314057067,-8.6564100056769,9.8267226722672,2418644.4313814,7542.2842762919,3019904.2171888,15.026722672267,0,0
60.982314313628,-8.6600841441506,9.8311531153115,2418644.4313814,7542.2842762919,3019904.2171888,15.031153115312,0,0
60.98231457019,-8.6637582826244,9.8355835583558,2418644.4313814,7542.2842762919,3019904.2171888,15.035583558356,0,0
60.982314826752,-8.6674324210982,9.8400140014001,2418644.4313814,7542.2842762919,3019904.2171888,15.0400140014,0,0
60.982315083314,-8.6711065595719,9.8444444444444,2418644.4313814,7542.2842762919,3019904.2171888,15.044444444444,0,0
60.982315339876,-8.6747806980457,9.8488748874887,2418644.4313814,7542.2842762919,3019904.2171888,15.048874887489,0,0
60.982315596437,-8.6784548365195,9.8533053305331,2418644.4313814,7542.2842762919,3019904.2171888,15.053305330533,0,0
60.982315852999,-8.6821289749932,9.8577357735774,2418644.4313814,7542.2842762919,3019904.2171888,15.057735773577,0,0
60.982316109561,-8.685803113467,9.8621662166217,2418644.4313814,7542.2842762919,3019904.2171888,15.062166216622,0,0
60.982316366123,-8.6894772519408,9.866596659666,2418644.4313814,7542.2842762919,3019904.2171888,15.066596659666,0,0
60.982316622684,-8.6931513904145,9.8710271027103,2418644.4313814,7542.2842762919,3019904.2171888,15.07102710271,0,0
60.982316879246,-8.6968255288883,9.8754575457546,2418644.4313814,7542.2842762919,3019904.2171888,15.075457545755,0,0
60.982317135808,-8.7004996673621,9.8798879887989,2418644.4313814,7542.2842762919,3019904.2171888,15.079887988799,0,0
60.98231739237,-8.7041738058358,9.8843184318432,2418644.4313814,7542.2842762919,3019904.2171888,15.084318431843,0,0
60.982317648931,-8.7078479443096,9.8887488748875,2418644.4313814,7542.2842762919,3019904.2171888,15.088748874887,0,0
60.982317905493,-8.7115220827834,9.8931793179318,2418644.4313814,7542.2842762919,3019904.2171888,15.093179317932,0,0
60.982318162055,-8.7151962212571,9.8976097609761,2418644.4313814,7542.2842762919,3019904.2171888,15.097609760976,0,0
60.982318418617,-8.7188703597309,9.9020402040204,2418644.4313814,7542.2842762919,3019904.2171888,15.10204020402,0,0
60.982318675179,-8.7225444982047,9.9064706470647,2418644.4313814,7542.2842762919,3019904.2171888,15.106470647065,0,0
60.98231893174,-8.7262186366784,9.910901090109,2418644.4313814,7542.2842762919,3019904.2171888,15.110901090109,0,0
60.982319188302,-8.7298927751522,9.9153315331533,2418644.4313814,7542.2842762919,3019904.2171888,15.115331533153,0,0
60.982319444864,-8.733566913626,9.9197619761976,2418644.4313814,7542.2842762919,3019904.2171888,15.119761976198,0,0
60.982319701426,-8.7372410520997,9.9241924192419,2418644.4313814,7542.2842762919,3019904.2171888,15.124192419242,0,0
60.982319957987,-8.7409151905735,9.9286228622862,2418644.4313814,7542.2842762919,3019904.2171888,15.128622862286,0,0
60.982320214549,-8.7445893290472,9.9330533053305,2418644.4313814,7542.2842762919,3019904.2171888,15.133053305331,0,0
60.982320471111,-8.748263467521,9.9374837483748,2418644.4313814,7542.2842762919,3019904.2171888,15.137483748375,0,0
60.982320727673,-8.7519376059948,9.9419141914191,2418644.4313814,7542.2842762919,3019904.2171888,15.141914191419,0,0
60.982320984234,-8.7556117444685,9.9463446344634,2418644.4313814,7542.2842762919,3019904.2171888,15.146344634463,0,0
60.982321240796,-8.7592858829423,9.9507750775077,2418644.4313814,7542.2842762919,3019904.2171888,15.150775077508,0,0
60.982321497358,-8.7629600214161,9.9552055205521,2418644.4313814,7542.2842762919,3019904.2171888,15.155205520552,0,0
60.98232175392,-8.7666341598898,9.9596359635964,2418644.4313814,7542.2842762919,3019904.2171888,15.159635963596,0,0
60.982322010481,-8.7703082983636,9.9640664066407,2418644.4313814,7542.2842762919,3019904.2171888,15.164066406641,0,0
60.982322267043,-8.7739824368374,9.968496849685,2418644.4313814,7542.2842762919,3019904.2171888,15.168496849685,0,0
60.982322523605,-8.7776565753111,9.9729272927293,2418644.4313814,7542.2842762919,3019904.2171888,15.172927292729,0,0
60.982322780167,-8.7813307137849,9.9773577357736,2418644.4313814,7542.2842762919,3019904.2171888,15.177357735774,0,0
60.982323036729,-8.7850048522587,9.9817881788179,2418644.4313814,7542.2842762919,3019904.2171888,15.181788178818,0,0
60.98232329329,-8.7886789907324,9.9862186218622,2418644.4313814,7542.2842762919,3019904.2171888,15.186218621862,0,0
60.982323549852,-8.7923531292062,9.9906490649065,2418644.4313814,7542.2842762919,3019904.2171888,15.190649064906,0,0
60.982323806414,-8.79602726768,9.9950795079508,2418644.4313814,7542.2842762919,3019904.2171888,15.195079507951,0,0
60.982324062976,-8.7997014061537,9.9995099509951,2418644.4313814,7542.2842762919,3019904.2171888,15.199509950995,0,0
60.982324319537,-8.8033755446275,10.003940394039,2418644.4313814,7542.2842762919,3019904.2171888,15.203940394039,0,0
60.982324576099,-8.8070496831013,10.008370837084,2418644.4313814,7542.2842762919,3019904.2171888,15.208370837084,0,0
60.982324832661,-8.810723821575,10.012801280128,2418644.4313814,7542.2842762919,3019904.2171888,15.212801280128,0,0
60.982325089223,-8.8143979600488,10.017231723172,2418644.4313814,7542.2842762919,3019904.2171888,15.217231723172,0,0
60.982325345784,-8.8180720985225,10.021662166217,2418644.4313814,7542.2842762919,3019904.2171888,15.221662166217,0,0
60.982325602346,-8.8217462369963,10.026092609261,2418644.4313814,7542.2842762919,3019904.2171888,15.226092609261,0,0
60.982325858908,-8.8254203754701,10.030523052305,2418644.4313814,7542.2842762919,3019904.2171888,15.230523052305,0,0
60.98232611547,-8.8290945139438,10.03495349535,2418644.4313814,7542.2842762919,3019904.2171888,15.23495349535,0,0
60.982326372032,-8.8327686524176,10.039383938394,2418644.4313814,7542.2842762919,3019904.2171888,15.239383938394,0,0
60.982326628593,-8.8364427908914,10.043814381438,2418644.4313814,7542.2842762919,3019904.2171888,15.243814381438,0,0
60.982326885155,-8.8401169293651,10.048244824482,2418644.4313814,7542.2842762919,3019904.2171888,15.248244824482,0,0
60.982327141717,-8.8437910678389,10.052675267527,2418644.4313814,7542.2842762919,3019904.2171888,15.252675267527,0,0
60.982327398279,-8.8474652063127,10.057105710571,2418644.4313814,7542.2842762919,3019904.2171888,15.257105710571,0,0
60.98232765484,-8.8511393447864,10.061536153615,2418644.4313814,7542.2842762919,3019904.2171888,15.261536153615,0,0
60.982327911402,-8.8548134832602,10.06596659666,2418644.4313814,7542.2842762919,3019904.2171888,15.26596659666,0,0
60.982328167964,-8.858487621734,10.070397039704,2418644.4313814,7542.2842762919,3019904.2171888,15.270397039704,0,0
60.982328424526,-8.8621617602077,10.074827482748,2418644.4313814,7542.2842762919,3019904.2171888,15.274827482748,0,0
60.982328681087,-8.8658358986815,10.079257925793,2418644.4313814,7542.2842762919,3019904.2171888,15.279257925793,0,0
60.982328937649,-8.8695100371553,10.083688368837,2418644.4313814,7542.2842762919,3019904.2171888,15.283688368837,0,0
60.982329194211,-8.873184175629,10.088118811881,2418644.4313814,7542.2842762919,3019904.2171888,15.288118811881,0,0
60.982329450773,-8.8768583141028,10.092549254925,2418644.4313814,7542.2842762919,3019904.2171888,15.292549254925,0,0
60.982329707334,-8.8805324525766,10.09697969797,2418644.4313814,7542.2842762919,3019904.2171888,15.29697969797,0,0
60.982329963896,-8.8842065910503,10.101410141014,2418644.4313814,7542.2842762919,3019904.2171888,15.301410141014,0,0
60.982330220458,-8.8878807295241,10.105840584058,2418644.4313814,7542.2842762919,3019904.2171888,15.305840584058,0,0
60.98233047702,-8.8915548679978,10.110271027103,2418644.4313814,7542.2842762919,3019904.2171888,15.310271027103,0,0
60.982330733582,-8.8952290064716,10.114701470147,2418644.4313814,7542.2842762919,3019904.2171888,15.314701470147,0,0
60.982330990143,-8.8989031449454,10.119131913191,2418644.4313814,7542.2842762919,3019904.2171888,15.319131913191,0,0
60.982331246705,-8.9025772834191,10.123562356236,2418644.4313814,7542.2842762919,3019904.2171888,15.323562356236,0,0
60.982331503267,-8.9062514218929,10.12799279928,2418644.4313814,7542.2842762919,3019904.2171888,15.32799279928,0,0
60.982331759829,-8.9099255603667,10.132423242324,2418644.4313814,7542.2842762919,3019904.2171888,15.332423242324,0,0
60.98233201639,-8.9135996988404,10.136853685369,2418644.4313814,7542.2842762919,3019904.2171888,15.336853685369,0,0
60.982332272952,-8.9172738373142,10.141284128413,2418644.4313814,7542.2842762919,3019904.2171888,15.341284128413,0,0
60.982332529514,-8.920947975788,10.145714571457,2418644.4313814,7542.2842762919,3019904.2171888,15.345714571457,0,0
60.982332786076,-8.9246221142617,10.150145014501,2418644.4313814,7542.2842762919,3019904.2171888,15.350145014501,0,0
60.982333042637,-8.9282962527355,10.154575457546,2418644.4313814,7542.2842762919,3019904.2171888,15.354575457546,0,0
60.982333299199,-8.9319703912093,10.15900590059,2418644.4313814,7542.2842762919,3019904.2171888,15.35900590059,0,0
60.982333555761,-8.935644529683,10.163436343634,2418644.4313814,7542.2842762919,3019904.2171888,15.363436343634,0,0
60.982333812323,-8.9393186681568,10.167866786679,2418644.4313814,7542.2842762919,3019904.2171888,15.367866786679,0,0
60.982334068885,-8.9429928066306,10.172297229723,2418644.4313814,7542.2842762919,3019904.2171888,15.372297229723,0,0
60.982334325446,-8.9466669451043,10.176727672767,2418644.4313814,7542.2842762919,3019904.2171888,15.376727672767,0,0
60.982334582008,-8.9503410835781,10.181158115812,2418644.4313814,7542.2842762919,3019904.2171888,15.381158115812,0,0
60.98233483857,-8.9540152220519,10.185588558856,2418644.4313814,7542.2842762919,3019904.2171888,15.385588558856,0,0
60.982335095132,-8.9576893605256,10.1900190019,2418644.4313814,7542.2842762919,3019904.2171888,15.3900190019,0,0
60.982335351693,-8.9613634989994,10.194449444944,2418644.4313814,7542.2842762919,3019904.2171888,15.394449444944,0,0
60.982335608255,-8.9650376374732,10.198879887989,2418644.4313814,7542.2842762919,3019904.2171888,15.398879887989,0,0
60.982335864817,-8.9687117759469,10.203310331033,2418644.4313814,7542.2842762919,3019904.2171888,15.403310331033,0,0
60.982336121379,-8.9723859144207,10.207740774077,2418644.4313814,7542.2842762919,3019904.2171888,15.407740774077,0,0
60.98233637794,-8.9760600528944,10.212171217122,2418644.4313814,7542.2842762919,3019904.2171888,15.412171217122,0,0
60.982336635942,-8.9797341898088,10.216601660166,2448610.2140132,14288.947524983,3010551.0707345,15.416601660166,0,0
60.982336895146,-8.9834083254195,10.22103210321,2448610.2140132,14288.947524983,3010551.0707345,15.42103210321,0,0
60.98233715435,-8.9870824610303,10.225462546255,2448610.2140132,14288.947524983,3010551.0707345,15.425462546255,0,0
60.982337413555,-8.990756596641,10.229892989299,2448610.2140132,14288.947524983,3010551.0707345,15.429892989299,0,0
60.982337672759,-8.9944307322518,10.234323432343,2448610.2140132,14288.947524983,3010551.0707345,15.434323432343,0,0
60.982337931963,-8.9981048678625,10.238753875388,2448610.2140132,14288.947524983,3010551.0707345,15.438753875388,0,0
60.982338191168,-9.0017790034732,10.243184318432,2448610.2140132,14288.947524983,3010551.0707345,15.443184318432,0,0
60.982338450372,-9.005453139084,10.247614761476,2448610.2140132,14288.947524983,3010551.0707345,15.447614761476,0,0
60.982338709576,-9.0091272746947,10.25204520452,2448610.2140132,14288.947524983,3010551.0707345,15.45204520452,0,0
60.982338968781,-9.0128014103054,10.256475647565,2448610.2140132,14288.947524983,3010551.0707345,15.456475647565,0,0
60.982339227985,-9.0164755459162,10.260906090609,2448610.2140132,14288.947524983,3010551.0707345,15.460906090609,0,0
60.982339487189,-9.0201496815269,10.265336533653,2448610.2140132,14288.947524983,3010551.0707345,15.465336533653,0,0
60.982339746394,-9.0238238171377,10.269766976698,2448610.2140132,14288.947524983,3010551.0707345,15.469766976698,0,0
60.982340005598,-9.0274979527484,10.274197419742,2448610.2140132,14288.947524983,3010551.0707345,15.474197419742,0,0
60.982340264802,-9.0311720883591,10.278627862786,2448610.2140132,14288.947524983,3010551.0707345,15.478627862786,0,0
60.982340524007,-9.0348462239699,10.283058305831,2448610.2140132,14288.947524983,3010551.0707345,15.483058305831,0,0
60.982340783211,-9.0385203595806,10.287488748875,2448610.2140132,14288.947524983,3010551.0707345,15.487488748875,0,0
60.982341042415,-9.0421944951913,10.291919191919,2448610.2140132,14288.947524983,3010551.0707345,15.491919191919,0,0
60.98234130162,-9.0458686308021,10.296349634963,2448610.2140132,14288.947524983,3010551.0707345,15.496349634963,0,0
60.982341560824,-9.0495427664128,10.300780078008,2448610.2140132,14288.947524983,3010551.0707345,15.500780078008,0,0
60.982341820028,-9.0532169020236,10.305210521052,2448610.2140132,14288.947524983,3010551.0707345,15.505210521052,0,0
60.982342079233,-9.0568910376343,10.309640964096,2448610.2140132,14288.947524983,3010551.0707345,15.509640964096,0,0
60.982342338437,-9.060565173245,10.314071407141,2448610.2140132,14288.947524983,3010551.0707345,15.514071407141,0,0
60.982342597641,-9.0642393088558,10.318501850185,2448610.2140132,14288.947524983,3010551.0707345,15.518501850185,0,0
60.982342856846,-9.0679134444665,10.322932293229,2448610.2140132,14288.947524983,3010551.0707345,15.522932293229,0,0
60.98234311605,-9.0715875800772,10.327362736274,2448610.2140132,14288.947524983,3010551.0707345,15.527362736274,0,0
60.982343375254,-9.075261715688,10.331793179318,2448610.2140132,14288.947524983,3010551.0707345,15.531793179318,0,0
60.982343634459,-9.0789358512987,10.336223622362,2448610.2140132,14288.947524983,3010551.0707345,15.536223622362,0,0
60.982343893663,-9.0826099869095,10.340654065407,2448610.2140132,14288.947524983,3010551.0707345,15.540654065407,0,0
60.982344152867,-9.0862841225202,10.345084508451,2448610.2140132,14288.947524983,3010551.0707345,15.545084508451,0,0
60.982344412072,-9.0899582581309,10.349514951495,2448610.2140132,14288.947524983,3010551.0707345,15.549514951495,0,0
60.982344671276,-9.0936323937417,10.353945394539,2448610.2140132,14288.947524983,3010551.0707345,15.553945394539,0,0
60.98234493048,-9.0973065293524,10.358375837584,2448610.2140132,14288.947524983,3010551.0707345,15.558375837584,0,0
60.982345189685,-9.1009806649631,10.362806280628,2448610.2140132,14288.947524983,3010551.0707345,15.562806280628,0,0
60.982345448889,-9.1046548005739,10.367236723672,2448610.2140132,14288.947524983,3010551.0707345,15.567236723672,0,0
60.982345708093,-9.1083289361846,10.371667166717,2448610.2140132,14288.947524983,3010551.0707345,15.571667166717,0,0
60.982345967298,-9.1120030717954,10.376097609761,2448610.2140132,14288.947524983,3010551.0707345,15.576097609761,0,0
60.982346226502,-9.1156772074061,10.380528052805,2448610.2140132,14288.947524983,3010551.0707345,15.580528052805,0,0
60.982346485706,-9.1193513430168,10.38495849585,2448610.2140132,14288.947524983,3010551.0707345,15.58495849585,0,0
60.982346744911,-9.1230254786276,10.389388938894,2448610.2140132,14288.947524983,3010551.0707345,15.589388938894,0,0
60.982347004115,-9.1266996142383,10.393819381938,2448610.2140132,14288.947524983,3010551.0707345,15.593819381938,0,0
60.982347263938,-9.1303737513811,10.398249824982,2456303.3831783,3087.5518796393,2982488.3269073,15.598249824982,0,0
60.982347524504,-9.1340478903653,10.402680268027,2456303.3831783,3087.5518796393,2982488.3269073,15.602680268027,0,0
60.98234778507,-9.1377220293494,10.407110711071,2456303.3831783,3087.5518796393,2982488.3269073,15.607110711071,0,0
60.982348045636,-9.1413961683335,10.411541154115,2456303.3831783,3087.5518796393,2982488.3269073,15.611541154115,0,0
60.982348306202,-9.1450703073177,10.41597159716,2456303.3831783,3087.5518796393,2982488.3269073,15.61597159716,0,0
60.982348566768,-9.1487444463018,10.420402040204,2456303.3831783,3087.5518796393,2982488.3269073,15.620402040204,0,0
60.982348827334,-9.1524185852859,10.424832483248,2456303.3831783,3087.5518796393,2982488.3269073,15.624832483248,0,0
60.9823490879,-9.1560927242701,10.429262926293,2456303.3831783,3087.5518796393,2982488.3269073,15.629262926293,0,0
60.982349348466,-9.1597668632542,10.433693369337,2456303.3831783,3087.5518796393,2982488.3269073,15.633693369337,0,0
60.982349609032,-9.1634410022383,10.438123812381,2456303.3831783,3087.5518796393,2982488.3269073,15.638123812381,0,0
60.982349869598,-9.1671151412225,10.442554255426,2456303.3831783,3087.5518796393,2982488.3269073,15.642554255426,0,0
60.982350130164,-9.1707892802066,10.44698469847,2456303.3831783,3087.5518796393,2982488.3269073,15.64698469847,0,0
60.98235039073,-9.1744634191908,10.451415141514,2456303.3831783,3087.5518796393,2982488.3269073,15.651415141514,0,0
60.982350651296,-9.1781375581749,10.455845584558,2456303.3831783,3087.5518796393,2982488.3269073,15.655845584558,0,0
60.982350911862,-9.181811697159,10.460276027603,2456303.3831783,3087.5518796393,2982488.3269073,15.660276027603,0,0
60.982351172428,-9.1854858361432,10.464706470647,2456303.3831783,3087.5518796393,2982488.3269073,15.664706470647,0,0
60.982351432994,-9.1891599751273,10.469136913691,2456303.3831783,3087.5518796393,2982488.3269073,15.669136913691,0,0
60.98235169356,-9.1928341141114,10.473567356736,2456303.3831783,3087.5518796393,2982488.3269073,15.673567356736,0,0
60.982351954126,-9.1965082530956,10.47799779978,2456303.3831783,3087.5518796393,2982488.3269073,15.67799779978,0,0
60.982352214692,-9.2001823920797,10.482428242824,2456303.3831783,3087.5518796393,2982488.3269073,15.682428242824,0,0
60.982352475258,-9.2038565310638,10.486858685869,2456303.3831783,3087.5518796393,2982488.3269073,15.686858685869,0,0
60.982352735824,-9.207530670048,10.491289128913,2456303.3831783,3087.5518796393,2982488.3269073,15.691289128913,0,0
60.98235299639,-9.2112048090321,10.495719571957,2456303.3831783,3087.5518796393,2982488.3269073,15.695719571957,0,0
60.982353256956,-9.2148789480162,10.500150015001,2456303.3831783,3087.5518796393,2982488.3269073,15.700150015001,0,0
60.982353517522,-9.2185530870004,10.504580458046,2456303.3831783,3087.5518796393,2982488.3269073,15.704580458046,0,0
60.982353778088,-9.2222272259845,10.50901090109,2456303.3831783,3087.5518796393,2982488.3269073,15.70901090109,0,0
60.982354038654,-9.2259013649687,10.513441344134,2456303.3831783,3087.5518796393,2982488.3269073,15.713441344134,0,0
60.98235429922,-9.2295755039528,10.517871787179,2456303.3831783,3087.5518796393,2982488.3269073,15.717871787179,0,0
60.982354559786,-9.2332496429369,10.522302230223,2456303.3831783,3087.5518796393,2982488.3269073,15.722302230223,0,0
60.982354820352,-9.2369237819211,10.526732673267,2456303.3831783,3087.5518796393,2982488.3269073,15.726732673267,0,0
60.982355080918,-9.2405979209052,10.531163116312,2456303.3831783,3087.5518796393,2982488.3269073,15.731163116312,0,0
60.982355341484,-9.2442720598893,10.535593559356,2456303.3831783,3087.5518796393,2982488.3269073,15.735593559356,0,0
60.98235560205,-9.2479461988735,10.5400240024,2456303.3831783,3087.5518796393,2982488.3269073,15.7400240024,0,0
60.982355862616,-9.2516203378576,10.544454445445,2456303.3831783,3087.5518796393,2982488.3269073,15.744454445445,0,0
60.982356123182,-9.2552944768418,10.548884888489,2456303.3831783,3087.5518796393,2982488.3269073,15.748884888489,0,0
60.982356383748,-9.2589686158259,10.553315331533,2456303.3831783,3087.5518796393,2982488.3269073,15.753315331533,0,0
60.982356644314,-9.26264275481,10.557745774577,2456303.3831783,3087.5518796393,2982488.3269073,15.757745774577,0,0
60.98235690488,-9.2663168937942,10.562176217622,2456303.3831783,3087.5518796393,2982488.3269073,15.762176217622,0,0
60.982357165446,-9.2699910327783,10.566606660666,2456303.3831783,3087.5518796393,2982488.3269073,15.766606660666,0,0
60.982357426012,-9.2736651717624,10.57103710371,2456303.3831783,3087.5518796393,2982488.3269073,15.77103710371,0,0
60.982357686578,-9.2773393107466,10.575467546755,2456303.3831783,3087.5518796393,2982488.3269073,15.775467546755,0,0
60.982357947144,-9.2810134497307,10.579897989799,2456303.3831783,3087.5518796393,2982488.3269073,15.779897989799,0,0
60.98235820771,-9.2846875887148,10.584328432843,2456303.3831783,3087.5518796393,2982488.3269073,15.784328432843,0,0
60.982358468276,-9.288361727699,10.588758875888,2456303.3831783,3087.5518796393,2982488.3269073,15.788758875888,0,0
60.982358728842,-9.2920358666831,10.593189318932,2456303.3831783,3087.5518796393,2982488.3269073,15.793189318932,0,0
60.982358989408,-9.2957100056672,10.597619761976,2456303.3831783,3087.5518796393,2982488.3269073,15.797619761976,0,0
60.982359249974,-9.2993841446514,10.602050205021,2456303.3831783,3087.5518796393,2982488.3269073,15.80205020502,0,0
60.98235951054,-9.3030582836355,10.606480648065,2456303.3831783,3087.5518796393,2982488.3269073,15.806480648065,0,0
60.982359771106,-9.3067324226197,10.610911091109,2456303.3831783,3087.5518796393,2982488.3269073,15.810911091109,0,0
60.982360031672,-9.3104065616038,10.615341534153,2456303.3831783,3087.5518796393,2982488.3269073,15.815341534153,0,0
60.982360292238,-9.3140807005879,10.619771977198,2456303.3831783,3087.5518796393,2982488.3269073,15.819771977198,0,0
60.982360552804,-9.3177548395721,10.624202420242,2456303.3831783,3087.5518796393,2982488.3269073,15.824202420242,0,0
60.98236081337,-9.3214289785562,10.628632863286,2456303.3831783,3087.5518796393,2982488.3269073,15.828632863286,0,0
60.982361073936,-9.3251031175403,10.633063306331,2456303.3831783,3087.5518796393,2982488.3269073,15.833063306331,0,0
60.982361334502,-9.3287772565245,10.637493749375,2456303.3831783,3087.5518796393,2982488.3269073,15.837493749375,0,0
60.982361595068,-9.3324513955086,10.641924192419,2456303.3831783,3087.5518796393,2982488.3269073,15.841924192419,0,0
60.982361855634,-9.3361255344927,10.646354635464,2456303.3831783,3087.5518796393,2982488.3269073,15.846354635464,0,0
60.9823621162,-9.3397996734769,10.650785078508,2456303.3831783,3087.5518796393,2982488.3269073,15.850785078508,0,0
60.982362376766,-9.343473812461,10.655215521552,2456303.3831783,3087.5518796393,2982488.3269073,15.855215521552,0,0
60.982362637333,-9.3471479514452,10.659645964596,2456303.3831783,3087.5518796393,2982488.3269073,15.859645964596,0,0
60.982362897899,-9.3508220904293,10.664076407641,2456303.3831783,3087.5518796393,2982488.3269073,15.864076407641,0,0
60.982363158465,-9.3544962294134,10.668506850685,2456303.3831783,3087.5518796393,2982488.3269073,15.868506850685,0,0
60.982363419031,-9.3581703683976,10.672937293729,2456303.3831783,3087.5518796393,2982488.3269073,15.872937293729,0,0
60.982363679597,-9.3618445073817,10.677367736774,2456303.3831783,3087.5518796393,2982488.3269073,15.877367736774,0,0
60.982363940163,-9.3655186463658,10.681798179818,2456303.3831783,3087.5518796393,2982488.3269073,15.881798179818,0,0
60.982364200729,-9.36919278535,10.686228622862,2456303.3831783,3087.5518796393,2982488.3269073,15.886228622862,0,0
60.982364461295,-9.3728669243341,10.690659065907,2456303.3831783,3087.5518796393,2982488.3269073,15.890659065907,0,0
60.982364721861,-9.3765410633182,10.695089508951,2456303.3831783,3087.5518796393,2982488.3269073,15.895089508951,0,0
60.982364982427,-9.3802152023024,10.699519951995,2456303.3831783,3087.5518796393,2982488.3269073,15.899519951995,0,0
60.982365242993,-9.3838893412865,10.70395039504,2456303.3831783,3087.5518796393,2982488.3269073,15.90395039504,0,0
60.982365503559,-9.3875634802707,10.708380838084,2456303.3831783,3087.5518796393,2982488.3269073,15.908380838084,0,0
60.982365764125,-9.3912376192548,10.712811281128,2456303.3831783,3087.5518796393,2982488.3269073,15.912811281128,0,0
60.982366024691,-9.3949117582389,10.717241724172,2456303.3831783,3087.5518796393,2982488.3269073,15.917241724172,0,0
60.982366285257,-9.3985858972231,10.721672167217,2456303.3831783,3087.5518796393,2982488.3269073,15.921672167217,0,0
60.982366545823,-9.4022600362072,10.726102610261,2456303.3831783,3087.5518796393,2982488.3269073,15.926102610261,0,0
60.982366806389,-9.4059341751913,10.730533053305,2456303.3831783,3087.5518796393,2982488.3269073,15.930533053305,0,0
60.982367066955,-9.4096083141755,10.73496349635,2456303.3831783,3087.5518796393,2982488.3269073,15.93496349635,0,0
60.982367327521,-9.4132824531596,10.739393939394,2456303.3831783,3087.5518796393,2982488.3269073,15.939393939394,0,0
60.982367588087,-9.4169565921437,10.743824382438,2456303.3831783,3087.5518796393,2982488.3269073,15.943824382438,0,0
60.982367848653,-9.4206307311279,10.748254825483,2456303.3831783,3087.5518796393,2982488.3269073,15.948254825483,0,0
60.982368109219,-9.424304870112,10.752685268527,2456303.3831783,3087.5518796393,2982488.3269073,15.952685268527,0,0
60.982368369785,-9.4279790090962,10.757115711571,2456303.3831783,3087.5518796393,2982488.3269073,15.957115711571,0,0
60.982368630351,-9.4316531480803,10.761546154615,2456303.3831783,3087.5518796393,2982488.3269073,15.961546154615,0,0
60.982368890917,-9.4353272870644,10.76597659766,2456303.3831783,3087.5518796393,2982488.3269073,15.96597659766,0,0
60.982369151483,-9.4390014260486,10.770407040704,2456303.3831783,3087.5518796393,2982488.3269073,15.970407040704,0,0
60.982369412049,-9.4426755650327,10.774837483748,2456303.3831783,3087.5518796393,2982488.3269073,15.974837483748,0,0
60.982369672615,-9.4463497040168,10.779267926793,2456303.3831783,3087.5518796393,2982488.3269073,15.979267926793,0,0
60.982369933181,-9.450023843001,10.783698369837,2456303.3831783,3087.5518796393,2982488.3269073,15.983698369837,0,0
60.982370193747,-9.4536979819851,10.788128812881,2456303.3831783,3087.5518796393,2982488.3269073,15.988128812881,0,0
60.982370454313,-9.4573721209692,10.792559255926,2456303.3831783,3087.5518796393,2982488.3269073,15.992559255926,0,0
60.982370714879,-9.4610462599534,10.79698969897,2456303.3831783,3087.5518796393,2982488.3269073,15.99698969897,0,0
60.982370975445,-9.4647203989375,10.801420142014,2456303.3831783,3087.5518796393,2982488.3269073,16.001420142014,0,0
60.982371236011,-9.4683945379216,10.805850585059,2456303.3831783,3087.5518796393,2982488.3269073,16.005850585059,0,0
60.982371496577,-9.4720686769058,10.810281028103,2456303.3831783,3087.5518796393,2982488.3269073,16.010281028103,0,0
60.982371757143,-9.4757428158899,10.814711471147,2456303.3831783,3087.5518796393,2982488.3269073,16.014711471147,0,0
60.982372017709,-9.4794169548741,10.819141914191,2456303.3831783,3087.5518796393,2982488.3269073,16.019141914191,0,0
60.982372278275,-9.4830910938582,10.823572357236,2456303.3831783,3087.5518796393,2982488.3269073,16.023572357236,0,0
60.982372538841,-9.4867652328423,10.82800280028,2456303.3831783,3087.5518796393,2982488.3269073,16.02800280028,0,0
60.982372799407,-9.4904393718265,10.832433243324,2456303.3831783,3087.5518796393,2982488.3269073,16.032433243324,0,0
60.982373059973,-9.4941135108106,10.836863686369,2456303.3831783,3087.5518796393,2982488.3269073,16.036863686369,0,0
60.982373320539,-9.4977876497947,10.841294129413,2456303.3831783,3087.5518796393,2982488.3269073,16.041294129413,0,0
60.982373581105,-9.5014617887789,10.845724572457,2456303.3831783,3087.5518796393,2982488.3269073,16.045724572457,0,0
60.982373841671,-9.505135927763,10.850155015502,2456303.3831783,3087.5518796393,2982488.3269073,16.050155015502,0,0
60.982374102237,-9.5088100667471,10.854585458546,2456303.3831783,3087.5518796393,2982488.3269073,16.054585458546,0,0
60.982374362803,-9.5124842057313,10.85901590159,2456303.3831783,3087.5518796393,2982488.3269073,16.05901590159,0,0
60.982374623369,-9.5161583447154,10.863446344634,2456303.3831783,3087.5518796393,2982488.3269073,16.063446344634,0,0
60.982374883935,-9.5198324836996,10.867876787679,2456303.3831783,3087.5518796393,2982488.3269073,16.067876787679,0,0
60.982375144501,-9.5235066226837,10.872307230723,2456303.3831783,3087.5518796393,2982488.3269073,16.072307230723,0,0
60.982375405067,-9.5271807616678,10.876737673767,2456303.3831783,3087.5518796393,2982488.3269073,16.076737673767,0,0
60.982375665633,-9.530854900652,10.881168116812,2456303.3831783,3087.5518796393,2982488.3269073,16.081168116812,0,0
60.982375926199,-9.5345290396361,10.885598559856,2456303.3831783,3087.5518796393,2982488.3269073,16.085598559856,0,0
60.982376186765,-9.5382031786202,10.8900290029,2456303.3831783,3087.5518796393,2982488.3269073,16.0900290029,0,0
60.982376447331,-9.5418773176044,10.894459445945,2456303.3831783,3087.5518796393,2982488.3269073,16.094459445945,0,0
60.982376707897,-9.5455514565885,10.898889888989,2456303.3831783,3087.5518796393,2982488.3269073,16.098889888989,0,0
60.982376968463,-9.5492255955726,10.903320332033,2456303.3831783,3087.5518796393,2982488.3269073,16.103320332033,0,0
60.982377229029,-9.5528997345568,10.907750775078,2456303.3831783,3087.5518796393,2982488.3269073,16.107750775078,0,0
60.982377489595,-9.5565738735409,10.912181218122,2456303.3831783,3087.5518796393,2982488.3269073,16.112181218122,0,0
60.982377750161,-9.5602480125251,10.916611661166,2456303.3831783,3087.5518796393,2982488.3269073,16.116611661166,0,0
60.982378010727,-9.5639221515092,10.92104210421,2456303.3831783,3087.5518796393,2982488.3269073,16.12104210421,0,0
60.982378271293,-9.5675962904933,10.925472547255,2456303.3831783,3087.5518796393,2982488.3269073,16.125472547255,0,0
60.982378531859,-9.5712704294775,10.929902990299,2456303.3831783,3087.5518796393,2982488.3269073,16.129902990299,0,0
60.982378792425,-9.5749445684616,10.934333433343,2456303.3831783,3087.5518796393,2982488.3269073,16.134333433343,0,0
60.982379052991,-9.5786187074457,10.938763876388,2456303.3831783,3087.5518796393,2982488.3269073,16.138763876388,0,0
60.982379313557,-9.5822928464299,10.943194319432,2456303.3831783,3087.5518796393,2982488.3269073,16.143194319432,0,0
60.982379574123,-9.585966985414,10.947624762476,2456303.3831783,3087.5518796393,2982488.3269073,16.147624762476,0,0
60.982379834689,-9.5896411243981,10.952055205521,2456303.3831783,3087.5518796393,2982488.3269073,16.152055205521,0,0
60.982380095255,-9.5933152633823,10.956485648565,2456303.3831783,3087.5518796393,2982488.3269073,16.156485648565,0,0
60.982380355821,-9.5969894023664,10.960916091609,2456303.3831783,3087.5518796393,2982488.3269073,16.160916091609,0,0
60.982380616387,-9.6006635413506,10.965346534653,2456303.3831783,3087.5518796393,2982488.3269073,16.165346534653,0,0
60.982380876953,-9.6043376803347,10.969776977698,2456303.3831783,3087.5518796393,2982488.3269073,16.169776977698,0,0
60.982381137519,-9.6080118193188,10.974207420742,2456303.3831783,3087.5518796393,2982488.3269073,16.174207420742,0,0
60.982381398085,-9.611685958303,10.978637863786,2456303.3831783,3087.5518796393,2982488.3269073,16.178637863786,0,0
60.982381658651,-9.6153600972871,10.983068306831,2456303.3831783,3087.5518796393,2982488.3269073,16.183068306831,0,0
60.982381919217,-9.6190342362712,10.987498749875,2456303.3831783,3087.5518796393,2982488.3269073,16.187498749875,0,0
60.982382179783,-9.6227083752554,10.991929192919,2456303.3831783,3087.5518796393,2982488.3269073,16.191929192919,0,0
60.982382440349,-9.6263825142395,10.996359635964,2456303.3831783,3087.5518796393,2982488.3269073,16.196359635964,0,0
60.982382700915,-9.6300566532236,11.000790079008,2456303.3831783,3087.5518796393,2982488.3269073,16.200790079008,0,0
60.982382961481,-9.6337307922078,11.005220522052,2456303.3831783,3087.5518796393,2982488.3269073,16.205220522052,0,0
60.982383222047,-9.6374049311919,11.009650965097,2456303.3831783,3087.5518796393,2982488.3269073,16.209650965097,0,0
60.982383482614,-9.6410790701761,11.014081408141,2456303.3831783,3087.5518796393,2982488.3269073,16.214081408141,0,0
60.98238374318,-9.6447532091602,11.018511851185,2456303.3831783,3087.5518796393,2982488.3269073,16.218511851185,0,0
60.982384003746,-9.6484273481443,11.022942294229,2456303.3831783,3087.5518796393,2982488.3269073,16.222942294229,0,0
60.982384264312,-9.6521014871285,11.027372737274,2456303.3831783,3087.5518796393,2982488.3269073,16.227372737274,0,0
60.982384524878,-9.6557756261126,11.031803180318,2456303.3831783,3087.5518796393,2982488.3269073,16.231803180318,0,0
60.982384785444,-9.6594497650967,11.036233623362,2456303.3831783,3087.5518796393,2982488.3269073,16.236233623362,0,0
60.98238504601,-9.6631239040809,11.040664066407,2456303.3831783,3087.5518796393,2982488.3269073,16.240664066407,0,0
60.982385306576,-9.666798043065,11.045094509451,2456303.3831783,3087.5518796393,2982488.3269073,16.245094509451,0,0
60.982385567142,-9.6704721820491,11.049524952495,2456303.3831783,3087.5518796393,2982488.3269073,16.249524952495,0,0
60.982385827708,-9.6741463210333,11.05395539554,2456303.3831783,3087.5518796393,2982488.3269073,16.25395539554,0,0
60.982386088274,-9.6778204600174,11.058385838584,2456303.3831783,3087.5518796393,2982488.3269073,16.258385838584,0,0
60.98238634884,-9.6814945990015,11.062816281628,2456303.3831783,3087.5518796393,2982488.3269073,16.262816281628,0,0
60.982386609406,-9.6851687379857,11.067246724672,2456303.3831783,3087.5518796393,2982488.3269073,16.267246724672,0,0
60.982386869972,-9.6888428769698,11.071677167717,2456303.3831783,3087.5518796393,2982488.3269073,16.271677167717,0,0
60.982387130538,-9.692517015954,11.076107610761,2456303.3831783,3087.5518796393,2982488.3269073,16.276107610761,0,0
60.982387391104,-9.6961911549381,11.080538053805,2456303.3831783,3087.5518796393,2982488.3269073,16.280538053805,0,0
60.98238765167,-9.6998652939222,11.08496849685,2456303.3831783,3087.5518796393,2982488.3269073,16.28496849685,0,0
60.982387912236,-9.7035394329064,11.089398939894,2456303.3831783,3087.5518796393,2982488.3269073,16.289398939894,0,0
60.982388172802,-9.7072135718905,11.093829382938,2456303.3831783,3087.5518796393,2982488.3269073,16.293829382938,0,0
60.982388433368,-9.7108877108746,11.098259825983,2456303.3831783,3087.5518796393,2982488.3269073,16.298259825983,0,0
60.982388693934,-9.7145618498588,11.102690269027,2456303.3831783,3087.5518796393,2982488.3269073,16.302690269027,0,0
60.9823889545,-9.7182359888429,11.107120712071,2456303.3831783,3087.5518796393,2982488.3269073,16.307120712071,0,0
60.982389215066,-9.721910127827,11.111551155116,2456303.3831783,3087.5518796393,2982488.3269073,16.311551155116,0,0
60.982389475632,-9.7255842668112,11.11598159816,2456303.3831783,3087.5518796393,2982488.3269073,16.31598159816,0,0
60.982389736198,-9.7292584057953,11.120412041204,2456303.3831783,3087.5518796393,2982488.3269073,16.320412041204,0,0
60.982389996764,-9.7329325447795,11.124842484248,2456303.3831783,3087.5518796393,2982488.3269073,16.324842484248,0,0
60.98239025733,-9.7366066837636,11.129272927293,2456303.3831783,3087.5518796393,2982488.3269073,16.329272927293,0,0
60.982390517896,-9.7402808227477,11.133703370337,2456303.3831783,3087.5518796393,2982488.3269073,16.333703370337,0,0
60.982390778462,-9.7439549617319,11.138133813381,2456303.3831783,3087.5518796393,2982488.3269073,16.338133813381,0,0
60.982391039028,-9.747629100716,11.142564256426,2456303.3831783,3087.5518796393,2982488.3269073,16.342564256426,0,0
60.982391299594,-9.7513032397001,11.14699469947,2456303.3831783,3087.5518796393,2982488.3269073,16.34699469947,0,0
60.98239156016,-9.7549773786843,11.151425142514,2456303.3831783,3087.5518796393,2982488.3269073,16.351425142514,0,0
60.982391820726,-9.7586515176684,11.155855585559,2456303.3831783,3087.5518796393,2982488.3269073,16.355855585559,0,0
60.982392081292,-9.7623256566525,11.160286028603,2456303.3831783,3087.5518796393,2982488.3269073,16.360286028603,0,0
60.982392341858,-9.7659997956367,11.164716471647,2456303.3831783,3087.5518796393,2982488.3269073,16.364716471647,0,0
60.982392602424,-9.7696739346208,11.169146914691,2456303.3831783,3087.5518796393,2982488.3269073,16.369146914691,0,0
60.98239286299,-9.773348073605,11.173577357736,2456303.3831783,3087.5518796393,2982488.3269073,16.373577357736,0,0
60.982393123556,-9.7770222125891,11.17800780078,2456303.3831783,3087.5518796393,2982488.3269073,16.37800780078,0,0
60.982393384122,-9.7806963515732,11.182438243824,2456303.3831783,3087.5518796393,2982488.3269073,16.382438243824,0,0
60.982393644688,-9.7843704905574,11.186868686869,2456303.3831783,3087.5518796393,2982488.3269073,16.386868686869,0,0
60.982393905254,-9.7880446295415,11.191299129913,2456303.3831783,3087.5518796393,2982488.3269073,16.391299129913,0,0
60.98239416582,-9.7917187685256,11.195729572957,2456303.3831783,3087.5518796393,2982488.3269073,16.395729572957,0,0
60.982394426386,-9.7953929075098,11.200160016002,2456303.3831783,3087.5518796393,2982488.3269073,16.400160016002,0,0
60.982394686952,-9.7990670464939,11.204590459046,2456303.3831783,3087.5518796393,2982488.3269073,16.404590459046,0,0
60.982394947518,-9.802741185478,11.20902090209,2456303.3831783,3087.5518796393,2982488.3269073,16.40902090209,0,0
60.982395208084,-9.8064153244622,11.213451345135,2456303.3831783,3087.5518796393,2982488.3269073,16.413451345135,0,0
60.98239546865,-9.8100894634463,11.217881788179,2456303.3831783,3087.5518796393,2982488.3269073,16.417881788179,0,0
60.982395729216,-9.8137636024305,11.222312231223,2456303.3831783,3087.5518796393,2982488.3269073,16.422312231223,0,0
60.982395990462,-9.8174377406115,11.226742674267,2481684.3750061,10051.493065839,2973182.496642,16.426742674267,0,0
60.982396253304,-9.8211118769101,11.231173117312,2481684.3750061,10051.493065839,2973182.496642,16.431173117312,0,0
60.982396516145,-9.8247860132087,11.235603560356,2481684.3750061,10051.493065839,2973182.496642,16.435603560356,0,0
60.982396778986,-9.8284601495073,11.2400340034,2481684.3750061,10051.493065839,2973182.496642,16.4400340034,0,0
60.982397041827,-9.8321342858059,11.244464446445,2481684.3750061,10051.493065839,2973182.496642,16.444464446445,0,0
60.982397304668,-9.8358084221045,11.248894889489,2481684.3750061,10051.493065839,2973182.496642,16.448894889489,0,0
60.982397567509,-9.8394825584031,11.253325332533,2481684.3750061,10051.493065839,2973182.496642,16.453325332533,0,0
60.98239783035,-9.8431566947017,11.257755775578,2481684.3750061,10051.493065839,2973182.496642,16.457755775578,0,0
60.982398093191,-9.8468308310003,11.262186218622,2481684.3750061,10051.493065839,2973182.496642,16.462186218622,0,0
60.982398356032,-9.8505049672989,11.266616661666,2481684.3750061,10051.493065839,2973182.496642,16.466616661666,0,0
60.982398618874,-9.8541791035975,11.27104710471,2481684.3750061,10051.493065839,2973182.496642,16.47104710471,0,0
60.982398881715,-9.8578532398961,11.275477547755,2481684.3750061,10051.493065839,2973182.496642,16.475477547755,0,0
60.982399144556,-9.8615273761947,11.279907990799,2481684.3750061,10051.493065839,2973182.496642,16.479907990799,0,0
60.982399407397,-9.8652015124933,11.284338433843,2481684.3750061,10051.493065839,2973182.496642,16.484338433843,0,0
60.982399670238,-9.8688756487919,11.288768876888,2481684.3750061,10051.493065839,2973182.496642,16.488768876888,0,0
60.982399933079,-9.8725497850905,11.293199319932,2481684.3750061,10051.493065839,2973182.496642,16.493199319932,0,0
60.98240019592,-9.8762239213891,11.297629762976,2481684.3750061,10051.493065839,2973182.496642,16.497629762976,0,0
60.982400458761,-9.8798980576877,11.302060206021,2481684.3750061,10051.493065839,2973182.496642,16.502060206021,0,0
60.982400721602,-9.8835721939863,11.306490649065,2481684.3750061,10051.493065839,2973182.496642,16.506490649065,0,0
60.982400984444,-9.8872463302849,11.310921092109,2481684.3750061,10051.493065839,2973182.496642,16.510921092109,0,0
60.982401247285,-9.8909204665835,11.315351535154,2481684.3750061,10051.493065839,2973182.496642,16.515351535154,0,0
60.982401510126,-9.8945946028821,11.319781978198,2481684.3750061,10051.493065839,2973182.496642,16.519781978198,0,0
60.982401772967,-9.8982687391807,11.324212421242,2481684.3750061,10051.493065839,2973182.496642,16.524212421242,0,0
60.982402035808,-9.9019428754793,11.328642864286,2481684.3750061,10051.493065839,2973182.496642,16.528642864286,0,0
60.982402298649,-9.9056170117779,11.333073307331,2481684.3750061,10051.493065839,2973182.496642,16.533073307331,0,0
60.98240256149,-9.9092911480765,11.337503750375,2481684.3750061,10051.493065839,2973182.496642,16.537503750375,0,0
60.982402824331,-9.9129652843751,11.341934193419,2481684.3750061,10051.493065839,2973182.496642,16.541934193419,0,0
60.982403087172,-9.9166394206737,11.346364636464,2481684.3750061,10051.493065839,2973182.496642,16.546364636464,0,0
60.982403350013,-9.9203135569723,11.350795079508,2481684.3750061,10051.493065839,2973182.496642,16.550795079508,0,0
60.982403612855,-9.9239876932709,11.355225522552,2481684.3750061,10051.493065839,2973182.496642,16.555225522552,0,0
60.982403875696,-9.9276618295695,11.359655965597,2481684.3750061,10051.493065839,2973182.496642,16.559655965597,0,0
60.982404138537,-9.9313359658681,11.364086408641,2481684.3750061,10051.493065839,2973182.496642,16.564086408641,0,0
60.982404401378,-9.9350101021667,11.368516851685,2481684.3750061,10051.493065839,2973182.496642,16.568516851685,0,0
60.982404664219,-9.9386842384653,11.372947294729,2481684.3750061,10051.493065839,2973182.496642,16.572947294729,0,0
60.98240492706,-9.9423583747639,11.377377737774,2481684.3750061,10051.493065839,2973182.496642,16.577377737774,0,0
60.982405189901,-9.9460325110625,11.381808180818,2481684.3750061,10051.493065839,2973182.496642,16.581808180818,0,0
60.982405452742,-9.9497066473611,11.386238623862,2481684.3750061,10051.493065839,2973182.496642,16.586238623862,0,0
60.982405715583,-9.9533807836597,11.390669066907,2481684.3750061,10051.493065839,2973182.496642,16.590669066907,0,0
60.982405978425,-9.9570549199583,11.395099509951,2481684.3750061,10051.493065839,2973182.496642,16.595099509951,0,0
60.982406241266,-9.9607290562569,11.399529952995,2481684.3750061,10051.493065839,2973182.496642,16.599529952995,0,0
60.982406504107,-9.9644031925555,11.40396039604,2481684.3750061,10051.493065839,2973182.496642,16.60396039604,0,0
60.982406766948,-9.9680773288541,11.408390839084,2481684.3750061,10051.493065839,2973182.496642,16.608390839084,0,0
60.982407029789,-9.9717514651527,11.412821282128,2481684.3750061,10051.493065839,2973182.496642,16.612821282128,0,0
60.98240729263,-9.9754256014513,11.417251725173,2481684.3750061,10051.493065839,2973182.496642,16.617251725173,0,0
60.982407555471,-9.9790997377499,11.421682168217,2481684.3750061,10051.493065839,2973182.496642,16.621682168217,0,0
60.982407818312,-9.9827738740485,11.426112611261,2481684.3750061,10051.493065839,2973182.496642,16.626112611261,0,0
60.982408081153,-9.9864480103471,11.430543054305,2481684.3750061,10051.493065839,2973182.496642,16.630543054305,0,0
60.982408343995,-9.9901221466457,11.43497349735,2481684.3750061,10051.493065839,2973182.496642,16.63497349735,0,0
60.982408606836,-9.9937962829443,11.439403940394,2481684.3750061,10051.493065839,2973182.496642,16.639403940394,0,0
60.982408869677,-9.9974704192429,11.443834383438,2481684.3750061,10051.493065839,2973182.496642,16.643834383438,0,0
60.982409132518,-10.001144555542,11.448264826483,2481684.3750061,10051.493065839,2973182.496642,16.648264826483,0,0
60.982409395359,-10.00481869184,11.452695269527,2481684.3750061,10051.493065839,2973182.496642,16.652695269527,0,0
60.9824096582,-10.008492828139,11.457125712571,2481684.3750061,10051.493065839,2973182.496642,16.657125712571,0,0
60.982409921041,-10.012166964437,11.461556155616,2481684.3750061,10051.493065839,2973182.496642,16.661556155616,0,0
60.982410183882,-10.015841100736,11.46598659866,2481684.3750061,10051.493065839,2973182.496642,16.66598659866,0,0
60.982410446723,-10.019515237035,11.470417041704,2481684.3750061,10051.493065839,2973182.496642,16.670417041704,0,0
60.982410709565,-10.023189373333,11.474847484748,2481684.3750061,10051.493065839,2973182.496642,16.674847484748,0,0
60.982410972406,-10.026863509632,11.479277927793,2481684.3750061,10051.493065839,2973182.496642,16.679277927793,0,0
60.982411235247,-10.03053764593,11.483708370837,2481684.3750061,10051.493065839,2973182.496642,16.683708370837,0,0
60.982411498088,-10.034211782229,11.488138813881,2481684.3750061,10051.493065839,2973182.496642,16.688138813881,0,0
60.982411760929,-10.037885918528,11.492569256926,2481684.3750061,10051.493065839,2973182.496642,16.692569256926,0,0
60.98241202377,-10.041560054826,11.49699969997,2481684.3750061,10051.493065839,2973182.496642,16.69699969997,0,0
60.982412286611,-10.045234191125,11.501430143014,2481684.3750061,10051.493065839,2973182.496642,16.701430143014,0,0
60.982412549452,-10.048908327423,11.505860586059,2481684.3750061,10051.493065839,2973182.496642,16.705860586059,0,0
60.982412812293,-10.052582463722,11.510291029103,2481684.3750061,10051.493065839,2973182.496642,16.710291029103,0,0
60.982413075135,-10.056256600021,11.514721472147,2481684.3750061,10051.493065839,2973182.496642,16.714721472147,0,0
60.982413337976,-10.059930736319,11.519151915192,2481684.3750061,10051.493065839,2973182.496642,16.719151915192,0,0
60.982413600817,-10.063604872618,11.523582358236,2481684.3750061,10051.493065839,2973182.496642,16.723582358236,0,0
60.982413863658,-10.067279008916,11.52801280128,2481684.3750061,10051.493065839,2973182.496642,16.72801280128,0,0
60.982414126627,-10.0709531455,11.532443244324,2491696.4606193,-80.475820800514,2951435.5917926,16.732443244324,0,0
60.982414390847,-10.074627284859,11.536873687369,2491696.4606193,-80.475820800514,2951435.5917926,16.736873687369,0,0
60.982414655067,-10.078301424218,11.541304130413,2491696.4606193,-80.475820800514,2951435.5917926,16.741304130413,0,0
60.982414919287,-10.081975563577,11.545734573457,2491696.4606193,-80.475820800514,2951435.5917926,16.745734573457,0,0
60.982415183507,-10.085649702937,11.550165016502,2491696.4606193,-80.475820800514,2951435.5917926,16.750165016502,0,0
60.982415447726,-10.089323842296,11.554595459546,2491696.4606193,-80.475820800514,2951435.5917926,16.754595459546,0,0
60.982415711946,-10.092997981655,11.55902590259,2491696.4606193,-80.475820800514,2951435.5917926,16.75902590259,0,0
60.982415976166,-10.096672121015,11.563456345635,2491696.4606193,-80.475820800514,2951435.5917926,16.763456345635,0,0
60.982416240386,-10.100346260374,11.567886788679,2491696.4606193,-80.475820800514,2951435.5917926,16.767886788679,0,0
60.982416504606,-10.104020399733,11.572317231723,2491696.4606193,-80.475820800514,2951435.5917926,16.772317231723,0,0
60.982416768826,-10.107694539093,11.576747674767,2491696.4606193,-80.475820800514,2951435.5917926,16.776747674767,0,0
60.982417033046,-10.111368678452,11.581178117812,2491696.4606193,-80.475820800514,2951435.5917926,16.781178117812,0,0
60.982417297265,-10.115042817811,11.585608560856,2491696.4606193,-80.475820800514,2951435.5917926,16.785608560856,0,0
60.982417561485,-10.11871695717,11.5900390039,2491696.4606193,-80.475820800514,2951435.5917926,16.7900390039,0,0
60.982417825705,-10.12239109653,11.594469446945,2491696.4606193,-80.475820800514,2951435.5917926,16.794469446945,0,0
60.982418089925,-10.126065235889,11.598899889989,2491696.4606193,-80.475820800514,2951435.5917926,16.798899889989,0,0
60.982418354145,-10.129739375248,11.603330333033,2491696.4606193,-80.475820800514,2951435.5917926,16.803330333033,0,0
60.982418618365,-10.133413514608,11.607760776078,2491696.4606193,-80.475820800514,2951435.5917926,16.807760776078,0,0
60.982418882584,-10.137087653967,11.612191219122,2491696.4606193,-80.475820800514,2951435.5917926,16.812191219122,0,0
60.982419146804,-10.140761793326,11.616621662166,2491696.4606193,-80.475820800514,2951435.5917926,16.816621662166,0,0
60.982419411024,-10.144435932685,11.621052105211,2491696.4606193,-80.475820800514,2951435.5917926,16.821052105211,0,0
60.982419675244,-10.148110072045,11.625482548255,2491696.4606193,-80.475820800514,2951435.5917926,16.825482548255,0,0
60.982419939464,-10.151784211404,11.629912991299,2491696.4606193,-80.475820800514,2951435.5917926,16.829912991299,0,0
60.982420203684,-10.155458350763,11.634343434343,2491696.4606193,-80.475820800514,2951435.5917926,16.834343434343,0,0
60.982420467904,-10.159132490123,11.638773877388,2491696.4606193,-80.475820800514,2951435.5917926,16.838773877388,0,0
60.982420732123,-10.162806629482,11.643204320432,2491696.4606193,-80.475820800514,2951435.5917926,16.843204320432,0,0
60.982420996343,-10.166480768841,11.647634763476,2491696.4606193,-80.475820800514,2951435.5917926,16.847634763476,0,0
60.982421260563,-10.170154908201,11.652065206521,2491696.4606193,-80.475820800514,2951435.5917926,16.852065206521,0,0
60.982421524783,-10.17382904756,11.656495649565,2491696.4606193,-80.475820800514,2951435.5917926,16.856495649565,0,0
60.982421789003,-10.177503186919,11.660926092609,2491696.4606193,-80.475820800514,2951435.5917926,16.860926092609,0,0
60.982422053223,-10.181177326278,11.665356535654,2491696.4606193,-80.475820800514,2951435.5917926,16.865356535654,0,0
60.982422317443,-10.184851465638,11.669786978698,2491696.4606193,-80.475820800514,2951435.5917926,16.869786978698,0,0
60.982422581662,-10.188525604997,11.674217421742,2491696.4606193,-80.475820800514,2951435.5917926,16.874217421742,0,0
60.982422845882,-10.192199744356,11.678647864786,2491696.4606193,-80.475820800514,2951435.5917926,16.878647864786,0,0
60.982423110102,-10.195873883716,11.683078307831,2491696.4606193,-80.475820800514,2951435.5917926,16.883078307831,0,0
60.982423374322,-10.199548023075,11.687508750875,2491696.4606193,-80.475820800514,2951435.5917926,16.887508750875,0,0
60.982423638542,-10.203222162434,11.691939193919,2491696.4606193,-80.475820800514,2951435.5917926,16.891939193919,0,0
60.982423902762,-10.206896301793,11.696369636964,2491696.4606193,-80.475820800514,2951435.5917926,16.896369636964,0,0
60.982424166981,-10.210570441153,11.700800080008,2491696.4606193,-80.475820800514,2951435.5917926,16.900800080008,0,0
60.982424431201,-10.214244580512,11.705230523052,2491696.4606193,-80.475820800514,2951435.5917926,16.905230523052,0,0
60.982424695421,-10.217918719871,11.709660966097,2491696.4606193,-80.475820800514,2951435.5917926,16.909660966097,0,0
60.982424959641,-10.221592859231,11.714091409141,2491696.4606193,-80.475820800514,2951435.5917926,16.914091409141,0,0
60.982425223861,-10.22526699859,11.718521852185,2491696.4606193,-80.475820800514,2951435.5917926,16.918521852185,0,0
60.982425488081,-10.228941137949,11.72295229523,2491696.4606193,-80.475820800514,2951435.5917926,16.92295229523,0,0
60.982425752301,-10.232615277309,11.727382738274,2491696.4606193,-80.475820800514,2951435.5917926,16.927382738274,0,0
60.98242601652,-10.236289416668,11.731813181318,2491696.4606193,-80.475820800514,2951435.5917926,16.931813181318,0,0
60.98242628074,-10.239963556027,11.736243624362,2491696.4606193,-80.475820800514,2951435.5917926,16.936243624362,0,0
60.98242654496,-10.243637695386,11.740674067407,2491696.4606193,-80.475820800514,2951435.5917926,16.940674067407,0,0
60.98242680918,-10.247311834746,11.745104510451,2491696.4606193,-80.475820800514,2951435.5917926,16.945104510451,0,0
60.9824270734,-10.250985974105,11.749534953495,2491696.4606193,-80.475820800514,2951435.5917926,16.949534953495,0,0
60.98242733762,-10.254660113464,11.75396539654,2491696.4606193,-80.475820800514,2951435.5917926,16.95396539654,0,0
60.982427601839,-10.258334252824,11.758395839584,2491696.4606193,-80.475820800514,2951435.5917926,16.958395839584,0,0
60.982427866059,-10.262008392183,11.762826282628,2491696.4606193,-80.475820800514,2951435.5917926,16.962826282628,0,0
60.982428130279,-10.265682531542,11.767256725673,2491696.4606193,-80.475820800514,2951435.5917926,16.967256725673,0,0
60.982428394499,-10.269356670902,11.771687168717,2491696.4606193,-80.475820800514,2951435.5917926,16.971687168717,0,0
60.982428658719,-10.273030810261,11.776117611761,2491696.4606193,-80.475820800514,2951435.5917926,16.976117611761,0,0
60.982428922939,-10.27670494962,11.780548054805,2491696.4606193,-80.475820800514,2951435.5917926,16.980548054805,0,0
60.982429187159,-10.280379088979,11.78497849785,2491696.4606193,-80.475820800514,2951435.5917926,16.98497849785,0,0
60.982429451378,-10.284053228339,11.789408940894,2491696.4606193,-80.475820800514,2951435.5917926,16.989408940894,0,0
60.982429715598,-10.287727367698,11.793839383938,2491696.4606193,-80.475820800514,2951435.5917926,16.993839383938,0,0
60.982429979818,-10.291401507057,11.798269826983,2491696.4606193,-80.475820800514,2951435.5917926,16.998269826983,0,0
60.982430244038,-10.295075646417,11.802700270027,2491696.4606193,-80.475820800514,2951435.5917926,17.002700270027,0,0
60.982430508258,-10.298749785776,11.807130713071,2491696.4606193,-80.475820800514,2951435.5917926,17.007130713071,0,0
60.982430772478,-10.302423925135,11.811561156116,2491696.4606193,-80.475820800514,2951435.5917926,17.011561156116,0,0
60.982431036698,-10.306098064494,11.81599159916,2491696.4606193,-80.475820800514,2951435.5917926,17.01599159916,0,0
60.982431300917,-10.309772203854,11.820422042204,2491696.4606193,-80.475820800514,2951435.5917926,17.020422042204,0,0
60.982431565137,-10.313446343213,11.824852485249,2491696.4606193,-80.475820800514,2951435.5917926,17.024852485249,0,0
60.982431829357,-10.317120482572,11.829282928293,2491696.4606193,-80.475820800514,2951435.5917926,17.029282928293,0,0
60.982432093577,-10.320794621932,11.833713371337,2491696.4606193,-80.475820800514,2951435.5917926,17.033713371337,0,0
60.982432357797,-10.324468761291,11.838143814381,2491696.4606193,-80.475820800514,2951435.5917926,17.038143814381,0,0
60.982432622017,-10.32814290065,11.842574257426,2491696.4606193,-80.475820800514,2951435.5917926,17.042574257426,0,0
60.982432886236,-10.33181704001,11.84700470047,2491696.4606193,-80.475820800514,2951435.5917926,17.04700470047,0,0
60.982433150456,-10.335491179369,11.851435143514,2491696.4606193,-80.475820800514,2951435.5917926,17.051435143514,0,0
60.982433414676,-10.339165318728,11.855865586559,2491696.4606193,-80.475820800514,2951435.5917926,17.055865586559,0,0
60.982433678896,-10.342839458087,11.860296029603,2491696.4606193,-80.475820800514,2951435.5917926,17.060296029603,0,0
60.982433943116,-10.346513597447,11.864726472647,2491696.4606193,-80.475820800514,2951435.5917926,17.064726472647,0,0
60.982434207336,-10.350187736806,11.869156915692,2491696.4606193,-80.475820800514,2951435.5917926,17.069156915692,0,0
60.982434471556,-10.353861876165,11.873587358736,2491696.4606193,-80.475820800514,2951435.5917926,17.073587358736,0,0
60.982434735775,-10.357536015525,11.87801780178,2491696.4606193,-80.475820800514,2951435.5917926,17.07801780178,0,0
60.982434999995,-10.361210154884,11.882448244824,2491696.4606193,-80.475820800514,2951435.5917926,17.082448244824,0,0
60.982435264215,-10.364884294243,11.886878687869,2491696.4606193,-80.475820800514,2951435.5917926,17.086878687869,0,0
60.982435528435,-10.368558433603,11.891309130913,2491696.4606193,-80.475820800514,2951435.5917926,17.091309130913,0,0
60.982435792655,-10.372232572962,11.895739573957,2491696.4606193,-80.475820800514,2951435.5917926,17.095739573957,0,0
60.982436056875,-10.375906712321,11.900170017002,2491696.4606193,-80.475820800514,2951435.5917926,17.100170017002,0,0
60.982436321095,-10.37958085168,11.904600460046,2491696.4606193,-80.475820800514,2951435.5917926,17.104600460046,0,0
60.982436585314,-10.38325499104,11.90903090309,2491696.4606193,-80.475820800514,2951435.5917926,17.10903090309,0,0
60.982436849534,-10.386929130399,11.913461346135,2491696.4606193,-80.475820800514,2951435.5917926,17.113461346135,0,0
60.982437113754,-10.390603269758,11.917891789179,2491696.4606193,-80.475820800514,2951435.5917926,17.117891789179,0,0
60.982437377974,-10.394277409118,11.922322232223,2491696.4606193,-80.475820800514,2951435.5917926,17.122322232223,0,0
60.982437642194,-10.397951548477,11.926752675268,2491696.4606193,-80.475820800514,2951435.5917926,17.126752675268,0,0
60.982437906414,-10.401625687836,11.931183118312,2491696.4606193,-80.475820800514,2951435.5917926,17.131183118312,0,0
60.982438170633,-10.405299827195,11.935613561356,2491696.4606193,-80.475820800514,2951435.5917926,17.135613561356,0,0
60.982438434853,-10.408973966555,11.9400440044,2491696.4606193,-80.475820800514,2951435.5917926,17.1400440044,0,0
60.982438699073,-10.412648105914,11.944474447445,2491696.4606193,-80.475820800514,2951435.5917926,17.144474447445,0,0
60.982438963293,-10.416322245273,11.948904890489,2491696.4606193,-80.475820800514,2951435.5917926,17.148904890489,0,0
60.982439227513,-10.419996384633,11.953335333533,2491696.4606193,-80.475820800514,2951435.5917926,17.153335333533,0,0
60.982439491733,-10.423670523992,11.957765776578,2491696.4606193,-80.475820800514,2951435.5917926,17.157765776578,0,0
60.982439755953,-10.427344663351,11.962196219622,2491696.4606193,-80.475820800514,2951435.5917926,17.162196219622,0,0
60.982440020172,-10.431018802711,11.966626662666,2491696.4606193,-80.475820800514,2951435.5917926,17.166626662666,0,0
60.982440284392,-10.43469294207,11.971057105711,2491696.4606193,-80.475820800514,2951435.5917926,17.171057105711,0,0
60.982440548612,-10.438367081429,11.975487548755,2491696.4606193,-80.475820800514,2951435.5917926,17.175487548755,0,0
60.982440812832,-10.442041220788,11.979917991799,2491696.4606193,-80.475820800514,2951435.5917926,17.179917991799,0,0
60.982441077052,-10.445715360148,11.984348434843,2491696.4606193,-80.475820800514,2951435.5917926,17.184348434843,0,0
60.982441341272,-10.449389499507,11.988778877888,2491696.4606193,-80.475820800514,2951435.5917926,17.188778877888,0,0
60.982441605492,-10.453063638866,11.993209320932,2491696.4606193,-80.475820800514,2951435.5917926,17.193209320932,0,0
60.982441869711,-10.456737778226,11.997639763976,2491696.4606193,-80.475820800514,2951435.5917926,17.197639763976,0,0
60.982442133931,-10.460411917585,12.002070207021,2491696.4606193,-80.475820800514,2951435.5917926,17.202070207021,0,0
60.982442398151,-10.464086056944,12.006500650065,2491696.4606193,-80.475820800514,2951435.5917926,17.206500650065,0,0
60.982442662371,-10.467760196304,12.010931093109,2491696.4606193,-80.475820800514,2951435.5917926,17.210931093109,0,0
60.982442926591,-10.471434335663,12.015361536154,2491696.4606193,-80.475820800514,2951435.5917926,17.215361536154,0,0
60.982443190811,-10.475108475022,12.019791979198,2491696.4606193,-80.475820800514,2951435.5917926,17.219791979198,0,0
60.98244345503,-10.478782614381,12.024222422242,2491696.4606193,-80.475820800514,2951435.5917926,17.224222422242,0,0
60.98244371925,-10.482456753741,12.028652865287,2491696.4606193,-80.475820800514,2951435.5917926,17.228652865287,0,0
60.98244398347,-10.4861308931,12.033083308331,2491696.4606193,-80.475820800514,2951435.5917926,17.233083308331,0,0
60.98244424769,-10.489805032459,12.037513751375,2491696.4606193,-80.475820800514,2951435.5917926,17.237513751375,0,0
60.98244451191,-10.493479171819,12.041944194419,2491696.4606193,-80.475820800514,2951435.5917926,17.241944194419,0,0
60.98244477613,-10.497153311178,12.046374637464,2491696.4606193,-80.475820800514,2951435.5917926,17.246374637464,0,0
60.98244504035,-10.500827450537,12.050805080508,2491696.4606193,-80.475820800514,2951435.5917926,17.250805080508,0,0
60.982445304569,-10.504501589896,12.055235523552,2491696.4606193,-80.475820800514,2951435.5917926,17.255235523552,0,0
60.982445568789,-10.508175729256,12.059665966597,2491696.4606193,-80.475820800514,2951435.5917926,17.259665966597,0,0
60.982445833009,-10.511849868615,12.064096409641,2491696.4606193,-80.475820800514,2951435.5917926,17.264096409641,0,0
60.982446097229,-10.515524007974,12.068526852685,2491696.4606193,-80.475820800514,2951435.5917926,17.268526852685,0,0
60.982446361449,-10.519198147334,12.07295729573,2491696.4606193,-80.475820800514,2951435.5917926,17.27295729573,0,0
60.982446625669,-10.522872286693,12.077387738774,2491696.4606193,-80.475820800514,2951435.5917926,17.277387738774,0,0
60.982446889888,-10.526546426052,12.081818181818,2491696.4606193,-80.475820800514,2951435.5917926,17.281818181818,0,0
60.982447154108,-10.530220565412,12.086248624862,2491696.4606193,-80.475820800514,2951435.5917926,17.286248624862,0,0
60.982447418328,-10.533894704771,12.090679067907,2491696.4606193,-80.475820800514,2951435.5917926,17.290679067907,0,0
60.982447682548,-10.53756884413,12.095109510951,2491696.4606193,-80.475820800514,2951435.5917926,17.295109510951,0,0
60.982447946768,-10.541242983489,12.099539953995,2491696.4606193,-80.475820800514,2951435.5917926,17.299539953995,0,0
60.982448210988,-10.544917122849,12.10397039704,2491696.4606193,-80.475820800514,2951435.5917926,17.30397039704,0,0
60.982448475208,-10.548591262208,12.108400840084,2491696.4606193,-80.475820800514,2951435.5917926,17.308400840084,0,0
60.982448739427,-10.552265401567,12.112831283128,2491696.4606193,-80.475820800514,2951435.5917926,17.312831283128,0,0
60.982449003647,-10.555939540927,12.117261726173,2491696.4606193,-80.475820800514,2951435.5917926,17.317261726173,0,0
60.982449267867,-10.559613680286,12.121692169217,2491696.4606193,-80.475820800514,2951435.5917926,17.321692169217,0,0
60.982449532087,-10.563287819645,12.126122612261,2491696.4606193,-80.475820800514,2951435.5917926,17.326122612261,0,0
60.982449796307,-10.566961959005,12.130553055306,2491696.4606193,-80.475820800514,2951435.5917926,17.330553055306,0,0
60.982450060527,-10.570636098364,12.13498349835,2491696.4606193,-80.475820800514,2951435.5917926,17.33498349835,0,0
60.982450324747,-10.574310237723,12.139413941394,2491696.4606193,-80.475820800514,2951435.5917926,17.339413941394,0,0
60.982450588966,-10.577984377082,12.143844384438,2491696.4606193,-80.475820800514,2951435.5917926,17.343844384438,0,0
60.982450853186,-10.581658516442,12.148274827483,2491696.4606193,-80.475820800514,2951435.5917926,17.348274827483,0,0
60.982451117406,-10.585332655801,12.152705270527,2491696.4606193,-80.475820800514,2951435.5917926,17.352705270527,0,0
60.982451381626,-10.58900679516,12.157135713571,2491696.4606193,-80.475820800514,2951435.5917926,17.357135713571,0,0
60.982451645846,-10.59268093452,12.161566156616,2491696.4606193,-80.475820800514,2951435.5917926,17.361566156616,0,0
60.982451910066,-10.596355073879,12.16599659966,2491696.4606193,-80.475820800514,2951435.5917926,17.36599659966,0,0
60.982452174285,-10.600029213238,12.170427042704,2491696.4606193,-80.475820800514,2951435.5917926,17.370427042704,0,0
60.982452438505,-10.603703352597,12.174857485749,2491696.4606193,-80.475820800514,2951435.5917926,17.374857485749,0,0
60.982452702725,-10.607377491957,12.179287928793,2491696.4606193,-80.475820800514,2951435.5917926,17.379287928793,0,0
60.982452966945,-10.611051631316,12.183718371837,2491696.4606193,-80.475820800514,2951435.5917926,17.383718371837,0,0
60.982453231165,-10.614725770675,12.188148814881,2491696.4606193,-80.475820800514,2951435.5917926,17.388148814881,0,0
60.982453495385,-10.618399910035,12.192579257926,2491696.4606193,-80.475820800514,2951435.5917926,17.392579257926,0,0
60.982453759605,-10.622074049394,12.19700970097,2491696.4606193,-80.475820800514,2951435.5917926,17.39700970097,0,0
60.982454023824,-10.625748188753,12.201440144014,2491696.4606193,-80.475820800514,2951435.5917926,17.401440144014,0,0
60.982454288044,-10.629422328113,12.205870587059,2491696.4606193,-80.475820800514,2951435.5917926,17.405870587059,0,0
60.982454552264,-10.633096467472,12.210301030103,2491696.4606193,-80.475820800514,2951435.5917926,17.410301030103,0,0
60.982454816484,-10.636770606831,12.214731473147,2491696.4606193,-80.475820800514,2951435.5917926,17.414731473147,0,0
60.982455080704,-10.64044474619,12.219161916192,2491696.4606193,-80.475820800514,2951435.5917926,17.419161916192,0,0
60.982455344924,-10.64411888555,12.223592359236,2491696.4606193,-80.475820800514,2951435.5917926,17.423592359236,0,0
60.982455609144,-10.647793024909,12.22802280228,2491696.4606193,-80.475820800514,2951435.5917926,17.42802280228,0,0
60.982455873363,-10.651467164268,12.232453245325,2491696.4606193,-80.475820800514,2951435.5917926,17.432453245325,0,0
60.982456137583,-10.655141303628,12.236883688369,2491696.4606193,-80.475820800514,2951435.5917926,17.436883688369,0,0
60.982456401803,-10.658815442987,12.241314131413,2491696.4606193,-80.475820800514,2951435.5917926,17.441314131413,0,0
60.982456666023,-10.662489582346,12.245744574457,2491696.4606193,-80.475820800514,2951435.5917926,17.445744574457,0,0
60.982456930243,-10.666163721705,12.250175017502,2491696.4606193,-80.475820800514,2951435.5917926,17.450175017502,0,0
60.982457194463,-10.669837861065,12.254605460546,2491696.4606193,-80.475820800514,2951435.5917926,17.454605460546,0,0
60.982457458682,-10.673512000424,12.25903590359,2491696.4606193,-80.475820800514,2951435.5917926,17.45903590359,0,0
60.982457722902,-10.677186139783,12.263466346635,2491696.4606193,-80.475820800514,2951435.5917926,17.463466346635,0,0
60.982457987122,-10.680860279143,12.267896789679,2491696.4606193,-80.475820800514,2951435.5917926,17.467896789679,0,0
60.982458251342,-10.684534418502,12.272327232723,2491696.4606193,-80.475820800514,2951435.5917926,17.472327232723,0,0
60.982458515562,-10.688208557861,12.276757675768,2491696.4606193,-80.475820800514,2951435.5917926,17.476757675768,0,0
60.982458779782,-10.691882697221,12.281188118812,2491696.4606193,-80.475820800514,2951435.5917926,17.481188118812,0,0
60.982459044002,-10.69555683658,12.285618561856,2491696.4606193,-80.475820800514,2951435.5917926,17.485618561856,0,0
60.982459308221,-10.699230975939,12.2900490049,2491696.4606193,-80.475820800514,2951435.5917926,17.4900490049,0,0
60.982459572441,-10.702905115298,12.294479447945,2491696.4606193,-80.475820800514,2951435.5917926,17.494479447945,0,0
60.982459836661,-10.706579254658,12.298909890989,2491696.4606193,-80.475820800514,2951435.5917926,17.498909890989,0,0
60.982460100881,-10.710253394017,12.303340334033,2491696.4606193,-80.475820800514,2951435.5917926,17.503340334033,0,0
60.982460365101,-10.713927533376,12.307770777078,2491696.4606193,-80.475820800514,2951435.5917926,17.507770777078,0,0
60.982460629321,-10.717601672736,12.312201220122,2491696.4606193,-80.475820800514,2951435.5917926,17.512201220122,0,0
60.98246089354,-10.721275812095,12.316631663166,2491696.4606193,-80.475820800514,2951435.5917926,17.516631663166,0,0
60.982461158391,-10.724949950624,12.321062106211,2515380.5207283,8294.6452601164,2942402.5713127,17.521062106211,0,0
60.982461424743,-10.728624087173,12.325492549255,2515380.5207283,8294.6452601164,2942402.5713127,17.525492549255,0,0
60.982461691095,-10.732298223722,12.329922992299,2515380.5207283,8294.6452601164,2942402.5713127,17.529922992299,0,0
60.982461957447,-10.735972360272,12.334353435344,2515380.5207283,8294.6452601164,2942402.5713127,17.534353435344,0,0
60.982462223799,-10.739646496821,12.338783878388,2515380.5207283,8294.6452601164,2942402.5713127,17.538783878388,0,0
60.982462490151,-10.74332063337,12.343214321432,2515380.5207283,8294.6452601164,2942402.5713127,17.543214321432,0,0
60.982462756504,-10.74699476992,12.347644764476,2515380.5207283,8294.6452601164,2942402.5713127,17.547644764476,0,0
60.982463022856,-10.750668906469,12.352075207521,2515380.5207283,8294.6452601164,2942402.5713127,17.552075207521,0,0
60.982463289208,-10.754343043018,12.356505650565,2515380.5207283,8294.6452601164,2942402.5713127,17.556505650565,0,0
60.98246355556,-10.758017179568,12.360936093609,2515380.5207283,8294.6452601164,2942402.5713127,17.560936093609,0,0
60.982463821912,-10.761691316117,12.365366536654,2515380.5207283,8294.6452601164,2942402.5713127,17.565366536654,0,0
60.982464088264,-10.765365452666,12.369796979698,2515380.5207283,8294.6452601164,2942402.5713127,17.569796979698,0,0
60.982464354616,-10.769039589216,12.374227422742,2515380.5207283,8294.6452601164,2942402.5713127,17.574227422742,0,0
60.982464620968,-10.772713725765,12.378657865787,2515380.5207283,8294.6452601164,2942402.5713127,17.578657865787,0,0
60.982464887321,-10.776387862314,12.383088308831,2515380.5207283,8294.6452601164,2942402.5713127,17.583088308831,0,0
60.982465153673,-10.780061998864,12.387518751875,2515380.5207283,8294.6452601164,2942402.5713127,17.587518751875,0,0
60.982465420025,-10.783736135413,12.391949194919,2515380.5207283,8294.6452601164,2942402.5713127,17.591949194919,0,0
60.982465686377,-10.787410271962,12.396379637964,2515380.5207283,8294.6452601164,2942402.5713127,17.596379637964,0,0
60.982465952729,-10.791084408512,12.400810081008,2515380.5207283,8294.6452601164,2942402.5713127,17.600810081008,0,0
60.982466219081,-10.794758545061,12.405240524052,2515380.5207283,8294.6452601164,2942402.5713127,17.605240524052,0,0
60.982466485433,-10.79843268161,12.409670967097,2515380.5207283,8294.6452601164,2942402.5713127,17.609670967097,0,0
60.982466751786,-10.80210681816,12.414101410141,2515380.5207283,8294.6452601164,2942402.5713127,17.614101410141,0,0
60.982467018138,-10.805780954709,12.418531853185,2515380.5207283,8294.6452601164,2942402.5713127,17.618531853185,0,0
60.98246728449,-10.809455091259,12.42296229623,2515380.5207283,8294.6452601164,2942402.5713127,17.62296229623,0,0
60.982467550842,-10.813129227808,12.427392739274,2515380.5207283,8294.6452601164,2942402.5713127,17.627392739274,0,0
60.982467817194,-10.816803364357,12.431823182318,2515380.5207283,8294.6452601164,2942402.5713127,17.631823182318,0,0
60.982468083546,-10.820477500907,12.436253625363,2515380.5207283,8294.6452601164,2942402.5713127,17.636253625363,0,0
60.982468349898,-10.824151637456,12.440684068407,2515380.5207283,8294.6452601164,2942402.5713127,17.640684068407,0,0
60.982468616251,-10.827825774005,12.445114511451,2515380.5207283,8294.6452601164,2942402.5713127,17.645114511451,0,0
60.982468882603,-10.831499910555,12.449544954495,2515380.5207283,8294.6452601164,2942402.5713127,17.649544954495,0,0
60.982469148955,-10.835174047104,12.45397539754,2515380.5207283,8294.6452601164,2942402.5713127,17.65397539754,0,0
60.982469415307,-10.838848183653,12.458405840584,2515380.5207283,8294.6452601164,2942402.5713127,17.658405840584,0,0
60.982469681659,-10.842522320203,12.462836283628,2515380.5207283,8294.6452601164,2942402.5713127,17.662836283628,0,0
60.982469948011,-10.846196456752,12.467266726673,2515380.5207283,8294.6452601164,2942402.5713127,17.667266726673,0,0
60.982470214363,-10.849870593301,12.471697169717,2515380.5207283,8294.6452601164,2942402.5713127,17.671697169717,0,0
60.982470480716,-10.853544729851,12.476127612761,2515380.5207283,8294.6452601164,2942402.5713127,17.676127612761,0,0
60.982470747068,-10.8572188664,12.480558055806,2515380.5207283,8294.6452601164,2942402.5713127,17.680558055806,0,0
60.98247101342,-10.860893002949,12.48498849885,2515380.5207283,8294.6452601164,2942402.5713127,17.68498849885,0,0
60.982471279772,-10.864567139499,12.489418941894,2515380.5207283,8294.6452601164,2942402.5713127,17.689418941894,0,0
60.982471546124,-10.868241276048,12.493849384938,2515380.5207283,8294.6452601164,2942402.5713127,17.693849384938,0,0
60.982471812476,-10.871915412597,12.498279827983,2515380.5207283,8294.6452601164,2942402.5713127,17.698279827983,0,0
60.982472078828,-10.875589549147,12.502710271027,2515380.5207283,8294.6452601164,2942402.5713127,17.702710271027,0,0
60.98247234518,-10.879263685696,12.507140714071,2515380.5207283,8294.6452601164,2942402.5713127,17.707140714071,0,0
60.982472611533,-10.882937822245,12.511571157116,2515380.5207283,8294.6452601164,2942402.5713127,17.711571157116,0,0
60.982472877885,-10.886611958795,12.51600160016,2515380.5207283,8294.6452601164,2942402.5713127,17.71600160016,0,0
60.982473144237,-10.890286095344,12.520432043204,2515380.5207283,8294.6452601164,2942402.5713127,17.720432043204,0,0
60.982473410589,-10.893960231893,12.524862486249,2515380.5207283,8294.6452601164,2942402.5713127,17.724862486249,0,0
60.982473676941,-10.897634368443,12.529292929293,2515380.5207283,8294.6452601164,2942402.5713127,17.729292929293,0,0
60.982473943293,-10.901308504992,12.533723372337,2515380.5207283,8294.6452601164,2942402.5713127,17.733723372337,0,0
60.982474209645,-10.904982641542,12.538153815382,2515380.5207283,8294.6452601164,2942402.5713127,17.738153815382,0,0
60.982474475998,-10.908656778091,12.542584258426,2515380.5207283,8294.6452601164,2942402.5713127,17.742584258426,0,0
60.98247474235,-10.91233091464,12.54701470147,2515380.5207283,8294.6452601164,2942402.5713127,17.74701470147,0,0
60.982475008702,-10.91600505119,12.551445144514,2515380.5207283,8294.6452601164,2942402.5713127,17.751445144514,0,0
60.982475275054,-10.919679187739,12.555875587559,2515380.5207283,8294.6452601164,2942402.5713127,17.755875587559,0,0
60.982475541406,-10.923353324288,12.560306030603,2515380.5207283,8294.6452601164,2942402.5713127,17.760306030603,0,0
60.982475807758,-10.927027460838,12.564736473647,2515380.5207283,8294.6452601164,2942402.5713127,17.764736473647,0,0
60.98247607411,-10.930701597387,12.569166916692,2515380.5207283,8294.6452601164,2942402.5713127,17.769166916692,0,0
60.982476340463,-10.934375733936,12.573597359736,2515380.5207283,8294.6452601164,2942402.5713127,17.773597359736,0,0
60.982476606815,-10.938049870486,12.57802780278,2515380.5207283,8294.6452601164,2942402.5713127,17.77802780278,0,0
60.982476873167,-10.941724007035,12.582458245825,2515380.5207283,8294.6452601164,2942402.5713127,17.782458245825,0,0
60.982477139519,-10.945398143584,12.586888688869,2515380.5207283,8294.6452601164,2942402.5713127,17.786888688869,0,0
60.982477405871,-10.949072280134,12.591319131913,2515380.5207283,8294.6452601164,2942402.5713127,17.791319131913,0,0
60.982477672223,-10.952746416683,12.595749574957,2515380.5207283,8294.6452601164,2942402.5713127,17.795749574957,0,0
60.982477938575,-10.956420553232,12.600180018002,2515380.5207283,8294.6452601164,2942402.5713127,17.800180018002,0,0
60.982478204928,-10.960094689782,12.604610461046,2515380.5207283,8294.6452601164,2942402.5713127,17.804610461046,0,0
60.98247847128,-10.963768826331,12.60904090409,2515380.5207283,8294.6452601164,2942402.5713127,17.80904090409,0,0
60.982478737632,-10.96744296288,12.613471347135,2515380.5207283,8294.6452601164,2942402.5713127,17.813471347135,0,0
60.982479003984,-10.97111709943,12.617901790179,2515380.5207283,8294.6452601164,2942402.5713127,17.817901790179,0,0
60.982479270336,-10.974791235979,12.622332233223,2515380.5207283,8294.6452601164,2942402.5713127,17.822332233223,0,0
60.982479536688,-10.978465372528,12.626762676268,2515380.5207283,8294.6452601164,2942402.5713127,17.826762676268,0,0
60.98247980304,-10.982139509078,12.631193119312,2515380.5207283,8294.6452601164,2942402.5713127,17.831193119312,0,0
60.982480069392,-10.985813645627,12.635623562356,2515380.5207283,8294.6452601164,2942402.5713127,17.835623562356,0,0
60.982480335745,-10.989487782176,12.640054005401,2515380.5207283,8294.6452601164,2942402.5713127,17.840054005401,0,0
60.982480602097,-10.993161918726,12.644484448445,2515380.5207283,8294.6452601164,2942402.5713127,17.844484448445,0,0
60.982480868449,-10.996836055275,12.648914891489,2515380.5207283,8294.6452601164,2942402.5713127,17.848914891489,0,0
60.982481134801,-11.000510191825,12.653345334533,2515380.5207283,8294.6452601164,2942402.5713127,17.853345334533,0,0
60.982481401153,-11.004184328374,12.657775777578,2515380.5207283,8294.6452601164,2942402.5713127,17.857775777578,0,0
60.982481667505,-11.007858464923,12.662206220622,2515380.5207283,8294.6452601164,2942402.5713127,17.862206220622,0,0
60.982481933857,-11.011532601473,12.666636663666,2515380.5207283,8294.6452601164,2942402.5713127,17.866636663666,0,0
60.98248220021,-11.015206738022,12.671067106711,2515380.5207283,8294.6452601164,2942402.5713127,17.871067106711,0,0
60.982482466562,-11.018880874571,12.675497549755,2515380.5207283,8294.6452601164,2942402.5713127,17.875497549755,0,0
60.982482732914,-11.022555011121,12.679927992799,2515380.5207283,8294.6452601164,2942402.5713127,17.879927992799,0,0
60.982482999266,-11.02622914767,12.684358435844,2515380.5207283,8294.6452601164,2942402.5713127,17.884358435844,0,0
60.982483265618,-11.029903284219,12.688788878888,2515380.5207283,8294.6452601164,2942402.5713127,17.888788878888,0,0
60.98248353197,-11.033577420769,12.693219321932,2515380.5207283,8294.6452601164,2942402.5713127,17.893219321932,0,0
60.982483798322,-11.037251557318,12.697649764976,2515380.5207283,8294.6452601164,2942402.5713127,17.897649764976,0,0
60.982484064675,-11.040925693867,12.702080208021,2515380.5207283,8294.6452601164,2942402.5713127,17.902080208021,0,0
60.982484331027,-11.044599830417,12.706510651065,2515380.5207283,8294.6452601164,2942402.5713127,17.906510651065,0,0
60.982484597379,-11.048273966966,12.710941094109,2515380.5207283,8294.6452601164,2942402.5713127,17.910941094109,0,0
60.982484863731,-11.051948103515,12.715371537154,2515380.5207283,8294.6452601164,2942402.5713127,17.915371537154,0,0
60.982485130083,-11.055622240065,12.719801980198,2515380.5207283,8294.6452601164,2942402.5713127,17.919801980198,0,0
60.982485396435,-11.059296376614,12.724232423242,2515380.5207283,8294.6452601164,2942402.5713127,17.924232423242,0,0
60.982485662787,-11.062970513163,12.728662866287,2515380.5207283,8294.6452601164,2942402.5713127,17.928662866287,0,0
60.98248592914,-11.066644649713,12.733093309331,2515380.5207283,8294.6452601164,2942402.5713127,17.933093309331,0,0
60.982486195492,-11.070318786262,12.737523752375,2515380.5207283,8294.6452601164,2942402.5713127,17.937523752375,0,0
60.982486462253,-11.07399292391,12.74195419542,2521115.3503151,-1187.8474061632,2922115.0604813,17.94195419542,0,0
60.982486729603,-11.07766706314,12.746384638464,2521115.3503151,-1187.8474061632,2922115.0604813,17.946384638464,0,0
60.982486996954,-11.081341202369,12.750815081508,2521115.3503151,-1187.8474061632,2922115.0604813,17.950815081508,0,0
60.982487264304,-11.085015341599,12.755245524552,2521115.3503151,-1187.8474061632,2922115.0604813,17.955245524552,0,0
60.982487531655,-11.088689480828,12.759675967597,2521115.3503151,-1187.8474061632,2922115.0604813,17.959675967597,0,0
60.982487799005,-11.092363620058,12.764106410641,2521115.3503151,-1187.8474061632,2922115.0604813,17.964106410641,0,0
60.982488066355,-11.096037759287,12.768536853685,2521115.3503151,-1187.8474061632,2922115.0604813,17.968536853685,0,0
60.982488333706,-11.099711898517,12.77296729673,2521115.3503151,-1187.8474061632,2922115.0604813,17.97296729673,0,0
60.982488601056,-11.103386037747,12.777397739774,2521115.3503151,-1187.8474061632,2922115.0604813,17.977397739774,0,0
60.982488868406,-11.107060176976,12.781828182818,2521115.3503151,-1187.8474061632,2922115.0604813,17.981828182818,0,0
60.982489135757,-11.110734316206,12.786258625863,2521115.3503151,-1187.8474061632,2922115.0604813,17.986258625863,0,0
60.982489403107,-11.114408455435,12.790689068907,2521115.3503151,-1187.8474061632,2922115.0604813,17.990689068907,0,0
60.982489670458,-11.118082594665,12.795119511951,2521115.3503151,-1187.8474061632,2922115.0604813,17.995119511951,0,0
60.982489937808,-11.121756733894,12.799549954995,2521115.3503151,-1187.8474061632,2922115.0604813,17.999549954995,0,0
60.982490205158,-11.125430873124,12.80398039804,2521115.3503151,-1187.8474061632,2922115.0604813,18.00398039804,0,0
60.982490472509,-11.129105012353,12.808410841084,2521115.3503151,-1187.8474061632,2922115.0604813,18.008410841084,0,0
60.982490739859,-11.132779151583,12.812841284128,2521115.3503151,-1187.8474061632,2922115.0604813,18.012841284128,0,0
60.982491007209,-11.136453290813,12.817271727173,2521115.3503151,-1187.8474061632,2922115.0604813,18.017271727173,0,0
60.98249127456,-11.140127430042,12.821702170217,2521115.3503151,-1187.8474061632,2922115.0604813,18.021702170217,0,0
60.98249154191,-11.143801569272,12.826132613261,2521115.3503151,-1187.8474061632,2922115.0604813,18.026132613261,0,0
60.98249180926,-11.147475708501,12.830563056306,2521115.3503151,-1187.8474061632,2922115.0604813,18.030563056306,0,0
60.982492076611,-11.151149847731,12.83499349935,2521115.3503151,-1187.8474061632,2922115.0604813,18.03499349935,0,0
60.982492343961,-11.15482398696,12.839423942394,2521115.3503151,-1187.8474061632,2922115.0604813,18.039423942394,0,0
60.982492611312,-11.15849812619,12.843854385439,2521115.3503151,-1187.8474061632,2922115.0604813,18.043854385439,0,0
60.982492878662,-11.162172265419,12.848284828483,2521115.3503151,-1187.8474061632,2922115.0604813,18.048284828483,0,0
60.982493146012,-11.165846404649,12.852715271527,2521115.3503151,-1187.8474061632,2922115.0604813,18.052715271527,0,0
60.982493413363,-11.169520543878,12.857145714571,2521115.3503151,-1187.8474061632,2922115.0604813,18.057145714571,0,0
60.982493680713,-11.173194683108,12.861576157616,2521115.3503151,-1187.8474061632,2922115.0604813,18.061576157616,0,0
60.982493948063,-11.176868822338,12.86600660066,2521115.3503151,-1187.8474061632,2922115.0604813,18.06600660066,0,0
60.982494215414,-11.180542961567,12.870437043704,2521115.3503151,-1187.8474061632,2922115.0604813,18.070437043704,0,0
60.982494482764,-11.184217100797,12.874867486749,2521115.3503151,-1187.8474061632,2922115.0604813,18.074867486749,0,0
60.982494750115,-11.187891240026,12.879297929793,2521115.3503151,-1187.8474061632,2922115.0604813,18.079297929793,0,0
60.982495017465,-11.191565379256,12.883728372837,2521115.3503151,-1187.8474061632,2922115.0604813,18.083728372837,0,0
60.982495284815,-11.195239518485,12.888158815882,2521115.3503151,-1187.8474061632,2922115.0604813,18.088158815882,0,0
60.982495552166,-11.198913657715,12.892589258926,2521115.3503151,-1187.8474061632,2922115.0604813,18.092589258926,0,0
60.982495819516,-11.202587796944,12.89701970197,2521115.3503151,-1187.8474061632,2922115.0604813,18.09701970197,0,0
60.982496086866,-11.206261936174,12.901450145015,2521115.3503151,-1187.8474061632,2922115.0604813,18.101450145014,0,0
60.982496354217,-11.209936075404,12.905880588059,2521115.3503151,-1187.8474061632,2922115.0604813,18.105880588059,0,0
60.982496621567,-11.213610214633,12.910311031103,2521115.3503151,-1187.8474061632,2922115.0604813,18.110311031103,0,0
60.982496888918,-11.217284353863,12.914741474147,2521115.3503151,-1187.8474061632,2922115.0604813,18.114741474147,0,0
60.982497156268,-11.220958493092,12.919171917192,2521115.3503151,-1187.8474061632,2922115.0604813,18.119171917192,0,0
60.982497423618,-11.224632632322,12.923602360236,2521115.3503151,-1187.8474061632,2922115.0604813,18.123602360236,0,0
60.982497690969,-11.228306771551,12.92803280328,2521115.3503151,-1187.8474061632,2922115.0604813,18.12803280328,0,0
60.982497958319,-11.231980910781,12.932463246325,2521115.3503151,-1187.8474061632,2922115.0604813,18.132463246325,0,0
60.982498225669,-11.23565505001,12.936893689369,2521115.3503151,-1187.8474061632,2922115.0604813,18.136893689369,0,0
60.98249849302,-11.23932918924,12.941324132413,2521115.3503151,-1187.8474061632,2922115.0604813,18.141324132413,0,0
60.98249876037,-11.243003328469,12.945754575458,2521115.3503151,-1187.8474061632,2922115.0604813,18.145754575458,0,0
60.982499027721,-11.246677467699,12.950185018502,2521115.3503151,-1187.8474061632,2922115.0604813,18.150185018502,0,0
60.982499295071,-11.250351606929,12.954615461546,2521115.3503151,-1187.8474061632,2922115.0604813,18.154615461546,0,0
60.982499562421,-11.254025746158,12.95904590459,2521115.3503151,-1187.8474061632,2922115.0604813,18.15904590459,0,0
60.982499829772,-11.257699885388,12.963476347635,2521115.3503151,-1187.8474061632,2922115.0604813,18.163476347635,0,0
60.982500097122,-11.261374024617,12.967906790679,2521115.3503151,-1187.8474061632,2922115.0604813,18.167906790679,0,0
60.982500364472,-11.265048163847,12.972337233723,2521115.3503151,-1187.8474061632,2922115.0604813,18.172337233723,0,0
60.982500631823,-11.268722303076,12.976767676768,2521115.3503151,-1187.8474061632,2922115.0604813,18.176767676768,0,0
60.982500899173,-11.272396442306,12.981198119812,2521115.3503151,-1187.8474061632,2922115.0604813,18.181198119812,0,0
60.982501166524,-11.276070581535,12.985628562856,2521115.3503151,-1187.8474061632,2922115.0604813,18.185628562856,0,0
60.982501433874,-11.279744720765,12.990059005901,2521115.3503151,-1187.8474061632,2922115.0604813,18.190059005901,0,0
60.982501701224,-11.283418859995,12.994489448945,2521115.3503151,-1187.8474061632,2922115.0604813,18.194489448945,0,0
60.982501968575,-11.287092999224,12.998919891989,2521115.3503151,-1187.8474061632,2922115.0604813,18.198919891989,0,0
60.982502235925,-11.290767138454,13.003350335034,2521115.3503151,-1187.8474061632,2922115.0604813,18.203350335034,0,0
60.982502503275,-11.294441277683,13.007780778078,2521115.3503151,-1187.8474061632,2922115.0604813,18.207780778078,0,0
60.982502770626,-11.298115416913,13.012211221122,2521115.3503151,-1187.8474061632,2922115.0604813,18.212211221122,0,0
60.982503037976,-11.301789556142,13.016641664166,2521115.3503151,-1187.8474061632,2922115.0604813,18.216641664166,0,0
60.982503305327,-11.305463695372,13.021072107211,2521115.3503151,-1187.8474061632,2922115.0604813,18.221072107211,0,0
60.982503572677,-11.309137834601,13.025502550255,2521115.3503151,-1187.8474061632,2922115.0604813,18.225502550255,0,0
60.982503840027,-11.312811973831,13.029932993299,2521115.3503151,-1187.8474061632,2922115.0604813,18.229932993299,0,0
60.982504107378,-11.31648611306,13.034363436344,2521115.3503151,-1187.8474061632,2922115.0604813,18.234363436344,0,0
60.982504374728,-11.32016025229,13.038793879388,2521115.3503151,-1187.8474061632,2922115.0604813,18.238793879388,0,0
60.982504642078,-11.32383439152,13.043224322432,2521115.3503151,-1187.8474061632,2922115.0604813,18.243224322432,0,0
60.982504909429,-11.327508530749,13.047654765477,2521115.3503151,-1187.8474061632,2922115.0604813,18.247654765477,0,0
60.982505176779,-11.331182669979,13.052085208521,2521115.3503151,-1187.8474061632,2922115.0604813,18.252085208521,0,0
60.98250544413,-11.334856809208,13.056515651565,2521115.3503151,-1187.8474061632,2922115.0604813,18.256515651565,0,0
60.98250571148,-11.338530948438,13.060946094609,2521115.3503151,-1187.8474061632,2922115.0604813,18.260946094609,0,0
60.98250597883,-11.342205087667,13.065376537654,2521115.3503151,-1187.8474061632,2922115.0604813,18.265376537654,0,0
60.982506246181,-11.345879226897,13.069806980698,2521115.3503151,-1187.8474061632,2922115.0604813,18.269806980698,0,0
60.982506513531,-11.349553366126,13.074237423742,2521115.3503151,-1187.8474061632,2922115.0604813,18.274237423742,0,0
60.982506780881,-11.353227505356,13.078667866787,2521115.3503151,-1187.8474061632,2922115.0604813,18.278667866787,0,0
60.982507048232,-11.356901644586,13.083098309831,2521115.3503151,-1187.8474061632,2922115.0604813,18.283098309831,0,0
60.982507315582,-11.360575783815,13.087528752875,2521115.3503151,-1187.8474061632,2922115.0604813,18.287528752875,0,0
60.982507582932,-11.364249923045,13.09195919592,2521115.3503151,-1187.8474061632,2922115.0604813,18.29195919592,0,0
60.982507850283,-11.367924062274,13.096389638964,2521115.3503151,-1187.8474061632,2922115.0604813,18.296389638964,0,0
60.982508117633,-11.371598201504,13.100820082008,2521115.3503151,-1187.8474061632,2922115.0604813,18.300820082008,0,0
60.982508384984,-11.375272340733,13.105250525053,2521115.3503151,-1187.8474061632,2922115.0604813,18.305250525053,0,0
60.982508652334,-11.378946479963,13.109680968097,2521115.3503151,-1187.8474061632,2922115.0604813,18.309680968097,0,0
60.982508919684,-11.382620619192,13.114111411141,2521115.3503151,-1187.8474061632,2922115.0604813,18.314111411141,0,0
60.982509187035,-11.386294758422,13.118541854185,2521115.3503151,-1187.8474061632,2922115.0604813,18.318541854185,0,0
60.982509454385,-11.389968897651,13.12297229723,2521115.3503151,-1187.8474061632,2922115.0604813,18.32297229723,0,0
60.982509721735,-11.393643036881,13.127402740274,2521115.3503151,-1187.8474061632,2922115.0604813,18.327402740274,0,0
60.982509989086,-11.397317176111,13.131833183318,2521115.3503151,-1187.8474061632,2922115.0604813,18.331833183318,0,0
60.982510256436,-11.40099131534,13.136263626363,2521115.3503151,-1187.8474061632,2922115.0604813,18.336263626363,0,0
60.982510523787,-11.40466545457,13.140694069407,2521115.3503151,-1187.8474061632,2922115.0604813,18.340694069407,0,0
60.982510791137,-11.408339593799,13.145124512451,2521115.3503151,-1187.8474061632,2922115.0604813,18.345124512451,0,0
60.982511058487,-11.412013733029,13.149554955496,2521115.3503151,-1187.8474061632,2922115.0604813,18.349554955496,0,0
60.982511325838,-11.415687872258,13.15398539854,2521115.3503151,-1187.8474061632,2922115.0604813,18.35398539854,0,0
60.982511593188,-11.419362011488,13.158415841584,2521115.3503151,-1187.8474061632,2922115.0604813,18.358415841584,0,0
60.982511860538,-11.423036150717,13.162846284628,2521115.3503151,-1187.8474061632,2922115.0604813,18.362846284628,0,0
60.982512127889,-11.426710289947,13.167276727673,2521115.3503151,-1187.8474061632,2922115.0604813,18.367276727673,0,0
60.982512395239,-11.430384429177,13.171707170717,2521115.3503151,-1187.8474061632,2922115.0604813,18.371707170717,0,0
60.98251266259,-11.434058568406,13.176137613761,2521115.3503151,-1187.8474061632,2922115.0604813,18.376137613761,0,0
60.98251292994,-11.437732707636,13.180568056806,2521115.3503151,-1187.8474061632,2922115.0604813,18.380568056806,0,0
60.98251319729,-11.441406846865,13.18499849985,2521115.3503151,-1187.8474061632,2922115.0604813,18.38499849985,0,0
60.982513464641,-11.445080986095,13.189428942894,2521115.3503151,-1187.8474061632,2922115.0604813,18.389428942894,0,0
60.982513731991,-11.448755125324,13.193859385939,2521115.3503151,-1187.8474061632,2922115.0604813,18.393859385939,0,0
60.982513999341,-11.452429264554,13.198289828983,2521115.3503151,-1187.8474061632,2922115.0604813,18.398289828983,0,0
60.982514266692,-11.456103403783,13.202720272027,2521115.3503151,-1187.8474061632,2922115.0604813,18.402720272027,0,0
60.982514534042,-11.459777543013,13.207150715072,2521115.3503151,-1187.8474061632,2922115.0604813,18.407150715072,0,0
60.982514801393,-11.463451682242,13.211581158116,2521115.3503151,-1187.8474061632,2922115.0604813,18.411581158116,0,0
60.982515068743,-11.467125821472,13.21601160116,2521115.3503151,-1187.8474061632,2922115.0604813,18.41601160116,0,0
60.982515336093,-11.470799960702,13.220442044204,2521115.3503151,-1187.8474061632,2922115.0604813,18.420442044204,0,0
60.982515603444,-11.474474099931,13.224872487249,2521115.3503151,-1187.8474061632,2922115.0604813,18.424872487249,0,0
60.982515870794,-11.478148239161,13.229302930293,2521115.3503151,-1187.8474061632,2922115.0604813,18.429302930293,0,0
60.982516138144,-11.48182237839,13.233733373337,2521115.3503151,-1187.8474061632,2922115.0604813,18.433733373337,0,0
60.982516405495,-11.48549651762,13.238163816382,2521115.3503151,-1187.8474061632,2922115.0604813,18.438163816382,0,0
60.982516672845,-11.489170656849,13.242594259426,2521115.3503151,-1187.8474061632,2922115.0604813,18.442594259426,0,0
60.982516940196,-11.492844796079,13.24702470247,2521115.3503151,-1187.8474061632,2922115.0604813,18.44702470247,0,0
60.982517207546,-11.496518935308,13.251455145515,2521115.3503151,-1187.8474061632,2922115.0604813,18.451455145515,0,0
60.982517474896,-11.500193074538,13.255885588559,2521115.3503151,-1187.8474061632,2922115.0604813,18.455885588559,0,0
60.982517742247,-11.503867213767,13.260316031603,2521115.3503151,-1187.8474061632,2922115.0604813,18.460316031603,0,0
60.982518009597,-11.507541352997,13.264746474647,2521115.3503151,-1187.8474061632,2922115.0604813,18.464746474647,0,0
60.982518276947,-11.511215492227,13.269176917692,2521115.3503151,-1187.8474061632,2922115.0604813,18.469176917692,0,0
60.982518544298,-11.514889631456,13.273607360736,2521115.3503151,-1187.8474061632,2922115.0604813,18.473607360736,0,0
60.982518811648,-11.518563770686,13.27803780378,2521115.3503151,-1187.8474061632,2922115.0604813,18.47803780378,0,0
60.982519078999,-11.522237909915,13.282468246825,2521115.3503151,-1187.8474061632,2922115.0604813,18.482468246825,0,0
60.982519346349,-11.525912049145,13.286898689869,2521115.3503151,-1187.8474061632,2922115.0604813,18.486898689869,0,0
60.982519613699,-11.529586188374,13.291329132913,2521115.3503151,-1187.8474061632,2922115.0604813,18.491329132913,0,0
60.98251988105,-11.533260327604,13.295759575958,2521115.3503151,-1187.8474061632,2922115.0604813,18.495759575958,0,0
60.9825201484,-11.536934466833,13.300190019002,2521115.3503151,-1187.8474061632,2922115.0604813,18.500190019002,0,0
60.98252041575,-11.540608606063,13.304620462046,2521115.3503151,-1187.8474061632,2922115.0604813,18.504620462046,0,0
60.982520683101,-11.544282745293,13.309050905091,2521115.3503151,-1187.8474061632,2922115.0604813,18.509050905091,0,0
60.982520950451,-11.547956884522,13.313481348135,2521115.3503151,-1187.8474061632,2922115.0604813,18.513481348135,0,0
60.982521217801,-11.551631023752,13.317911791179,2521115.3503151,-1187.8474061632,2922115.0604813,18.517911791179,0,0
60.982521485152,-11.555305162981,13.322342234223,2521115.3503151,-1187.8474061632,2922115.0604813,18.522342234223,0,0
60.982521752502,-11.558979302211,13.326772677268,2521115.3503151,-1187.8474061632,2922115.0604813,18.526772677268,0,0
60.982522019853,-11.56265344144,13.331203120312,2521115.3503151,-1187.8474061632,2922115.0604813,18.531203120312,0,0
60.982522287203,-11.56632758067,13.335633563356,2521115.3503151,-1187.8474061632,2922115.0604813,18.535633563356,0,0
60.982522554553,-11.570001719899,13.340064006401,2521115.3503151,-1187.8474061632,2922115.0604813,18.540064006401,0,0
60.982522821904,-11.573675859129,13.344494449445,2521115.3503151,-1187.8474061632,2922115.0604813,18.544494449445,0,0
60.982523089254,-11.577349998358,13.348924892489,2521115.3503151,-1187.8474061632,2922115.0604813,18.548924892489,0,0
60.982523356604,-11.581024137588,13.353355335534,2521115.3503151,-1187.8474061632,2922115.0604813,18.553355335534,0,0
60.982523623955,-11.584698276818,13.357785778578,2521115.3503151,-1187.8474061632,2922115.0604813,18.557785778578,0,0
60.982523891305,-11.588372416047,13.362216221622,2521115.3503151,-1187.8474061632,2922115.0604813,18.562216221622,0,0
60.982524158656,-11.592046555277,13.366646664666,2521115.3503151,-1187.8474061632,2922115.0604813,18.566646664666,0,0
60.982524426006,-11.595720694506,13.371077107711,2521115.3503151,-1187.8474061632,2922115.0604813,18.571077107711,0,0
60.982524693356,-11.599394833736,13.375507550755,2521115.3503151,-1187.8474061632,2922115.0604813,18.575507550755,0,0
60.982524960707,-11.603068972965,13.379937993799,2521115.3503151,-1187.8474061632,2922115.0604813,18.579937993799,0,0
60.982525228057,-11.606743112195,13.384368436844,2521115.3503151,-1187.8474061632,2922115.0604813,18.584368436844,0,0
60.982525495407,-11.610417251424,13.388798879888,2521115.3503151,-1187.8474061632,2922115.0604813,18.588798879888,0,0
60.982525762758,-11.614091390654,13.393229322932,2521115.3503151,-1187.8474061632,2922115.0604813,18.593229322932,0,0
60.982526030108,-11.617765529884,13.397659765977,2521115.3503151,-1187.8474061632,2922115.0604813,18.597659765977,0,0
60.982526297459,-11.621439669113,13.402090209021,2521115.3503151,-1187.8474061632,2922115.0604813,18.602090209021,0,0
60.982526564809,-11.625113808343,13.406520652065,2521115.3503151,-1187.8474061632,2922115.0604813,18.606520652065,0,0
60.982526832159,-11.628787947572,13.41095109511,2521115.3503151,-1187.8474061632,2922115.0604813,18.61095109511,0,0
60.98252709951,-11.632462086802,13.415381538154,2521115.3503151,-1187.8474061632,2922115.0604813,18.615381538154,0,0
60.98252736686,-11.636136226031,13.419811981198,2521115.3503151,-1187.8474061632,2922115.0604813,18.619811981198,0,0
60.98252763421,-11.639810365261,13.424242424242,2521115.3503151,-1187.8474061632,2922115.0604813,18.624242424242,0,0
60.982527901561,-11.64348450449,13.428672867287,2521115.3503151,-1187.8474061632,2922115.0604813,18.628672867287,0,0
60.982528168911,-11.64715864372,13.433103310331,2521115.3503151,-1187.8474061632,2922115.0604813,18.633103310331,0,0
60.982528436262,-11.650832782949,13.437533753375,2521115.3503151,-1187.8474061632,2922115.0604813,18.637533753375,0,0
60.982528703612,-11.654506922179,13.44196419642,2521115.3503151,-1187.8474061632,2922115.0604813,18.64196419642,0,0
60.982528970962,-11.658181061409,13.446394639464,2521115.3503151,-1187.8474061632,2922115.0604813,18.646394639464,0,0
60.982529238313,-11.661855200638,13.450825082508,2521115.3503151,-1187.8474061632,2922115.0604813,18.650825082508,0,0
60.982529505663,-11.665529339868,13.455255525553,2521115.3503151,-1187.8474061632,2922115.0604813,18.655255525553,0,0
60.982529773013,-11.669203479097,13.459685968597,2521115.3503151,-1187.8474061632,2922115.0604813,18.659685968597,0,0
60.982530040364,-11.672877618327,13.464116411641,2521115.3503151,-1187.8474061632,2922115.0604813,18.664116411641,0,0
60.982530307714,-11.676551757556,13.468546854685,2521115.3503151,-1187.8474061632,2922115.0604813,18.668546854685,0,0
60.982530575065,-11.680225896786,13.47297729773,2521115.3503151,-1187.8474061632,2922115.0604813,18.67297729773,0,0
60.982530842415,-11.683900036015,13.477407740774,2521115.3503151,-1187.8474061632,2922115.0604813,18.677407740774,0,0
60.982531110907,-11.687574173851,13.481838183818,2541603.9726666,5066.6043542492,2915450.3299524,18.681838183818,0,0
60.982531380071,-11.691248310866,13.486268626863,2541603.9726666,5066.6043542492,2915450.3299524,18.686268626863,0,0
60.982531649235,-11.694922447881,13.490699069907,2541603.9726666,5066.6043542492,2915450.3299524,18.690699069907,0,0
60.9825319184,-11.698596584895,13.495129512951,2541603.9726666,5066.6043542492,2915450.3299524,18.695129512951,0,0
60.982532187564,-11.70227072191,13.499559955996,2541603.9726666,5066.6043542492,2915450.3299524,18.699559955996,0,0
60.982532456728,-11.705944858924,13.50399039904,2541603.9726666,5066.6043542492,2915450.3299524,18.70399039904,0,0
60.982532725893,-11.709618995939,13.508420842084,2541603.9726666,5066.6043542492,2915450.3299524,18.708420842084,0,0
60.982532995057,-11.713293132954,13.512851285129,2541603.9726666,5066.6043542492,2915450.3299524,18.712851285129,0,0
60.982533264222,-11.716967269968,13.517281728173,2541603.9726666,5066.6043542492,2915450.3299524,18.717281728173,0,0
60.982533533386,-11.720641406983,13.521712171217,2541603.9726666,5066.6043542492,2915450.3299524,18.721712171217,0,0
60.98253380255,-11.724315543997,13.526142614261,2541603.9726666,5066.6043542492,2915450.3299524,18.726142614261,0,0
60.982534071715,-11.727989681012,13.530573057306,2541603.9726666,5066.6043542492,2915450.3299524,18.730573057306,0,0
60.982534340879,-11.731663818026,13.53500350035,2541603.9726666,5066.6043542492,2915450.3299524,18.73500350035,0,0
60.982534610043,-11.735337955041,13.539433943394,2541603.9726666,5066.6043542492,2915450.3299524,18.739433943394,0,0
60.982534879208,-11.739012092056,13.543864386439,2541603.9726666,5066.6043542492,2915450.3299524,18.743864386439,0,0
60.982535148372,-11.74268622907,13.548294829483,2541603.9726666,5066.6043542492,2915450.3299524,18.748294829483,0,0
60.982535417536,-11.746360366085,13.552725272527,2541603.9726666,5066.6043542492,2915450.3299524,18.752725272527,0,0
60.982535686701,-11.750034503099,13.557155715572,2541603.9726666,5066.6043542492,2915450.3299524,18.757155715572,0,0
60.982535955865,-11.753708640114,13.561586158616,2541603.9726666,5066.6043542492,2915450.3299524,18.761586158616,0,0
60.98253622503,-11.757382777129,13.56601660166,2541603.9726666,5066.6043542492,2915450.3299524,18.76601660166,0,0
60.982536494194,-11.761056914143,13.570447044704,2541603.9726666,5066.6043542492,2915450.3299524,18.770447044704,0,0
60.982536763358,-11.764731051158,13.574877487749,2541603.9726666,5066.6043542492,2915450.3299524,18.774877487749,0,0
60.982537032523,-11.768405188172,13.579307930793,2541603.9726666,5066.6043542492,2915450.3299524,18.779307930793,0,0
60.982537301687,-11.772079325187,13.583738373837,2541603.9726666,5066.6043542492,2915450.3299524,18.783738373837,0,0
60.982537570851,-11.775753462202,13.588168816882,2541603.9726666,5066.6043542492,2915450.3299524,18.788168816882,0,0
60.982537840016,-11.779427599216,13.592599259926,2541603.9726666,5066.6043542492,2915450.3299524,18.792599259926,0,0
60.98253810918,-11.783101736231,13.59702970297,2541603.9726666,5066.6043542492,2915450.3299524,18.79702970297,0,0
60.982538378345,-11.786775873245,13.601460146015,2541603.9726666,5066.6043542492,2915450.3299524,18.801460146015,0,0
60.982538647509,-11.79045001026,13.605890589059,2541603.9726666,5066.6043542492,2915450.3299524,18.805890589059,0,0
60.982538916673,-11.794124147275,13.610321032103,2541603.9726666,5066.6043542492,2915450.3299524,18.810321032103,0,0
60.982539185838,-11.797798284289,13.614751475148,2541603.9726666,5066.6043542492,2915450.3299524,18.814751475148,0,0
60.982539455002,-11.801472421304,13.619181918192,2541603.9726666,5066.6043542492,2915450.3299524,18.819181918192,0,0
60.982539724166,-11.805146558318,13.623612361236,2541603.9726666,5066.6043542492,2915450.3299524,18.823612361236,0,0
60.982539993331,-11.808820695333,13.62804280428,2541603.9726666,5066.6043542492,2915450.3299524,18.82804280428,0,0
60.982540262495,-11.812494832348,13.632473247325,2541603.9726666,5066.6043542492,2915450.3299524,18.832473247325,0,0
60.982540531659,-11.816168969362,13.636903690369,2541603.9726666,5066.6043542492,2915450.3299524,18.836903690369,0,0
60.982540800824,-11.819843106377,13.641334133413,2541603.9726666,5066.6043542492,2915450.3299524,18.841334133413,0,0
60.982541069988,-11.823517243391,13.645764576458,2541603.9726666,5066.6043542492,2915450.3299524,18.845764576458,0,0
60.982541339153,-11.827191380406,13.650195019502,2541603.9726666,5066.6043542492,2915450.3299524,18.850195019502,0,0
60.982541608317,-11.83086551742,13.654625462546,2541603.9726666,5066.6043542492,2915450.3299524,18.854625462546,0,0
60.982541877481,-11.834539654435,13.659055905591,2541603.9726666,5066.6043542492,2915450.3299524,18.859055905591,0,0
60.982542146646,-11.83821379145,13.663486348635,2541603.9726666,5066.6043542492,2915450.3299524,18.863486348635,0,0
60.98254241581,-11.841887928464,13.667916791679,2541603.9726666,5066.6043542492,2915450.3299524,18.867916791679,0,0
60.982542684974,-11.845562065479,13.672347234723,2541603.9726666,5066.6043542492,2915450.3299524,18.872347234723,0,0
60.982542954139,-11.849236202493,13.676777677768,2541603.9726666,5066.6043542492,2915450.3299524,18.876777677768,0,0
60.982543223303,-11.852910339508,13.681208120812,2541603.9726666,5066.6043542492,2915450.3299524,18.881208120812,0,0
60.982543492468,-11.856584476523,13.685638563856,2541603.9726666,5066.6043542492,2915450.3299524,18.885638563856,0,0
60.982543761632,-11.860258613537,13.690069006901,2541603.9726666,5066.6043542492,2915450.3299524,18.890069006901,0,0
60.982544030796,-11.863932750552,13.694499449945,2541603.9726666,5066.6043542492,2915450.3299524,18.894499449945,0,0
60.982544299961,-11.867606887566,13.698929892989,2541603.9726666,5066.6043542492,2915450.3299524,18.898929892989,0,0
60.982544569125,-11.871281024581,13.703360336034,2541603.9726666,5066.6043542492,2915450.3299524,18.903360336034,0,0
60.982544838289,-11.874955161596,13.707790779078,2541603.9726666,5066.6043542492,2915450.3299524,18.907790779078,0,0
60.982545107454,-11.87862929861,13.712221222122,2541603.9726666,5066.6043542492,2915450.3299524,18.912221222122,0,0
60.982545376618,-11.882303435625,13.716651665167,2541603.9726666,5066.6043542492,2915450.3299524,18.916651665167,0,0
60.982545645782,-11.885977572639,13.721082108211,2541603.9726666,5066.6043542492,2915450.3299524,18.921082108211,0,0
60.982545914947,-11.889651709654,13.725512551255,2541603.9726666,5066.6043542492,2915450.3299524,18.925512551255,0,0
60.982546184111,-11.893325846669,13.729942994299,2541603.9726666,5066.6043542492,2915450.3299524,18.929942994299,0,0
60.982546453276,-11.896999983683,13.734373437344,2541603.9726666,5066.6043542492,2915450.3299524,18.934373437344,0,0
60.98254672244,-11.900674120698,13.738803880388,2541603.9726666,5066.6043542492,2915450.3299524,18.938803880388,0,0
60.982546991604,-11.904348257712,13.743234323432,2541603.9726666,5066.6043542492,2915450.3299524,18.943234323432,0,0
60.982547260769,-11.908022394727,13.747664766477,2541603.9726666,5066.6043542492,2915450.3299524,18.947664766477,0,0
60.982547529933,-11.911696531742,13.752095209521,2541603.9726666,5066.6043542492,2915450.3299524,18.952095209521,0,0
60.982547799097,-11.915370668756,13.756525652565,2541603.9726666,5066.6043542492,2915450.3299524,18.956525652565,0,0
60.982548068262,-11.919044805771,13.76095609561,2541603.9726666,5066.6043542492,2915450.3299524,18.96095609561,0,0
60.982548337426,-11.922718942785,13.765386538654,2541603.9726666,5066.6043542492,2915450.3299524,18.965386538654,0,0
60.98254860659,-11.9263930798,13.769816981698,2541603.9726666,5066.6043542492,2915450.3299524,18.969816981698,0,0
60.982548875755,-11.930067216815,13.774247424742,2541603.9726666,5066.6043542492,2915450.3299524,18.974247424742,0,0
60.982549144919,-11.933741353829,13.778677867787,2541603.9726666,5066.6043542492,2915450.3299524,18.978677867787,0,0
60.982549414084,-11.937415490844,13.783108310831,2541603.9726666,5066.6043542492,2915450.3299524,18.983108310831,0,0
60.982549683248,-11.941089627858,13.787538753875,2541603.9726666,5066.6043542492,2915450.3299524,18.987538753875,0,0
60.982549952412,-11.944763764873,13.79196919692,2541603.9726666,5066.6043542492,2915450.3299524,18.99196919692,0,0
60.982550221577,-11.948437901887,13.796399639964,2541603.9726666,5066.6043542492,2915450.3299524,18.996399639964,0,0
60.982550490741,-11.952112038902,13.800830083008,2541603.9726666,5066.6043542492,2915450.3299524,19.000830083008,0,0
60.982550759905,-11.955786175917,13.805260526053,2541603.9726666,5066.6043542492,2915450.3299524,19.005260526053,0,0
60.98255102907,-11.959460312931,13.809690969097,2541603.9726666,5066.6043542492,2915450.3299524,19.009690969097,0,0
60.982551298234,-11.963134449946,13.814121412141,2541603.9726666,5066.6043542492,2915450.3299524,19.014121412141,0,0
60.982551567399,-11.96680858696,13.818551855186,2541603.9726666,5066.6043542492,2915450.3299524,19.018551855186,0,0
60.982551836563,-11.970482723975,13.82298229823,2541603.9726666,5066.6043542492,2915450.3299524,19.02298229823,0,0
60.982552105727,-11.97415686099,13.827412741274,2541603.9726666,5066.6043542492,2915450.3299524,19.027412741274,0,0
60.982552374892,-11.977830998004,13.831843184318,2541603.9726666,5066.6043542492,2915450.3299524,19.031843184318,0,0
60.982552644056,-11.981505135019,13.836273627363,2541603.9726666,5066.6043542492,2915450.3299524,19.036273627363,0,0
60.98255291322,-11.985179272033,13.840704070407,2541603.9726666,5066.6043542492,2915450.3299524,19.040704070407,0,0
60.982553182385,-11.988853409048,13.845134513451,2541603.9726666,5066.6043542492,2915450.3299524,19.045134513451,0,0
60.982553451549,-11.992527546063,13.849564956496,2541603.9726666,5066.6043542492,2915450.3299524,19.049564956496,0,0
60.982553720713,-11.996201683077,13.85399539954,2541603.9726666,5066.6043542492,2915450.3299524,19.05399539954,0,0
60.982553989878,-11.999875820092,13.858425842584,2541603.9726666,5066.6043542492,2915450.3299524,19.058425842584,0,0
60.982554259042,-12.003549957106,13.862856285629,2541603.9726666,5066.6043542492,2915450.3299524,19.062856285629,0,0
60.982554528207,-12.007224094121,13.867286728673,2541603.9726666,5066.6043542492,2915450.3299524,19.067286728673,0,0
60.982554797371,-12.010898231136,13.871717171717,2541603.9726666,5066.6043542492,2915450.3299524,19.071717171717,0,0
60.982555066535,-12.01457236815,13.876147614761,2541603.9726666,5066.6043542492,2915450.3299524,19.076147614761,0,0
60.9825553357,-12.018246505165,13.880578057806,2541603.9726666,5066.6043542492,2915450.3299524,19.080578057806,0,0
60.982555604864,-12.021920642179,13.88500850085,2541603.9726666,5066.6043542492,2915450.3299524,19.08500850085,0,0
60.982555874028,-12.025594779194,13.889438943894,2541603.9726666,5066.6043542492,2915450.3299524,19.089438943894,0,0
60.982556143193,-12.029268916209,13.893869386939,2541603.9726666,5066.6043542492,2915450.3299524,19.093869386939,0,0
60.982556412357,-12.032943053223,13.898299829983,2541603.9726666,5066.6043542492,2915450.3299524,19.098299829983,0,0
60.982556681522,-12.036617190238,13.902730273027,2541603.9726666,5066.6043542492,2915450.3299524,19.102730273027,0,0
60.982556950686,-12.040291327252,13.907160716072,2541603.9726666,5066.6043542492,2915450.3299524,19.107160716072,0,0
60.98255721985,-12.043965464267,13.911591159116,2541603.9726666,5066.6043542492,2915450.3299524,19.111591159116,0,0
60.982557489015,-12.047639601281,13.91602160216,2541603.9726666,5066.6043542492,2915450.3299524,19.11602160216,0,0
60.982557758179,-12.051313738296,13.920452045205,2541603.9726666,5066.6043542492,2915450.3299524,19.120452045205,0,0
60.982558027343,-12.054987875311,13.924882488249,2541603.9726666,5066.6043542492,2915450.3299524,19.124882488249,0,0
60.982558296508,-12.058662012325,13.929312931293,2541603.9726666,5066.6043542492,2915450.3299524,19.129312931293,0,0
60.982558565672,-12.06233614934,13.933743374337,2541603.9726666,5066.6043542492,2915450.3299524,19.133743374337,0,0
60.982558834836,-12.066010286354,13.938173817382,2541603.9726666,5066.6043542492,2915450.3299524,19.138173817382,0,0
60.982559104001,-12.069684423369,13.942604260426,2541603.9726666,5066.6043542492,2915450.3299524,19.142604260426,0,0
60.982559373165,-12.073358560384,13.94703470347,2541603.9726666,5066.6043542492,2915450.3299524,19.14703470347,0,0
60.98255964233,-12.077032697398,13.951465146515,2541603.9726666,5066.6043542492,2915450.3299524,19.151465146515,0,0
60.982559911494,-12.080706834413,13.955895589559,2541603.9726666,5066.6043542492,2915450.3299524,19.155895589559,0,0
60.982560180658,-12.084380971427,13.960326032603,2541603.9726666,5066.6043542492,2915450.3299524,19.160326032603,0,0
60.982560449823,-12.088055108442,13.964756475648,2541603.9726666,5066.6043542492,2915450.3299524,19.164756475648,0,0
60.982560718987,-12.091729245457,13.969186918692,2541603.9726666,5066.6043542492,2915450.3299524,19.169186918692,0,0
60.982560988151,-12.095403382471,13.973617361736,2541603.9726666,5066.6043542492,2915450.3299524,19.173617361736,0,0
60.982561257316,-12.099077519486,13.97804780478,2541603.9726666,5066.6043542492,2915450.3299524,19.17804780478,0,0
60.98256152648,-12.1027516565,13.982478247825,2541603.9726666,5066.6043542492,2915450.3299524,19.182478247825,0,0
60.982561795644,-12.106425793515,13.986908690869,2541603.9726666,5066.6043542492,2915450.3299524,19.186908690869,0,0
60.982562064809,-12.11009993053,13.991339133913,2541603.9726666,5066.6043542492,2915450.3299524,19.191339133913,0,0
60.982562333973,-12.113774067544,13.995769576958,2541603.9726666,5066.6043542492,2915450.3299524,19.195769576958,0,0
60.982562603138,-12.117448204559,14.000200020002,2541603.9726666,5066.6043542492,2915450.3299524,19.200200020002,0,0
60.982562872302,-12.121122341573,14.004630463046,2541603.9726666,5066.6043542492,2915450.3299524,19.204630463046,0,0
60.982563141466,-12.124796478588,14.009060906091,2541603.9726666,5066.6043542492,2915450.3299524,19.209060906091,0,0
60.982563410631,-12.128470615603,14.013491349135,2541603.9726666,5066.6043542492,2915450.3299524,19.213491349135,0,0
60.982563679849,-12.132144752753,14.017921792179,2546871.9109939,-2530.328473631,2897951.4287785,19.217921792179,0,0
60.9825639499,-12.135818891997,14.022352235224,2546871.9109939,-2530.328473631,2897951.4287785,19.222352235224,0,0
60.982564219951,-12.139493031242,14.026782678268,2546871.9109939,-2530.328473631,2897951.4287785,19.226782678268,0,0
60.982564490002,-12.143167170486,14.031213121312,2546871.9109939,-2530.328473631,2897951.4287785,19.231213121312,0,0
60.982564760053,-12.14684130973,14.035643564356,2546871.9109939,-2530.328473631,2897951.4287785,19.235643564356,0,0
60.982565030104,-12.150515448975,14.040074007401,2546871.9109939,-2530.328473631,2897951.4287785,19.240074007401,0,0
60.982565300155,-12.154189588219,14.044504450445,2546871.9109939,-2530.328473631,2897951.4287785,19.244504450445,0,0
60.982565570207,-12.157863727463,14.048934893489,2546871.9109939,-2530.328473631,2897951.4287785,19.248934893489,0,0
60.982565840258,-12.161537866708,14.053365336534,2546871.9109939,-2530.328473631,2897951.4287785,19.253365336534,0,0
60.982566110309,-12.165212005952,14.057795779578,2546871.9109939,-2530.328473631,2897951.4287785,19.257795779578,0,0
60.98256638036,-12.168886145197,14.062226222622,2546871.9109939,-2530.328473631,2897951.4287785,19.262226222622,0,0
60.982566650411,-12.172560284441,14.066656665667,2546871.9109939,-2530.328473631,2897951.4287785,19.266656665667,0,0
60.982566920462,-12.176234423685,14.071087108711,2546871.9109939,-2530.328473631,2897951.4287785,19.271087108711,0,0
60.982567190513,-12.17990856293,14.075517551755,2546871.9109939,-2530.328473631,2897951.4287785,19.275517551755,0,0
60.982567460564,-12.183582702174,14.079947994799,2546871.9109939,-2530.328473631,2897951.4287785,19.279947994799,0,0
60.982567730615,-12.187256841418,14.084378437844,2546871.9109939,-2530.328473631,2897951.4287785,19.284378437844,0,0
60.982568000666,-12.190930980663,14.088808880888,2546871.9109939,-2530.328473631,2897951.4287785,19.288808880888,0,0
60.982568270717,-12.194605119907,14.093239323932,2546871.9109939,-2530.328473631,2897951.4287785,19.293239323932,0,0
60.982568540768,-12.198279259151,14.097669766977,2546871.9109939,-2530.328473631,2897951.4287785,19.297669766977,0,0
60.982568810819,-12.201953398396,14.102100210021,2546871.9109939,-2530.328473631,2897951.4287785,19.302100210021,0,0
60.98256908087,-12.20562753764,14.106530653065,2546871.9109939,-2530.328473631,2897951.4287785,19.306530653065,0,0
60.982569350921,-12.209301676885,14.11096109611,2546871.9109939,-2530.328473631,2897951.4287785,19.31096109611,0,0
60.982569620972,-12.212975816129,14.115391539154,2546871.9109939,-2530.328473631,2897951.4287785,19.315391539154,0,0
60.982569891023,-12.216649955373,14.119821982198,2546871.9109939,-2530.328473631,2897951.4287785,19.319821982198,0,0
60.982570161075,-12.220324094618,14.124252425243,2546871.9109939,-2530.328473631,2897951.4287785,19.324252425243,0,0
60.982570431126,-12.223998233862,14.128682868287,2546871.9109939,-2530.328473631,2897951.4287785,19.328682868287,0,0
60.982570701177,-12.227672373106,14.133113311331,2546871.9109939,-2530.328473631,2897951.4287785,19.333113311331,0,0
60.982570971228,-12.231346512351,14.137543754375,2546871.9109939,-2530.328473631,2897951.4287785,19.337543754375,0,0
60.982571241279,-12.235020651595,14.14197419742,2546871.9109939,-2530.328473631,2897951.4287785,19.34197419742,0,0
60.98257151133,-12.238694790839,14.146404640464,2546871.9109939,-2530.328473631,2897951.4287785,19.346404640464,0,0
60.982571781381,-12.242368930084,14.150835083508,2546871.9109939,-2530.328473631,2897951.4287785,19.350835083508,0,0
60.982572051432,-12.246043069328,14.155265526553,2546871.9109939,-2530.328473631,2897951.4287785,19.355265526553,0,0
60.982572321483,-12.249717208572,14.159695969597,2546871.9109939,-2530.328473631,2897951.4287785,19.359695969597,0,0
60.982572591534,-12.253391347817,14.164126412641,2546871.9109939,-2530.328473631,2897951.4287785,19.364126412641,0,0
60.982572861585,-12.257065487061,14.168556855686,2546871.9109939,-2530.328473631,2897951.4287785,19.368556855686,0,0
60.982573131636,-12.260739626306,14.17298729873,2546871.9109939,-2530.328473631,2897951.4287785,19.37298729873,0,0
60.982573401687,-12.26441376555,14.177417741774,2546871.9109939,-2530.328473631,2897951.4287785,19.377417741774,0,0
60.982573671738,-12.268087904794,14.181848184818,2546871.9109939,-2530.328473631,2897951.4287785,19.381848184818,0,0
60.982573941789,-12.271762044039,14.186278627863,2546871.9109939,-2530.328473631,2897951.4287785,19.386278627863,0,0
60.98257421184,-12.275436183283,14.190709070907,2546871.9109939,-2530.328473631,2897951.4287785,19.390709070907,0,0
60.982574481892,-12.279110322527,14.195139513951,2546871.9109939,-2530.328473631,2897951.4287785,19.395139513951,0,0
60.982574751943,-12.282784461772,14.199569956996,2546871.9109939,-2530.328473631,2897951.4287785,19.399569956996,0,0
60.982575021994,-12.286458601016,14.20400040004,2546871.9109939,-2530.328473631,2897951.4287785,19.40400040004,0,0
60.982575292045,-12.29013274026,14.208430843084,2546871.9109939,-2530.328473631,2897951.4287785,19.408430843084,0,0
60.982575562096,-12.293806879505,14.212861286129,2546871.9109939,-2530.328473631,2897951.4287785,19.412861286129,0,0
60.982575832147,-12.297481018749,14.217291729173,2546871.9109939,-2530.328473631,2897951.4287785,19.417291729173,0,0
60.982576102198,-12.301155157993,14.221722172217,2546871.9109939,-2530.328473631,2897951.4287785,19.421722172217,0,0
60.982576372249,-12.304829297238,14.226152615262,2546871.9109939,-2530.328473631,2897951.4287785,19.426152615262,0,0
60.9825766423,-12.308503436482,14.230583058306,2546871.9109939,-2530.328473631,2897951.4287785,19.430583058306,0,0
60.982576912351,-12.312177575727,14.23501350135,2546871.9109939,-2530.328473631,2897951.4287785,19.43501350135,0,0
60.982577182402,-12.315851714971,14.239443944394,2546871.9109939,-2530.328473631,2897951.4287785,19.439443944394,0,0
60.982577452453,-12.319525854215,14.243874387439,2546871.9109939,-2530.328473631,2897951.4287785,19.443874387439,0,0
60.982577722504,-12.32319999346,14.248304830483,2546871.9109939,-2530.328473631,2897951.4287785,19.448304830483,0,0
60.982577992555,-12.326874132704,14.252735273527,2546871.9109939,-2530.328473631,2897951.4287785,19.452735273527,0,0
60.982578262606,-12.330548271948,14.257165716572,2546871.9109939,-2530.328473631,2897951.4287785,19.457165716572,0,0
60.982578532657,-12.334222411193,14.261596159616,2546871.9109939,-2530.328473631,2897951.4287785,19.461596159616,0,0
60.982578802708,-12.337896550437,14.26602660266,2546871.9109939,-2530.328473631,2897951.4287785,19.46602660266,0,0
60.98257907276,-12.341570689681,14.270457045705,2546871.9109939,-2530.328473631,2897951.4287785,19.470457045705,0,0
60.982579342811,-12.345244828926,14.274887488749,2546871.9109939,-2530.328473631,2897951.4287785,19.474887488749,0,0
60.982579612862,-12.34891896817,14.279317931793,2546871.9109939,-2530.328473631,2897951.4287785,19.479317931793,0,0
60.982579882913,-12.352593107415,14.283748374837,2546871.9109939,-2530.328473631,2897951.4287785,19.483748374837,0,0
60.982580152964,-12.356267246659,14.288178817882,2546871.9109939,-2530.328473631,2897951.4287785,19.488178817882,0,0
60.982580423015,-12.359941385903,14.292609260926,2546871.9109939,-2530.328473631,2897951.4287785,19.492609260926,0,0
60.982580693066,-12.363615525148,14.29703970397,2546871.9109939,-2530.328473631,2897951.4287785,19.49703970397,0,0
60.982580963117,-12.367289664392,14.301470147015,2546871.9109939,-2530.328473631,2897951.4287785,19.501470147015,0,0
60.982581233168,-12.370963803636,14.305900590059,2546871.9109939,-2530.328473631,2897951.4287785,19.505900590059,0,0
60.982581503219,-12.374637942881,14.310331033103,2546871.9109939,-2530.328473631,2897951.4287785,19.510331033103,0,0
60.98258177327,-12.378312082125,14.314761476148,2546871.9109939,-2530.328473631,2897951.4287785,19.514761476148,0,0
60.982582043321,-12.381986221369,14.319191919192,2546871.9109939,-2530.328473631,2897951.4287785,19.519191919192,0,0
60.982582313372,-12.385660360614,14.323622362236,2546871.9109939,-2530.328473631,2897951.4287785,19.523622362236,0,0
60.982582583423,-12.389334499858,14.328052805281,2546871.9109939,-2530.328473631,2897951.4287785,19.528052805281,0,0
60.982582853474,-12.393008639102,14.332483248325,2546871.9109939,-2530.328473631,2897951.4287785,19.532483248325,0,0
60.982583123525,-12.396682778347,14.336913691369,2546871.9109939,-2530.328473631,2897951.4287785,19.536913691369,0,0
60.982583393577,-12.400356917591,14.341344134413,2546871.9109939,-2530.328473631,2897951.4287785,19.541344134413,0,0
60.982583663628,-12.404031056836,14.345774577458,2546871.9109939,-2530.328473631,2897951.4287785,19.545774577458,0,0
60.982583933679,-12.40770519608,14.350205020502,2546871.9109939,-2530.328473631,2897951.4287785,19.550205020502,0,0
60.98258420373,-12.411379335324,14.354635463546,2546871.9109939,-2530.328473631,2897951.4287785,19.554635463546,0,0
60.982584473781,-12.415053474569,14.359065906591,2546871.9109939,-2530.328473631,2897951.4287785,19.559065906591,0,0
60.982584743832,-12.418727613813,14.363496349635,2546871.9109939,-2530.328473631,2897951.4287785,19.563496349635,0,0
60.982585013883,-12.422401753057,14.367926792679,2546871.9109939,-2530.328473631,2897951.4287785,19.567926792679,0,0
60.982585283934,-12.426075892302,14.372357235724,2546871.9109939,-2530.328473631,2897951.4287785,19.572357235724,0,0
60.982585553985,-12.429750031546,14.376787678768,2546871.9109939,-2530.328473631,2897951.4287785,19.576787678768,0,0
60.982585824036,-12.43342417079,14.381218121812,2546871.9109939,-2530.328473631,2897951.4287785,19.581218121812,0,0
60.982586094087,-12.437098310035,14.385648564856,2546871.9109939,-2530.328473631,2897951.4287785,19.585648564856,0,0
60.982586364138,-12.440772449279,14.390079007901,2546871.9109939,-2530.328473631,2897951.4287785,19.590079007901,0,0
60.982586634189,-12.444446588524,14.394509450945,2546871.9109939,-2530.328473631,2897951.4287785,19.594509450945,0,0
60.98258690424,-12.448120727768,14.398939893989,2546871.9109939,-2530.328473631,2897951.4287785,19.598939893989,0,0
60.982587174291,-12.451794867012,14.403370337034,2546871.9109939,-2530.328473631,2897951.4287785,19.603370337034,0,0
60.982587444342,-12.455469006257,14.407800780078,2546871.9109939,-2530.328473631,2897951.4287785,19.607800780078,0,0
60.982587714393,-12.459143145501,14.412231223122,2546871.9109939,-2530.328473631,2897951.4287785,19.612231223122,0,0
60.982587984445,-12.462817284745,14.416661666167,2546871.9109939,-2530.328473631,2897951.4287785,19.616661666167,0,0
60.982588254496,-12.46649142399,14.421092109211,2546871.9109939,-2530.328473631,2897951.4287785,19.621092109211,0,0
60.982588524547,-12.470165563234,14.425522552255,2546871.9109939,-2530.328473631,2897951.4287785,19.625522552255,0,0
60.982588794598,-12.473839702478,14.4299529953,2546871.9109939,-2530.328473631,2897951.4287785,19.6299529953,0,0
60.982589064649,-12.477513841723,14.434383438344,2546871.9109939,-2530.328473631,2897951.4287785,19.634383438344,0,0
60.9825893347,-12.481187980967,14.438813881388,2546871.9109939,-2530.328473631,2897951.4287785,19.638813881388,0,0
60.982589604751,-12.484862120211,14.443244324432,2546871.9109939,-2530.328473631,2897951.4287785,19.643244324432,0,0
60.982589874802,-12.488536259456,14.447674767477,2546871.9109939,-2530.328473631,2897951.4287785,19.647674767477,0,0
60.982590144853,-12.4922103987,14.452105210521,2546871.9109939,-2530.328473631,2897951.4287785,19.652105210521,0,0
60.982590414904,-12.495884537945,14.456535653565,2546871.9109939,-2530.328473631,2897951.4287785,19.656535653565,0,0
60.982590684955,-12.499558677189,14.46096609661,2546871.9109939,-2530.328473631,2897951.4287785,19.66096609661,0,0
60.982590955006,-12.503232816433,14.465396539654,2546871.9109939,-2530.328473631,2897951.4287785,19.665396539654,0,0
60.982591225057,-12.506906955678,14.469826982698,2546871.9109939,-2530.328473631,2897951.4287785,19.669826982698,0,0
60.982591495108,-12.510581094922,14.474257425743,2546871.9109939,-2530.328473631,2897951.4287785,19.674257425743,0,0
60.982591765159,-12.514255234166,14.478687868787,2546871.9109939,-2530.328473631,2897951.4287785,19.678687868787,0,0
60.98259203521,-12.517929373411,14.483118311831,2546871.9109939,-2530.328473631,2897951.4287785,19.683118311831,0,0
60.982592305262,-12.521603512655,14.487548754875,2546871.9109939,-2530.328473631,2897951.4287785,19.687548754875,0,0
60.982592575313,-12.525277651899,14.49197919792,2546871.9109939,-2530.328473631,2897951.4287785,19.69197919792,0,0
60.982592845364,-12.528951791144,14.496409640964,2546871.9109939,-2530.328473631,2897951.4287785,19.696409640964,0,0
60.982593115415,-12.532625930388,14.500840084008,2546871.9109939,-2530.328473631,2897951.4287785,19.700840084008,0,0
60.982593385466,-12.536300069632,14.505270527053,2546871.9109939,-2530.328473631,2897951.4287785,19.705270527053,0,0
60.982593655517,-12.539974208877,14.509700970097,2546871.9109939,-2530.328473631,2897951.4287785,19.709700970097,0,0
60.982593925568,-12.543648348121,14.514131413141,2546871.9109939,-2530.328473631,2897951.4287785,19.714131413141,0,0
60.982594195619,-12.547322487366,14.518561856186,2546871.9109939,-2530.328473631,2897951.4287785,19.718561856186,0,0
60.98259446567,-12.55099662661,14.52299229923,2546871.9109939,-2530.328473631,2897951.4287785,19.72299229923,0,0
60.982594735721,-12.554670765854,14.527422742274,2546871.9109939,-2530.328473631,2897951.4287785,19.727422742274,0,0
60.982595005772,-12.558344905099,14.531853185319,2546871.9109939,-2530.328473631,2897951.4287785,19.731853185319,0,0
60.982595275823,-12.562019044343,14.536283628363,2546871.9109939,-2530.328473631,2897951.4287785,19.736283628363,0,0
60.982595545874,-12.565693183587,14.540714071407,2546871.9109939,-2530.328473631,2897951.4287785,19.740714071407,0,0
60.982595815925,-12.569367322832,14.545144514451,2546871.9109939,-2530.328473631,2897951.4287785,19.745144514451,0,0
60.982596085976,-12.573041462076,14.549574957496,2546871.9109939,-2530.328473631,2897951.4287785,19.749574957496,0,0
60.982596356027,-12.57671560132,14.55400540054,2546871.9109939,-2530.328473631,2897951.4287785,19.75400540054,0,0
60.982596626078,-12.580389740565,14.558435843584,2546871.9109939,-2530.328473631,2897951.4287785,19.758435843584,0,0
60.98259689613,-12.584063879809,14.562866286629,2546871.9109939,-2530.328473631,2897951.4287785,19.762866286629,0,0
60.982597166181,-12.587738019054,14.567296729673,2546871.9109939,-2530.328473631,2897951.4287785,19.767296729673,0,0
60.982597436232,-12.591412158298,14.571727172717,2546871.9109939,-2530.328473631,2897951.4287785,19.771727172717,0,0
60.982597706283,-12.595086297542,14.576157615762,2546871.9109939,-2530.328473631,2897951.4287785,19.776157615762,0,0
60.982597976334,-12.598760436787,14.580588058806,2546871.9109939,-2530.328473631,2897951.4287785,19.780588058806,0,0
60.982598246385,-12.602434576031,14.58501850185,2546871.9109939,-2530.328473631,2897951.4287785,19.78501850185,0,0
60.982598516436,-12.606108715275,14.589448944894,2546871.9109939,-2530.328473631,2897951.4287785,19.789448944894,0,0
60.982598786487,-12.60978285452,14.593879387939,2546871.9109939,-2530.328473631,2897951.4287785,19.793879387939,0,0
60.982599056538,-12.613456993764,14.598309830983,2546871.9109939,-2530.328473631,2897951.4287785,19.798309830983,0,0
60.982599326589,-12.617131133008,14.602740274027,2546871.9109939,-2530.328473631,2897951.4287785,19.802740274027,0,0
60.98259959664,-12.620805272253,14.607170717072,2546871.9109939,-2530.328473631,2897951.4287785,19.807170717072,0,0
60.982599866691,-12.624479411497,14.611601160116,2546871.9109939,-2530.328473631,2897951.4287785,19.811601160116,0,0
60.982600136742,-12.628153550741,14.61603160316,2546871.9109939,-2530.328473631,2897951.4287785,19.81603160316,0,0
60.982600406793,-12.631827689986,14.620462046205,2546871.9109939,-2530.328473631,2897951.4287785,19.820462046205,0,0
60.982600676844,-12.63550182923,14.624892489249,2546871.9109939,-2530.328473631,2897951.4287785,19.824892489249,0,0
60.982600946895,-12.639175968475,14.629322932293,2546871.9109939,-2530.328473631,2897951.4287785,19.829322932293,0,0
60.982601216947,-12.642850107719,14.633753375338,2546871.9109939,-2530.328473631,2897951.4287785,19.833753375338,0,0
60.982601486998,-12.646524246963,14.638183818382,2546871.9109939,-2530.328473631,2897951.4287785,19.838183818382,0,0
60.982601757049,-12.650198386208,14.642614261426,2546871.9109939,-2530.328473631,2897951.4287785,19.842614261426,0,0
60.9826020271,-12.653872525452,14.64704470447,2546871.9109939,-2530.328473631,2897951.4287785,19.84704470447,0,0
60.982602297151,-12.657546664696,14.651475147515,2546871.9109939,-2530.328473631,2897951.4287785,19.851475147515,0,0
60.982602567202,-12.661220803941,14.655905590559,2546871.9109939,-2530.328473631,2897951.4287785,19.855905590559,0,0
60.982602837253,-12.664894943185,14.660336033603,2546871.9109939,-2530.328473631,2897951.4287785,19.860336033603,0,0
60.982603107304,-12.668569082429,14.664766476648,2546871.9109939,-2530.328473631,2897951.4287785,19.864766476648,0,0
60.982603377355,-12.672243221674,14.669196919692,2546871.9109939,-2530.328473631,2897951.4287785,19.869196919692,0,0
60.982603647406,-12.675917360918,14.673627362736,2546871.9109939,-2530.328473631,2897951.4287785,19.873627362736,0,0
60.982603917457,-12.679591500163,14.678057805781,2546871.9109939,-2530.328473631,2897951.4287785,19.878057805781,0,0
60.982604187508,-12.683265639407,14.682488248825,2546871.9109939,-2530.328473631,2897951.4287785,19.882488248825,0,0
60.982604457559,-12.686939778651,14.686918691869,2546871.9109939,-2530.328473631,2897951.4287785,19.886918691869,0,0
60.982604729082,-12.690613916091,14.691349134913,2563832.3207589,2561.9224701302,2891548.9367976,19.891349134913,0,0
60.982605000658,-12.694288053465,14.695779577958,2563832.3207589,2561.9224701302,2891548.9367976,19.895779577958,0,0
60.982605272235,-12.69796219084,14.700210021002,2563832.3207589,2561.9224701302,2891548.9367976,19.900210021002,0,0
60.982605543811,-12.701636328214,14.704640464046,2563832.3207589,2561.9224701302,2891548.9367976,19.904640464046,0,0
60.982605815387,-12.705310465588,14.709070907091,2563832.3207589,2561.9224701302,2891548.9367976,19.909070907091,0,0
60.982606086963,-12.708984602962,14.713501350135,2563832.3207589,2561.9224701302,2891548.9367976,19.913501350135,0,0
60.98260635854,-12.712658740337,14.717931793179,2563832.3207589,2561.9224701302,2891548.9367976,19.917931793179,0,0
60.982606630116,-12.716332877711,14.722362236224,2563832.3207589,2561.9224701302,2891548.9367976,19.922362236224,0,0
60.982606901692,-12.720007015085,14.726792679268,2563832.3207589,2561.9224701302,2891548.9367976,19.926792679268,0,0
60.982607173268,-12.72368115246,14.731223122312,2563832.3207589,2561.9224701302,2891548.9367976,19.931223122312,0,0
60.982607444845,-12.727355289834,14.735653565357,2563832.3207589,2561.9224701302,2891548.9367976,19.935653565357,0,0
60.982607716421,-12.731029427208,14.740084008401,2563832.3207589,2561.9224701302,2891548.9367976,19.940084008401,0,0
60.982607987997,-12.734703564583,14.744514451445,2563832.3207589,2561.9224701302,2891548.9367976,19.944514451445,0,0
60.982608259573,-12.738377701957,14.748944894489,2563832.3207589,2561.9224701302,2891548.9367976,19.948944894489,0,0
60.98260853115,-12.742051839331,14.753375337534,2563832.3207589,2561.9224701302,2891548.9367976,19.953375337534,0,0
60.982608802726,-12.745725976706,14.757805780578,2563832.3207589,2561.9224701302,2891548.9367976,19.957805780578,0,0
60.982609074302,-12.74940011408,14.762236223622,2563832.3207589,2561.9224701302,2891548.9367976,19.962236223622,0,0
60.982609345879,-12.753074251454,14.766666666667,2563832.3207589,2561.9224701302,2891548.9367976,19.966666666667,0,0
60.982609617455,-12.756748388828,14.771097109711,2563832.3207589,2561.9224701302,2891548.9367976,19.971097109711,0,0
60.982609889031,-12.760422526203,14.775527552755,2563832.3207589,2561.9224701302,2891548.9367976,19.975527552755,0,0
60.982610160607,-12.764096663577,14.7799579958,2563832.3207589,2561.9224701302,2891548.9367976,19.9799579958,0,0
60.982610432184,-12.767770800951,14.784388438844,2563832.3207589,2561.9224701302,2891548.9367976,19.984388438844,0,0
60.98261070376,-12.771444938326,14.788818881888,2563832.3207589,2561.9224701302,2891548.9367976,19.988818881888,0,0
60.982610975336,-12.7751190757,14.793249324932,2563832.3207589,2561.9224701302,2891548.9367976,19.993249324932,0,0
60.982611246912,-12.778793213074,14.797679767977,2563832.3207589,2561.9224701302,2891548.9367976,19.997679767977,0,0
60.982611518489,-12.782467350449,14.802110211021,2563832.3207589,2561.9224701302,2891548.9367976,20.002110211021,0,0
60.982611790065,-12.786141487823,14.806540654065,2563832.3207589,2561.9224701302,2891548.9367976,20.006540654065,0,0
60.982612061641,-12.789815625197,14.81097109711,2563832.3207589,2561.9224701302,2891548.9367976,20.01097109711,0,0
60.982612333217,-12.793489762571,14.815401540154,2563832.3207589,2561.9224701302,2891548.9367976,20.015401540154,0,0
60.982612604794,-12.797163899946,14.819831983198,2563832.3207589,2561.9224701302,2891548.9367976,20.019831983198,0,0
60.98261287637,-12.80083803732,14.824262426243,2563832.3207589,2561.9224701302,2891548.9367976,20.024262426243,0,0
60.982613147946,-12.804512174694,14.828692869287,2563832.3207589,2561.9224701302,2891548.9367976,20.028692869287,0,0
60.982613419522,-12.808186312069,14.833123312331,2563832.3207589,2561.9224701302,2891548.9367976,20.033123312331,0,0
60.982613691099,-12.811860449443,14.837553755376,2563832.3207589,2561.9224701302,2891548.9367976,20.037553755376,0,0
60.982613962675,-12.815534586817,14.84198419842,2563832.3207589,2561.9224701302,2891548.9367976,20.04198419842,0,0
60.982614234251,-12.819208724192,14.846414641464,2563832.3207589,2561.9224701302,2891548.9367976,20.046414641464,0,0
60.982614505827,-12.822882861566,14.850845084508,2563832.3207589,2561.9224701302,2891548.9367976,20.050845084508,0,0
60.982614777404,-12.82655699894,14.855275527553,2563832.3207589,2561.9224701302,2891548.9367976,20.055275527553,0,0
60.98261504898,-12.830231136315,14.859705970597,2563832.3207589,2561.9224701302,2891548.9367976,20.059705970597,0,0
60.982615320556,-12.833905273689,14.864136413641,2563832.3207589,2561.9224701302,2891548.9367976,20.064136413641,0,0
60.982615592132,-12.837579411063,14.868566856686,2563832.3207589,2561.9224701302,2891548.9367976,20.068566856686,0,0
60.982615863709,-12.841253548437,14.87299729973,2563832.3207589,2561.9224701302,2891548.9367976,20.07299729973,0,0
60.982616135285,-12.844927685812,14.877427742774,2563832.3207589,2561.9224701302,2891548.9367976,20.077427742774,0,0
60.982616406861,-12.848601823186,14.881858185819,2563832.3207589,2561.9224701302,2891548.9367976,20.081858185819,0,0
60.982616678437,-12.85227596056,14.886288628863,2563832.3207589,2561.9224701302,2891548.9367976,20.086288628863,0,0
60.982616950014,-12.855950097935,14.890719071907,2563832.3207589,2561.9224701302,2891548.9367976,20.090719071907,0,0
60.98261722159,-12.859624235309,14.895149514951,2563832.3207589,2561.9224701302,2891548.9367976,20.095149514951,0,0
60.982617493166,-12.863298372683,14.899579957996,2563832.3207589,2561.9224701302,2891548.9367976,20.099579957996,0,0
60.982617764742,-12.866972510058,14.90401040104,2563832.3207589,2561.9224701302,2891548.9367976,20.10401040104,0,0
60.982618036319,-12.870646647432,14.908440844084,2563832.3207589,2561.9224701302,2891548.9367976,20.108440844084,0,0
60.982618307895,-12.874320784806,14.912871287129,2563832.3207589,2561.9224701302,2891548.9367976,20.112871287129,0,0
60.982618579471,-12.87799492218,14.917301730173,2563832.3207589,2561.9224701302,2891548.9367976,20.117301730173,0,0
60.982618851047,-12.881669059555,14.921732173217,2563832.3207589,2561.9224701302,2891548.9367976,20.121732173217,0,0
60.982619122624,-12.885343196929,14.926162616262,2563832.3207589,2561.9224701302,2891548.9367976,20.126162616262,0,0
60.9826193942,-12.889017334303,14.930593059306,2563832.3207589,2561.9224701302,2891548.9367976,20.130593059306,0,0
60.982619665776,-12.892691471678,14.93502350235,2563832.3207589,2561.9224701302,2891548.9367976,20.13502350235,0,0
60.982619937352,-12.896365609052,14.939453945395,2563832.3207589,2561.9224701302,2891548.9367976,20.139453945395,0,0
60.982620208929,-12.900039746426,14.943884388439,2563832.3207589,2561.9224701302,2891548.9367976,20.143884388439,0,0
60.982620480505,-12.903713883801,14.948314831483,2563832.3207589,2561.9224701302,2891548.9367976,20.148314831483,0,0
60.982620752081,-12.907388021175,14.952745274527,2563832.3207589,2561.9224701302,2891548.9367976,20.152745274527,0,0
60.982621023657,-12.911062158549,14.957175717572,2563832.3207589,2561.9224701302,2891548.9367976,20.157175717572,0,0
60.982621295234,-12.914736295924,14.961606160616,2563832.3207589,2561.9224701302,2891548.9367976,20.161606160616,0,0
60.98262156681,-12.918410433298,14.96603660366,2563832.3207589,2561.9224701302,2891548.9367976,20.16603660366,0,0
60.982621838386,-12.922084570672,14.970467046705,2563832.3207589,2561.9224701302,2891548.9367976,20.170467046705,0,0
60.982622109962,-12.925758708046,14.974897489749,2563832.3207589,2561.9224701302,2891548.9367976,20.174897489749,0,0
60.982622381539,-12.929432845421,14.979327932793,2563832.3207589,2561.9224701302,2891548.9367976,20.179327932793,0,0
60.982622653115,-12.933106982795,14.983758375838,2563832.3207589,2561.9224701302,2891548.9367976,20.183758375838,0,0
60.982622924691,-12.936781120169,14.988188818882,2563832.3207589,2561.9224701302,2891548.9367976,20.188188818882,0,0
60.982623196267,-12.940455257544,14.992619261926,2563832.3207589,2561.9224701302,2891548.9367976,20.192619261926,0,0
60.982623467844,-12.944129394918,14.99704970497,2563832.3207589,2561.9224701302,2891548.9367976,20.19704970497,0,0
60.98262373942,-12.947803532292,15.001480148015,2563832.3207589,2561.9224701302,2891548.9367976,20.201480148015,0,0
60.982624010996,-12.951477669667,15.005910591059,2563832.3207589,2561.9224701302,2891548.9367976,20.205910591059,0,0
60.982624282573,-12.955151807041,15.010341034103,2563832.3207589,2561.9224701302,2891548.9367976,20.210341034103,0,0
60.982624554149,-12.958825944415,15.014771477148,2563832.3207589,2561.9224701302,2891548.9367976,20.214771477148,0,0
60.982624825725,-12.962500081789,15.019201920192,2563832.3207589,2561.9224701302,2891548.9367976,20.219201920192,0,0
60.982625097301,-12.966174219164,15.023632363236,2563832.3207589,2561.9224701302,2891548.9367976,20.223632363236,0,0
60.982625368878,-12.969848356538,15.028062806281,2563832.3207589,2561.9224701302,2891548.9367976,20.228062806281,0,0
60.982625640454,-12.973522493912,15.032493249325,2563832.3207589,2561.9224701302,2891548.9367976,20.232493249325,0,0
60.98262591203,-12.977196631287,15.036923692369,2563832.3207589,2561.9224701302,2891548.9367976,20.236923692369,0,0
60.982626183606,-12.980870768661,15.041354135414,2563832.3207589,2561.9224701302,2891548.9367976,20.241354135414,0,0
60.982626455183,-12.984544906035,15.045784578458,2563832.3207589,2561.9224701302,2891548.9367976,20.245784578458,0,0
60.982626726759,-12.98821904341,15.050215021502,2563832.3207589,2561.9224701302,2891548.9367976,20.250215021502,0,0
60.982626998335,-12.991893180784,15.054645464546,2563832.3207589,2561.9224701302,2891548.9367976,20.254645464546,0,0
60.982627269911,-12.995567318158,15.059075907591,2563832.3207589,2561.9224701302,2891548.9367976,20.259075907591,0,0
60.982627541488,-12.999241455533,15.063506350635,2563832.3207589,2561.9224701302,2891548.9367976,20.263506350635,0,0
60.982627813064,-13.002915592907,15.067936793679,2563832.3207589,2561.9224701302,2891548.9367976,20.267936793679,0,0
60.98262808464,-13.006589730281,15.072367236724,2563832.3207589,2561.9224701302,2891548.9367976,20.272367236724,0,0
60.982628356216,-13.010263867655,15.076797679768,2563832.3207589,2561.9224701302,2891548.9367976,20.276797679768,0,0
60.982628627793,-13.01393800503,15.081228122812,2563832.3207589,2561.9224701302,2891548.9367976,20.281228122812,0,0
60.982628899369,-13.017612142404,15.085658565857,2563832.3207589,2561.9224701302,2891548.9367976,20.285658565857,0,0
60.982629170945,-13.021286279778,15.090089008901,2563832.3207589,2561.9224701302,2891548.9367976,20.290089008901,0,0
60.982629442521,-13.024960417153,15.094519451945,2563832.3207589,2561.9224701302,2891548.9367976,20.294519451945,0,0
60.982629714098,-13.028634554527,15.098949894989,2563832.3207589,2561.9224701302,2891548.9367976,20.298949894989,0,0
60.982629985674,-13.032308691901,15.103380338034,2563832.3207589,2561.9224701302,2891548.9367976,20.303380338034,0,0
60.98263025725,-13.035982829276,15.107810781078,2563832.3207589,2561.9224701302,2891548.9367976,20.307810781078,0,0
60.982630528826,-13.03965696665,15.112241224122,2563832.3207589,2561.9224701302,2891548.9367976,20.312241224122,0,0
60.982630800403,-13.043331104024,15.116671667167,2563832.3207589,2561.9224701302,2891548.9367976,20.316671667167,0,0
60.982631071979,-13.047005241399,15.121102110211,2563832.3207589,2561.9224701302,2891548.9367976,20.321102110211,0,0
60.982631343555,-13.050679378773,15.125532553255,2563832.3207589,2561.9224701302,2891548.9367976,20.325532553255,0,0
60.982631615131,-13.054353516147,15.1299629963,2563832.3207589,2561.9224701302,2891548.9367976,20.3299629963,0,0
60.982631886708,-13.058027653521,15.134393439344,2563832.3207589,2561.9224701302,2891548.9367976,20.334393439344,0,0
60.982632158284,-13.061701790896,15.138823882388,2563832.3207589,2561.9224701302,2891548.9367976,20.338823882388,0,0
60.98263242986,-13.06537592827,15.143254325433,2563832.3207589,2561.9224701302,2891548.9367976,20.343254325433,0,0
60.982632701436,-13.069050065644,15.147684768477,2563832.3207589,2561.9224701302,2891548.9367976,20.347684768477,0,0
60.982632973013,-13.072724203019,15.152115211521,2563832.3207589,2561.9224701302,2891548.9367976,20.352115211521,0,0
60.982633244589,-13.076398340393,15.156545654565,2563832.3207589,2561.9224701302,2891548.9367976,20.356545654565,0,0
60.982633516165,-13.080072477767,15.16097609761,2563832.3207589,2561.9224701302,2891548.9367976,20.36097609761,0,0
60.982633787741,-13.083746615142,15.165406540654,2563832.3207589,2561.9224701302,2891548.9367976,20.365406540654,0,0
60.982634059318,-13.087420752516,15.169836983698,2563832.3207589,2561.9224701302,2891548.9367976,20.369836983698,0,0
60.982634330894,-13.09109488989,15.174267426743,2563832.3207589,2561.9224701302,2891548.9367976,20.374267426743,0,0
60.98263460247,-13.094769027264,15.178697869787,2563832.3207589,2561.9224701302,2891548.9367976,20.378697869787,0,0
60.982634874046,-13.098443164639,15.183128312831,2563832.3207589,2561.9224701302,2891548.9367976,20.383128312831,0,0
60.982635145623,-13.102117302013,15.187558755876,2563832.3207589,2561.9224701302,2891548.9367976,20.387558755876,0,0
60.982635417199,-13.105791439387,15.19198919892,2563832.3207589,2561.9224701302,2891548.9367976,20.39198919892,0,0
60.982635688775,-13.109465576762,15.196419641964,2563832.3207589,2561.9224701302,2891548.9367976,20.396419641964,0,0
60.982635960351,-13.113139714136,15.200850085009,2563832.3207589,2561.9224701302,2891548.9367976,20.400850085008,0,0
60.982636231928,-13.11681385151,15.205280528053,2563832.3207589,2561.9224701302,2891548.9367976,20.405280528053,0,0
60.982636503504,-13.120487988885,15.209710971097,2563832.3207589,2561.9224701302,2891548.9367976,20.409710971097,0,0
60.98263677508,-13.124162126259,15.214141414141,2563832.3207589,2561.9224701302,2891548.9367976,20.414141414141,0,0
60.982637046656,-13.127836263633,15.218571857186,2563832.3207589,2561.9224701302,2891548.9367976,20.418571857186,0,0
60.982637318233,-13.131510401008,15.22300230023,2563832.3207589,2561.9224701302,2891548.9367976,20.42300230023,0,0
60.982637589809,-13.135184538382,15.227432743274,2563832.3207589,2561.9224701302,2891548.9367976,20.427432743274,0,0
60.982637861385,-13.138858675756,15.231863186319,2563832.3207589,2561.9224701302,2891548.9367976,20.431863186319,0,0
60.982638132961,-13.14253281313,15.236293629363,2563832.3207589,2561.9224701302,2891548.9367976,20.436293629363,0,0
60.982638404538,-13.146206950505,15.240724072407,2563832.3207589,2561.9224701302,2891548.9367976,20.440724072407,0,0
60.982638676114,-13.149881087879,15.245154515452,2563832.3207589,2561.9224701302,2891548.9367976,20.445154515452,0,0
60.98263894769,-13.153555225253,15.249584958496,2563832.3207589,2561.9224701302,2891548.9367976,20.449584958496,0,0
60.982639219267,-13.157229362628,15.25401540154,2563832.3207589,2561.9224701302,2891548.9367976,20.45401540154,0,0
60.982639490843,-13.160903500002,15.258445844584,2563832.3207589,2561.9224701302,2891548.9367976,20.458445844584,0,0
60.982639762419,-13.164577637376,15.262876287629,2563832.3207589,2561.9224701302,2891548.9367976,20.462876287629,0,0
60.982640033995,-13.168251774751,15.267306730673,2563832.3207589,2561.9224701302,2891548.9367976,20.467306730673,0,0
60.982640305572,-13.171925912125,15.271737173717,2563832.3207589,2561.9224701302,2891548.9367976,20.471737173717,0,0
60.982640577148,-13.175600049499,15.276167616762,2563832.3207589,2561.9224701302,2891548.9367976,20.476167616762,0,0
60.982640848724,-13.179274186873,15.280598059806,2563832.3207589,2561.9224701302,2891548.9367976,20.480598059806,0,0
60.9826411203,-13.182948324248,15.28502850285,2563832.3207589,2561.9224701302,2891548.9367976,20.48502850285,0,0
60.982641391877,-13.186622461622,15.289458945895,2563832.3207589,2561.9224701302,2891548.9367976,20.489458945895,0,0
60.982641663453,-13.190296598996,15.293889388939,2563832.3207589,2561.9224701302,2891548.9367976,20.493889388939,0,0
60.982641935029,-13.193970736371,15.298319831983,2563832.3207589,2561.9224701302,2891548.9367976,20.498319831983,0,0
60.982642206605,-13.197644873745,15.302750275028,2563832.3207589,2561.9224701302,2891548.9367976,20.502750275028,0,0
60.982642478182,-13.201319011119,15.307180718072,2563832.3207589,2561.9224701302,2891548.9367976,20.507180718072,0,0
60.982642749758,-13.204993148494,15.311611161116,2563832.3207589,2561.9224701302,2891548.9367976,20.511611161116,0,0
60.982643021334,-13.208667285868,15.31604160416,2563832.3207589,2561.9224701302,2891548.9367976,20.51604160416,0,0
60.98264329291,-13.212341423242,15.320472047205,2563832.3207589,2561.9224701302,2891548.9367976,20.520472047205,0,0
60.982643564487,-13.216015560617,15.324902490249,2563832.3207589,2561.9224701302,2891548.9367976,20.524902490249,0,0
60.982643836063,-13.219689697991,15.329332933293,2563832.3207589,2561.9224701302,2891548.9367976,20.529332933293,0,0
60.982644107639,-13.223363835365,15.333763376338,2563832.3207589,2561.9224701302,2891548.9367976,20.533763376338,0,0
60.982644379215,-13.227037972739,15.338193819382,2563832.3207589,2561.9224701302,2891548.9367976,20.538193819382,0,0
60.982644650792,-13.230712110114,15.342624262426,2563832.3207589,2561.9224701302,2891548.9367976,20.542624262426,0,0
60.982644922368,-13.234386247488,15.347054705471,2563832.3207589,2561.9224701302,2891548.9367976,20.547054705471,0,0
60.982645193944,-13.238060384862,15.351485148515,2563832.3207589,2561.9224701302,2891548.9367976,20.551485148515,0,0
60.98264546607,-13.241734523492,15.355915591559,2569091.2518486,-3436.8054066135,2876960.1253459,20.555915591559,0,0
60.982645738454,-13.245408662715,15.360346034603,2569091.2518486,-3436.8054066135,2876960.1253459,20.560346034603,0,0
60.982646010839,-13.249082801938,15.364776477648,2569091.2518486,-3436.8054066135,2876960.1253459,20.564776477648,0,0
60.982646283224,-13.252756941161,15.369206920692,2569091.2518486,-3436.8054066135,2876960.1253459,20.569206920692,0,0
60.982646555609,-13.256431080384,15.373637363736,2569091.2518486,-3436.8054066135,2876960.1253459,20.573637363736,0,0
60.982646827993,-13.260105219607,15.378067806781,2569091.2518486,-3436.8054066135,2876960.1253459,20.578067806781,0,0
60.982647100378,-13.26377935883,15.382498249825,2569091.2518486,-3436.8054066135,2876960.1253459,20.582498249825,0,0
60.982647372763,-13.267453498053,15.386928692869,2569091.2518486,-3436.8054066135,2876960.1253459,20.586928692869,0,0
60.982647645148,-13.271127637276,15.391359135914,2569091.2518486,-3436.8054066135,2876960.1253459,20.591359135914,0,0
60.982647917532,-13.274801776499,15.395789578958,2569091.2518486,-3436.8054066135,2876960.1253459,20.595789578958,0,0
60.982648189917,-13.278475915722,15.400220022002,2569091.2518486,-3436.8054066135,2876960.1253459,20.600220022002,0,0
60.982648462302,-13.282150054945,15.404650465047,2569091.2518486,-3436.8054066135,2876960.1253459,20.604650465047,0,0
60.982648734687,-13.285824194168,15.409080908091,2569091.2518486,-3436.8054066135,2876960.1253459,20.609080908091,0,0
60.982649007071,-13.28949833339,15.413511351135,2569091.2518486,-3436.8054066135,2876960.1253459,20.613511351135,0,0
60.982649279456,-13.293172472613,15.417941794179,2569091.2518486,-3436.8054066135,2876960.1253459,20.617941794179,0,0
60.982649551841,-13.296846611836,15.422372237224,2569091.2518486,-3436.8054066135,2876960.1253459,20.622372237224,0,0
60.982649824226,-13.300520751059,15.426802680268,2569091.2518486,-3436.8054066135,2876960.1253459,20.626802680268,0,0
60.98265009661,-13.304194890282,15.431233123312,2569091.2518486,-3436.8054066135,2876960.1253459,20.631233123312,0,0
60.982650368995,-13.307869029505,15.435663566357,2569091.2518486,-3436.8054066135,2876960.1253459,20.635663566357,0,0
60.98265064138,-13.311543168728,15.440094009401,2569091.2518486,-3436.8054066135,2876960.1253459,20.640094009401,0,0
60.982650913765,-13.315217307951,15.444524452445,2569091.2518486,-3436.8054066135,2876960.1253459,20.644524452445,0,0
60.982651186149,-13.318891447174,15.44895489549,2569091.2518486,-3436.8054066135,2876960.1253459,20.64895489549,0,0
60.982651458534,-13.322565586397,15.453385338534,2569091.2518486,-3436.8054066135,2876960.1253459,20.653385338534,0,0
60.982651730919,-13.32623972562,15.457815781578,2569091.2518486,-3436.8054066135,2876960.1253459,20.657815781578,0,0
60.982652003304,-13.329913864843,15.462246224622,2569091.2518486,-3436.8054066135,2876960.1253459,20.662246224622,0,0
60.982652275688,-13.333588004066,15.466676667667,2569091.2518486,-3436.8054066135,2876960.1253459,20.666676667667,0,0
60.982652548073,-13.337262143288,15.471107110711,2569091.2518486,-3436.8054066135,2876960.1253459,20.671107110711,0,0
60.982652820458,-13.340936282511,15.475537553755,2569091.2518486,-3436.8054066135,2876960.1253459,20.675537553755,0,0
60.982653092842,-13.344610421734,15.4799679968,2569091.2518486,-3436.8054066135,2876960.1253459,20.6799679968,0,0
60.982653365227,-13.348284560957,15.484398439844,2569091.2518486,-3436.8054066135,2876960.1253459,20.684398439844,0,0
60.982653637612,-13.35195870018,15.488828882888,2569091.2518486,-3436.8054066135,2876960.1253459,20.688828882888,0,0
60.982653909997,-13.355632839403,15.493259325933,2569091.2518486,-3436.8054066135,2876960.1253459,20.693259325933,0,0
60.982654182381,-13.359306978626,15.497689768977,2569091.2518486,-3436.8054066135,2876960.1253459,20.697689768977,0,0
60.982654454766,-13.362981117849,15.502120212021,2569091.2518486,-3436.8054066135,2876960.1253459,20.702120212021,0,0
60.982654727151,-13.366655257072,15.506550655066,2569091.2518486,-3436.8054066135,2876960.1253459,20.706550655066,0,0
60.982654999536,-13.370329396295,15.51098109811,2569091.2518486,-3436.8054066135,2876960.1253459,20.71098109811,0,0
60.98265527192,-13.374003535518,15.515411541154,2569091.2518486,-3436.8054066135,2876960.1253459,20.715411541154,0,0
60.982655544305,-13.377677674741,15.519841984198,2569091.2518486,-3436.8054066135,2876960.1253459,20.719841984198,0,0
60.98265581669,-13.381351813964,15.524272427243,2569091.2518486,-3436.8054066135,2876960.1253459,20.724272427243,0,0
60.982656089075,-13.385025953186,15.528702870287,2569091.2518486,-3436.8054066135,2876960.1253459,20.728702870287,0,0
60.982656361459,-13.388700092409,15.533133313331,2569091.2518486,-3436.8054066135,2876960.1253459,20.733133313331,0,0
60.982656633844,-13.392374231632,15.537563756376,2569091.2518486,-3436.8054066135,2876960.1253459,20.737563756376,0,0
60.982656906229,-13.396048370855,15.54199419942,2569091.2518486,-3436.8054066135,2876960.1253459,20.74199419942,0,0
60.982657178614,-13.399722510078,15.546424642464,2569091.2518486,-3436.8054066135,2876960.1253459,20.746424642464,0,0
60.982657450998,-13.403396649301,15.550855085509,2569091.2518486,-3436.8054066135,2876960.1253459,20.750855085509,0,0
60.982657723383,-13.407070788524,15.555285528553,2569091.2518486,-3436.8054066135,2876960.1253459,20.755285528553,0,0
60.982657995768,-13.410744927747,15.559715971597,2569091.2518486,-3436.8054066135,2876960.1253459,20.759715971597,0,0
60.982658268153,-13.41441906697,15.564146414641,2569091.2518486,-3436.8054066135,2876960.1253459,20.764146414641,0,0
60.982658540537,-13.418093206193,15.568576857686,2569091.2518486,-3436.8054066135,2876960.1253459,20.768576857686,0,0
60.982658812922,-13.421767345416,15.57300730073,2569091.2518486,-3436.8054066135,2876960.1253459,20.77300730073,0,0
60.982659085307,-13.425441484639,15.577437743774,2569091.2518486,-3436.8054066135,2876960.1253459,20.777437743774,0,0
60.982659357692,-13.429115623862,15.581868186819,2569091.2518486,-3436.8054066135,2876960.1253459,20.781868186819,0,0
60.982659630076,-13.432789763084,15.586298629863,2569091.2518486,-3436.8054066135,2876960.1253459,20.786298629863,0,0
60.982659902461,-13.436463902307,15.590729072907,2569091.2518486,-3436.8054066135,2876960.1253459,20.790729072907,0,0
60.982660174846,-13.44013804153,15.595159515952,2569091.2518486,-3436.8054066135,2876960.1253459,20.795159515952,0,0
60.982660447231,-13.443812180753,15.599589958996,2569091.2518486,-3436.8054066135,2876960.1253459,20.799589958996,0,0
60.982660719615,-13.447486319976,15.60402040204,2569091.2518486,-3436.8054066135,2876960.1253459,20.80402040204,0,0
60.982660992,-13.451160459199,15.608450845085,2569091.2518486,-3436.8054066135,2876960.1253459,20.808450845085,0,0
60.982661264385,-13.454834598422,15.612881288129,2569091.2518486,-3436.8054066135,2876960.1253459,20.812881288129,0,0
60.98266153677,-13.458508737645,15.617311731173,2569091.2518486,-3436.8054066135,2876960.1253459,20.817311731173,0,0
60.982661809154,-13.462182876868,15.621742174217,2569091.2518486,-3436.8054066135,2876960.1253459,20.821742174217,0,0
60.982662081539,-13.465857016091,15.626172617262,2569091.2518486,-3436.8054066135,2876960.1253459,20.826172617262,0,0
60.982662353924,-13.469531155314,15.630603060306,2569091.2518486,-3436.8054066135,2876960.1253459,20.830603060306,0,0
60.982662626309,-13.473205294537,15.63503350335,2569091.2518486,-3436.8054066135,2876960.1253459,20.83503350335,0,0
60.982662898693,-13.47687943376,15.639463946395,2569091.2518486,-3436.8054066135,2876960.1253459,20.839463946395,0,0
60.982663171078,-13.480553572983,15.643894389439,2569091.2518486,-3436.8054066135,2876960.1253459,20.843894389439,0,0
60.982663443463,-13.484227712205,15.648324832483,2569091.2518486,-3436.8054066135,2876960.1253459,20.848324832483,0,0
60.982663715848,-13.487901851428,15.652755275528,2569091.2518486,-3436.8054066135,2876960.1253459,20.852755275528,0,0
60.982663988232,-13.491575990651,15.657185718572,2569091.2518486,-3436.8054066135,2876960.1253459,20.857185718572,0,0
60.982664260617,-13.495250129874,15.661616161616,2569091.2518486,-3436.8054066135,2876960.1253459,20.861616161616,0,0
60.982664533002,-13.498924269097,15.66604660466,2569091.2518486,-3436.8054066135,2876960.1253459,20.86604660466,0,0
60.982664805387,-13.50259840832,15.670477047705,2569091.2518486,-3436.8054066135,2876960.1253459,20.870477047705,0,0
60.982665077771,-13.506272547543,15.674907490749,2569091.2518486,-3436.8054066135,2876960.1253459,20.874907490749,0,0
60.982665350156,-13.509946686766,15.679337933793,2569091.2518486,-3436.8054066135,2876960.1253459,20.879337933793,0,0
60.982665622541,-13.513620825989,15.683768376838,2569091.2518486,-3436.8054066135,2876960.1253459,20.883768376838,0,0
60.982665894926,-13.517294965212,15.688198819882,2569091.2518486,-3436.8054066135,2876960.1253459,20.888198819882,0,0
60.98266616731,-13.520969104435,15.692629262926,2569091.2518486,-3436.8054066135,2876960.1253459,20.892629262926,0,0
60.982666439695,-13.524643243658,15.697059705971,2569091.2518486,-3436.8054066135,2876960.1253459,20.897059705971,0,0
60.98266671208,-13.528317382881,15.701490149015,2569091.2518486,-3436.8054066135,2876960.1253459,20.901490149015,0,0
60.982666984465,-13.531991522103,15.705920592059,2569091.2518486,-3436.8054066135,2876960.1253459,20.905920592059,0,0
60.982667256849,-13.535665661326,15.710351035104,2569091.2518486,-3436.8054066135,2876960.1253459,20.910351035104,0,0
60.982667529234,-13.539339800549,15.714781478148,2569091.2518486,-3436.8054066135,2876960.1253459,20.914781478148,0,0
60.982667801619,-13.543013939772,15.719211921192,2569091.2518486,-3436.8054066135,2876960.1253459,20.919211921192,0,0
60.982668074004,-13.546688078995,15.723642364236,2569091.2518486,-3436.8054066135,2876960.1253459,20.923642364236,0,0
60.982668346388,-13.550362218218,15.728072807281,2569091.2518486,-3436.8054066135,2876960.1253459,20.928072807281,0,0
60.982668618773,-13.554036357441,15.732503250325,2569091.2518486,-3436.8054066135,2876960.1253459,20.932503250325,0,0
60.982668891158,-13.557710496664,15.736933693369,2569091.2518486,-3436.8054066135,2876960.1253459,20.936933693369,0,0
60.982669163543,-13.561384635887,15.741364136414,2569091.2518486,-3436.8054066135,2876960.1253459,20.941364136414,0,0
60.982669435927,-13.56505877511,15.745794579458,2569091.2518486,-3436.8054066135,2876960.1253459,20.945794579458,0,0
60.982669708312,-13.568732914333,15.750225022502,2569091.2518486,-3436.8054066135,2876960.1253459,20.950225022502,0,0
60.982669980697,-13.572407053556,15.754655465547,2569091.2518486,-3436.8054066135,2876960.1253459,20.954655465547,0,0
60.982670253082,-13.576081192779,15.759085908591,2569091.2518486,-3436.8054066135,2876960.1253459,20.959085908591,0,0
60.982670525466,-13.579755332001,15.763516351635,2569091.2518486,-3436.8054066135,2876960.1253459,20.963516351635,0,0
60.982670797851,-13.583429471224,15.767946794679,2569091.2518486,-3436.8054066135,2876960.1253459,20.967946794679,0,0
60.982671070236,-13.587103610447,15.772377237724,2569091.2518486,-3436.8054066135,2876960.1253459,20.972377237724,0,0
60.982671342621,-13.59077774967,15.776807680768,2569091.2518486,-3436.8054066135,2876960.1253459,20.976807680768,0,0
60.982671615005,-13.594451888893,15.781238123812,2569091.2518486,-3436.8054066135,2876960.1253459,20.981238123812,0,0
60.98267188739,-13.598126028116,15.785668566857,2569091.2518486,-3436.8054066135,2876960.1253459,20.985668566857,0,0
60.982672159775,-13.601800167339,15.790099009901,2569091.2518486,-3436.8054066135,2876960.1253459,20.990099009901,0,0
60.98267243216,-13.605474306562,15.794529452945,2569091.2518486,-3436.8054066135,2876960.1253459,20.994529452945,0,0
60.982672704544,-13.609148445785,15.79895989599,2569091.2518486,-3436.8054066135,2876960.1253459,20.99895989599,0,0
60.982672976929,-13.612822585008,15.803390339034,2569091.2518486,-3436.8054066135,2876960.1253459,21.003390339034,0,0
60.982673249314,-13.616496724231,15.807820782078,2569091.2518486,-3436.8054066135,2876960.1253459,21.007820782078,0,0
60.982673521699,-13.620170863454,15.812251225123,2569091.2518486,-3436.8054066135,2876960.1253459,21.012251225123,0,0
60.982673794083,-13.623845002677,15.816681668167,2569091.2518486,-3436.8054066135,2876960.1253459,21.016681668167,0,0
60.982674066468,-13.627519141899,15.821112111211,2569091.2518486,-3436.8054066135,2876960.1253459,21.021112111211,0,0
60.982674338853,-13.631193281122,15.825542554255,2569091.2518486,-3436.8054066135,2876960.1253459,21.025542554255,0,0
60.982674611237,-13.634867420345,15.8299729973,2569091.2518486,-3436.8054066135,2876960.1253459,21.0299729973,0,0
60.982674883622,-13.638541559568,15.834403440344,2569091.2518486,-3436.8054066135,2876960.1253459,21.034403440344,0,0
60.982675156007,-13.642215698791,15.838833883388,2569091.2518486,-3436.8054066135,2876960.1253459,21.038833883388,0,0
60.982675428392,-13.645889838014,15.843264326433,2569091.2518486,-3436.8054066135,2876960.1253459,21.043264326433,0,0
60.982675700776,-13.649563977237,15.847694769477,2569091.2518486,-3436.8054066135,2876960.1253459,21.047694769477,0,0
60.982675973161,-13.65323811646,15.852125212521,2569091.2518486,-3436.8054066135,2876960.1253459,21.052125212521,0,0
60.982676245546,-13.656912255683,15.856555655566,2569091.2518486,-3436.8054066135,2876960.1253459,21.056555655566,0,0
60.982676517931,-13.660586394906,15.86098609861,2569091.2518486,-3436.8054066135,2876960.1253459,21.06098609861,0,0
60.982676790315,-13.664260534129,15.865416541654,2569091.2518486,-3436.8054066135,2876960.1253459,21.065416541654,0,0
60.9826770627,-13.667934673352,15.869846984698,2569091.2518486,-3436.8054066135,2876960.1253459,21.069846984698,0,0
60.982677335085,-13.671608812575,15.874277427743,2569091.2518486,-3436.8054066135,2876960.1253459,21.074277427743,0,0
60.98267760747,-13.675282951797,15.878707870787,2569091.2518486,-3436.8054066135,2876960.1253459,21.078707870787,0,0
60.982677879854,-13.67895709102,15.883138313831,2569091.2518486,-3436.8054066135,2876960.1253459,21.083138313831,0,0
60.982678152239,-13.682631230243,15.887568756876,2569091.2518486,-3436.8054066135,2876960.1253459,21.087568756876,0,0
60.982678424624,-13.686305369466,15.89199919992,2569091.2518486,-3436.8054066135,2876960.1253459,21.09199919992,0,0
60.982678697009,-13.689979508689,15.896429642964,2569091.2518486,-3436.8054066135,2876960.1253459,21.096429642964,0,0
60.982678969393,-13.693653647912,15.900860086009,2569091.2518486,-3436.8054066135,2876960.1253459,21.100860086009,0,0
60.982679241778,-13.697327787135,15.905290529053,2569091.2518486,-3436.8054066135,2876960.1253459,21.105290529053,0,0
60.982679514163,-13.701001926358,15.909720972097,2569091.2518486,-3436.8054066135,2876960.1253459,21.109720972097,0,0
60.982679786548,-13.704676065581,15.914151415142,2569091.2518486,-3436.8054066135,2876960.1253459,21.114151415142,0,0
60.982680058932,-13.708350204804,15.918581858186,2569091.2518486,-3436.8054066135,2876960.1253459,21.118581858186,0,0
60.982680331317,-13.712024344027,15.92301230123,2569091.2518486,-3436.8054066135,2876960.1253459,21.12301230123,0,0
60.982680603702,-13.71569848325,15.927442744274,2569091.2518486,-3436.8054066135,2876960.1253459,21.127442744274,0,0
60.982680876087,-13.719372622473,15.931873187319,2569091.2518486,-3436.8054066135,2876960.1253459,21.131873187319,0,0
60.982681149505,-13.723046760531,15.936303630363,2584242.1272317,211.97112727977,2871392.4369911,21.136303630363,0,0
60.982681423248,-13.726720898224,15.940734073407,2584242.1272317,211.97112727977,2871392.4369911,21.140734073407,0,0
60.982681696991,-13.730395035917,15.945164516452,2584242.1272317,211.97112727977,2871392.4369911,21.145164516452,0,0
60.982681970734,-13.73406917361,15.949594959496,2584242.1272317,211.97112727977,2871392.4369911,21.149594959496,0,0
60.982682244478,-13.737743311303,15.95402540254,2584242.1272317,211.97112727977,2871392.4369911,21.15402540254,0,0
60.982682518221,-13.741417448995,15.958455845585,2584242.1272317,211.97112727977,2871392.4369911,21.158455845585,0,0
60.982682791964,-13.745091586688,15.962886288629,2584242.1272317,211.97112727977,2871392.4369911,21.162886288629,0,0
60.982683065707,-13.748765724381,15.967316731673,2584242.1272317,211.97112727977,2871392.4369911,21.167316731673,0,0
60.98268333945,-13.752439862074,15.971747174717,2584242.1272317,211.97112727977,2871392.4369911,21.171747174717,0,0
60.982683613193,-13.756113999766,15.976177617762,2584242.1272317,211.97112727977,2871392.4369911,21.176177617762,0,0
60.982683886937,-13.759788137459,15.980608060806,2584242.1272317,211.97112727977,2871392.4369911,21.180608060806,0,0
60.98268416068,-13.763462275152,15.98503850385,2584242.1272317,211.97112727977,2871392.4369911,21.18503850385,0,0
60.982684434423,-13.767136412845,15.989468946895,2584242.1272317,211.97112727977,2871392.4369911,21.189468946895,0,0
60.982684708166,-13.770810550538,15.993899389939,2584242.1272317,211.97112727977,2871392.4369911,21.193899389939,0,0
60.982684981909,-13.77448468823,15.998329832983,2584242.1272317,211.97112727977,2871392.4369911,21.198329832983,0,0
60.982685255652,-13.778158825923,16.002760276028,2584242.1272317,211.97112727977,2871392.4369911,21.202760276028,0,0
60.982685529396,-13.781832963616,16.007190719072,2584242.1272317,211.97112727977,2871392.4369911,21.207190719072,0,0
60.982685803139,-13.785507101309,16.011621162116,2584242.1272317,211.97112727977,2871392.4369911,21.211621162116,0,0
60.982686076882,-13.789181239002,16.016051605161,2584242.1272317,211.97112727977,2871392.4369911,21.216051605161,0,0
60.982686350625,-13.792855376694,16.020482048205,2584242.1272317,211.97112727977,2871392.4369911,21.220482048205,0,0
60.982686624368,-13.796529514387,16.024912491249,2584242.1272317,211.97112727977,2871392.4369911,21.224912491249,0,0
60.982686898112,-13.80020365208,16.029342934293,2584242.1272317,211.97112727977,2871392.4369911,21.229342934293,0,0
60.982687171855,-13.803877789773,16.033773377338,2584242.1272317,211.97112727977,2871392.4369911,21.233773377338,0,0
60.982687445598,-13.807551927465,16.038203820382,2584242.1272317,211.97112727977,2871392.4369911,21.238203820382,0,0
60.982687719341,-13.811226065158,16.042634263426,2584242.1272317,211.97112727977,2871392.4369911,21.242634263426,0,0
60.982687993084,-13.814900202851,16.047064706471,2584242.1272317,211.97112727977,2871392.4369911,21.247064706471,0,0
60.982688266827,-13.818574340544,16.051495149515,2584242.1272317,211.97112727977,2871392.4369911,21.251495149515,0,0
60.982688540571,-13.822248478237,16.055925592559,2584242.1272317,211.97112727977,2871392.4369911,21.255925592559,0,0
60.982688814314,-13.825922615929,16.060356035604,2584242.1272317,211.97112727977,2871392.4369911,21.260356035604,0,0
60.982689088057,-13.829596753622,16.064786478648,2584242.1272317,211.97112727977,2871392.4369911,21.264786478648,0,0
60.9826893618,-13.833270891315,16.069216921692,2584242.1272317,211.97112727977,2871392.4369911,21.269216921692,0,0
60.982689635543,-13.836945029008,16.073647364736,2584242.1272317,211.97112727977,2871392.4369911,21.273647364736,0,0
60.982689909286,-13.8406191667,16.078077807781,2584242.1272317,211.97112727977,2871392.4369911,21.278077807781,0,0
60.98269018303,-13.844293304393,16.082508250825,2584242.1272317,211.97112727977,2871392.4369911,21.282508250825,0,0
60.982690456773,-13.847967442086,16.086938693869,2584242.1272317,211.97112727977,2871392.4369911,21.286938693869,0,0
60.982690730516,-13.851641579779,16.091369136914,2584242.1272317,211.97112727977,2871392.4369911,21.291369136914,0,0
60.982691004259,-13.855315717472,16.095799579958,2584242.1272317,211.97112727977,2871392.4369911,21.295799579958,0,0
60.982691278002,-13.858989855164,16.100230023002,2584242.1272317,211.97112727977,2871392.4369911,21.300230023002,0,0
60.982691551746,-13.862663992857,16.104660466047,2584242.1272317,211.97112727977,2871392.4369911,21.304660466047,0,0
60.982691825489,-13.86633813055,16.109090909091,2584242.1272317,211.97112727977,2871392.4369911,21.309090909091,0,0
60.982692099232,-13.870012268243,16.113521352135,2584242.1272317,211.97112727977,2871392.4369911,21.313521352135,0,0
60.982692372975,-13.873686405936,16.11795179518,2584242.1272317,211.97112727977,2871392.4369911,21.31795179518,0,0
60.982692646718,-13.877360543628,16.122382238224,2584242.1272317,211.97112727977,2871392.4369911,21.322382238224,0,0
60.982692920461,-13.881034681321,16.126812681268,2584242.1272317,211.97112727977,2871392.4369911,21.326812681268,0,0
60.982693194205,-13.884708819014,16.131243124312,2584242.1272317,211.97112727977,2871392.4369911,21.331243124312,0,0
60.982693467948,-13.888382956707,16.135673567357,2584242.1272317,211.97112727977,2871392.4369911,21.335673567357,0,0
60.982693741691,-13.892057094399,16.140104010401,2584242.1272317,211.97112727977,2871392.4369911,21.340104010401,0,0
60.982694015434,-13.895731232092,16.144534453445,2584242.1272317,211.97112727977,2871392.4369911,21.344534453445,0,0
60.982694289177,-13.899405369785,16.14896489649,2584242.1272317,211.97112727977,2871392.4369911,21.34896489649,0,0
60.98269456292,-13.903079507478,16.153395339534,2584242.1272317,211.97112727977,2871392.4369911,21.353395339534,0,0
60.982694836664,-13.906753645171,16.157825782578,2584242.1272317,211.97112727977,2871392.4369911,21.357825782578,0,0
60.982695110407,-13.910427782863,16.162256225623,2584242.1272317,211.97112727977,2871392.4369911,21.362256225623,0,0
60.98269538415,-13.914101920556,16.166686668667,2584242.1272317,211.97112727977,2871392.4369911,21.366686668667,0,0
60.982695657893,-13.917776058249,16.171117111711,2584242.1272317,211.97112727977,2871392.4369911,21.371117111711,0,0
60.982695931636,-13.921450195942,16.175547554755,2584242.1272317,211.97112727977,2871392.4369911,21.375547554755,0,0
60.98269620538,-13.925124333635,16.1799779978,2584242.1272317,211.97112727977,2871392.4369911,21.3799779978,0,0
60.982696479123,-13.928798471327,16.184408440844,2584242.1272317,211.97112727977,2871392.4369911,21.384408440844,0,0
60.982696752866,-13.93247260902,16.188838883888,2584242.1272317,211.97112727977,2871392.4369911,21.388838883888,0,0
60.982697026609,-13.936146746713,16.193269326933,2584242.1272317,211.97112727977,2871392.4369911,21.393269326933,0,0
60.982697300352,-13.939820884406,16.197699769977,2584242.1272317,211.97112727977,2871392.4369911,21.397699769977,0,0
60.982697574095,-13.943495022098,16.202130213021,2584242.1272317,211.97112727977,2871392.4369911,21.402130213021,0,0
60.982697847839,-13.947169159791,16.206560656066,2584242.1272317,211.97112727977,2871392.4369911,21.406560656066,0,0
60.982698121582,-13.950843297484,16.21099109911,2584242.1272317,211.97112727977,2871392.4369911,21.41099109911,0,0
60.982698395325,-13.954517435177,16.215421542154,2584242.1272317,211.97112727977,2871392.4369911,21.415421542154,0,0
60.982698669068,-13.95819157287,16.219851985199,2584242.1272317,211.97112727977,2871392.4369911,21.419851985199,0,0
60.982698942811,-13.961865710562,16.224282428243,2584242.1272317,211.97112727977,2871392.4369911,21.424282428243,0,0
60.982699216554,-13.965539848255,16.228712871287,2584242.1272317,211.97112727977,2871392.4369911,21.428712871287,0,0
60.982699490298,-13.969213985948,16.233143314331,2584242.1272317,211.97112727977,2871392.4369911,21.433143314331,0,0
60.982699764041,-13.972888123641,16.237573757376,2584242.1272317,211.97112727977,2871392.4369911,21.437573757376,0,0
60.982700037784,-13.976562261333,16.24200420042,2584242.1272317,211.97112727977,2871392.4369911,21.44200420042,0,0
60.982700311527,-13.980236399026,16.246434643464,2584242.1272317,211.97112727977,2871392.4369911,21.446434643464,0,0
60.98270058527,-13.983910536719,16.250865086509,2584242.1272317,211.97112727977,2871392.4369911,21.450865086509,0,0
60.982700859014,-13.987584674412,16.255295529553,2584242.1272317,211.97112727977,2871392.4369911,21.455295529553,0,0
60.982701132757,-13.991258812105,16.259725972597,2584242.1272317,211.97112727977,2871392.4369911,21.459725972597,0,0
60.9827014065,-13.994932949797,16.264156415642,2584242.1272317,211.97112727977,2871392.4369911,21.464156415642,0,0
60.982701680243,-13.99860708749,16.268586858686,2584242.1272317,211.97112727977,2871392.4369911,21.468586858686,0,0
60.982701953986,-14.002281225183,16.27301730173,2584242.1272317,211.97112727977,2871392.4369911,21.47301730173,0,0
60.982702227729,-14.005955362876,16.277447744774,2584242.1272317,211.97112727977,2871392.4369911,21.477447744774,0,0
60.982702501473,-14.009629500569,16.281878187819,2584242.1272317,211.97112727977,2871392.4369911,21.481878187819,0,0
60.982702775216,-14.013303638261,16.286308630863,2584242.1272317,211.97112727977,2871392.4369911,21.486308630863,0,0
60.982703048959,-14.016977775954,16.290739073907,2584242.1272317,211.97112727977,2871392.4369911,21.490739073907,0,0
60.982703322702,-14.020651913647,16.295169516952,2584242.1272317,211.97112727977,2871392.4369911,21.495169516952,0,0
60.982703596445,-14.02432605134,16.299599959996,2584242.1272317,211.97112727977,2871392.4369911,21.499599959996,0,0
60.982703870188,-14.028000189032,16.30403040304,2584242.1272317,211.97112727977,2871392.4369911,21.50403040304,0,0
60.982704143932,-14.031674326725,16.308460846085,2584242.1272317,211.97112727977,2871392.4369911,21.508460846085,0,0
60.982704417675,-14.035348464418,16.312891289129,2584242.1272317,211.97112727977,2871392.4369911,21.512891289129,0,0
60.982704691418,-14.039022602111,16.317321732173,2584242.1272317,211.97112727977,2871392.4369911,21.517321732173,0,0
60.982704965161,-14.042696739804,16.321752175218,2584242.1272317,211.97112727977,2871392.4369911,21.521752175218,0,0
60.982705238904,-14.046370877496,16.326182618262,2584242.1272317,211.97112727977,2871392.4369911,21.526182618262,0,0
60.982705512647,-14.050045015189,16.330613061306,2584242.1272317,211.97112727977,2871392.4369911,21.530613061306,0,0
60.982705786391,-14.053719152882,16.33504350435,2584242.1272317,211.97112727977,2871392.4369911,21.53504350435,0,0
60.982706060134,-14.057393290575,16.339473947395,2584242.1272317,211.97112727977,2871392.4369911,21.539473947395,0,0
60.982706333877,-14.061067428267,16.343904390439,2584242.1272317,211.97112727977,2871392.4369911,21.543904390439,0,0
60.98270660762,-14.06474156596,16.348334833483,2584242.1272317,211.97112727977,2871392.4369911,21.548334833483,0,0
60.982706881363,-14.068415703653,16.352765276528,2584242.1272317,211.97112727977,2871392.4369911,21.552765276528,0,0
60.982707155107,-14.072089841346,16.357195719572,2584242.1272317,211.97112727977,2871392.4369911,21.557195719572,0,0
60.98270742885,-14.075763979039,16.361626162616,2584242.1272317,211.97112727977,2871392.4369911,21.561626162616,0,0
60.982707702593,-14.079438116731,16.366056605661,2584242.1272317,211.97112727977,2871392.4369911,21.566056605661,0,0
60.982707976336,-14.083112254424,16.370487048705,2584242.1272317,211.97112727977,2871392.4369911,21.570487048705,0,0
60.982708250079,-14.086786392117,16.374917491749,2584242.1272317,211.97112727977,2871392.4369911,21.574917491749,0,0
60.982708523822,-14.09046052981,16.379347934793,2584242.1272317,211.97112727977,2871392.4369911,21.579347934793,0,0
60.982708797566,-14.094134667503,16.383778377838,2584242.1272317,211.97112727977,2871392.4369911,21.583778377838,0,0
60.982709071309,-14.097808805195,16.388208820882,2584242.1272317,211.97112727977,2871392.4369911,21.588208820882,0,0
60.982709345052,-14.101482942888,16.392639263926,2584242.1272317,211.97112727977,2871392.4369911,21.592639263926,0,0
60.982709618795,-14.105157080581,16.397069706971,2584242.1272317,211.97112727977,2871392.4369911,21.597069706971,0,0
60.982709892538,-14.108831218274,16.401500150015,2584242.1272317,211.97112727977,2871392.4369911,21.601500150015,0,0
60.982710166281,-14.112505355966,16.405930593059,2584242.1272317,211.97112727977,2871392.4369911,21.605930593059,0,0
60.982710440025,-14.116179493659,16.410361036104,2584242.1272317,211.97112727977,2871392.4369911,21.610361036104,0,0
60.982710713768,-14.119853631352,16.414791479148,2584242.1272317,211.97112727977,2871392.4369911,21.614791479148,0,0
60.982710987511,-14.123527769045,16.419221922192,2584242.1272317,211.97112727977,2871392.4369911,21.619221922192,0,0
60.982711261254,-14.127201906738,16.423652365237,2584242.1272317,211.97112727977,2871392.4369911,21.623652365237,0,0
60.982711534997,-14.13087604443,16.428082808281,2584242.1272317,211.97112727977,2871392.4369911,21.628082808281,0,0
60.982711808741,-14.134550182123,16.432513251325,2584242.1272317,211.97112727977,2871392.4369911,21.632513251325,0,0
60.982712082484,-14.138224319816,16.436943694369,2584242.1272317,211.97112727977,2871392.4369911,21.636943694369,0,0
60.982712356227,-14.141898457509,16.441374137414,2584242.1272317,211.97112727977,2871392.4369911,21.641374137414,0,0
60.98271262997,-14.145572595202,16.445804580458,2584242.1272317,211.97112727977,2871392.4369911,21.645804580458,0,0
60.982712903713,-14.149246732894,16.450235023502,2584242.1272317,211.97112727977,2871392.4369911,21.650235023502,0,0
60.982713177456,-14.152920870587,16.454665466547,2584242.1272317,211.97112727977,2871392.4369911,21.654665466547,0,0
60.9827134512,-14.15659500828,16.459095909591,2584242.1272317,211.97112727977,2871392.4369911,21.659095909591,0,0
60.982713724943,-14.160269145973,16.463526352635,2584242.1272317,211.97112727977,2871392.4369911,21.663526352635,0,0
60.982713998686,-14.163943283665,16.46795679568,2584242.1272317,211.97112727977,2871392.4369911,21.66795679568,0,0
60.982714272429,-14.167617421358,16.472387238724,2584242.1272317,211.97112727977,2871392.4369911,21.672387238724,0,0
60.982714546172,-14.171291559051,16.476817681768,2584242.1272317,211.97112727977,2871392.4369911,21.676817681768,0,0
60.982714819915,-14.174965696744,16.481248124812,2584242.1272317,211.97112727977,2871392.4369911,21.681248124812,0,0
60.982715093659,-14.178639834437,16.485678567857,2584242.1272317,211.97112727977,2871392.4369911,21.685678567857,0,0
60.982715367402,-14.182313972129,16.490109010901,2584242.1272317,211.97112727977,2871392.4369911,21.690109010901,0,0
60.982715641145,-14.185988109822,16.494539453945,2584242.1272317,211.97112727977,2871392.4369911,21.694539453945,0,0
60.982715914888,-14.189662247515,16.49896989699,2584242.1272317,211.97112727977,2871392.4369911,21.69896989699,0,0
60.982716188631,-14.193336385208,16.503400340034,2584242.1272317,211.97112727977,2871392.4369911,21.703400340034,0,0
60.982716462375,-14.1970105229,16.507830783078,2584242.1272317,211.97112727977,2871392.4369911,21.707830783078,0,0
60.982716736118,-14.200684660593,16.512261226123,2584242.1272317,211.97112727977,2871392.4369911,21.712261226123,0,0
60.982717009861,-14.204358798286,16.516691669167,2584242.1272317,211.97112727977,2871392.4369911,21.716691669167,0,0
60.982717283604,-14.208032935979,16.521122112211,2584242.1272317,211.97112727977,2871392.4369911,21.721122112211,0,0
60.982717557347,-14.211707073672,16.525552555256,2584242.1272317,211.97112727977,2871392.4369911,21.725552555256,0,0
60.98271783109,-14.215381211364,16.5299829983,2584242.1272317,211.97112727977,2871392.4369911,21.7299829983,0,0
60.982718104834,-14.219055349057,16.534413441344,2584242.1272317,211.97112727977,2871392.4369911,21.734413441344,0,0
60.982718378577,-14.22272948675,16.538843884388,2584242.1272317,211.97112727977,2871392.4369911,21.738843884388,0,0
60.98271865232,-14.226403624443,16.543274327433,2584242.1272317,211.97112727977,2871392.4369911,21.743274327433,0,0
60.982718926063,-14.230077762136,16.547704770477,2584242.1272317,211.97112727977,2871392.4369911,21.747704770477,0,0
60.982719199806,-14.233751899828,16.552135213521,2584242.1272317,211.97112727977,2871392.4369911,21.752135213521,0,0
60.982719473549,-14.237426037521,16.556565656566,2584242.1272317,211.97112727977,2871392.4369911,21.756565656566,0,0
60.982719747293,-14.241100175214,16.56099609961,2584242.1272317,211.97112727977,2871392.4369911,21.76099609961,0,0
60.982720021036,-14.244774312907,16.565426542654,2584242.1272317,211.97112727977,2871392.4369911,21.765426542654,0,0
60.982720294779,-14.248448450599,16.569856985699,2584242.1272317,211.97112727977,2871392.4369911,21.769856985699,0,0
60.982720568522,-14.252122588292,16.574287428743,2584242.1272317,211.97112727977,2871392.4369911,21.774287428743,0,0
60.982720842265,-14.255796725985,16.578717871787,2584242.1272317,211.97112727977,2871392.4369911,21.778717871787,0,0
60.982721116009,-14.259470863678,16.583148314831,2584242.1272317,211.97112727977,2871392.4369911,21.783148314831,0,0
60.982721389752,-14.263145001371,16.587578757876,2584242.1272317,211.97112727977,2871392.4369911,21.787578757876,0,0
60.982721663495,-14.266819139063,16.59200920092,2584242.1272317,211.97112727977,2871392.4369911,21.79200920092,0,0
60.982721937238,-14.270493276756,16.596439643964,2584242.1272317,211.97112727977,2871392.4369911,21.796439643964,0,0
60.982722210981,-14.274167414449,16.600870087009,2584242.1272317,211.97112727977,2871392.4369911,21.800870087009,0,0
60.982722484724,-14.277841552142,16.605300530053,2584242.1272317,211.97112727977,2871392.4369911,21.805300530053,0,0
60.982722758468,-14.281515689834,16.609730973097,2584242.1272317,211.97112727977,2871392.4369911,21.809730973097,0,0
60.982723032211,-14.285189827527,16.614161416142,2584242.1272317,211.97112727977,2871392.4369911,21.814161416142,0,0
60.982723305954,-14.28886396522,16.618591859186,2584242.1272317,211.97112727977,2871392.4369911,21.818591859186,0,0
60.982723579697,-14.292538102913,16.62302230223,2584242.1272317,211.97112727977,2871392.4369911,21.82302230223,0,0
60.98272385344,-14.296212240606,16.627452745275,2584242.1272317,211.97112727977,2871392.4369911,21.827452745275,0,0
60.982724127183,-14.299886378298,16.631883188319,2584242.1272317,211.97112727977,2871392.4369911,21.831883188319,0,0
60.982724400927,-14.303560515991,16.636313631363,2584242.1272317,211.97112727977,2871392.4369911,21.836313631363,0,0
60.98272467467,-14.307234653684,16.640744074407,2584242.1272317,211.97112727977,2871392.4369911,21.840744074407,0,0
60.982724948413,-14.310908791377,16.645174517452,2584242.1272317,211.97112727977,2871392.4369911,21.845174517452,0,0
60.982725222156,-14.31458292907,16.649604960496,2584242.1272317,211.97112727977,2871392.4369911,21.849604960496,0,0
60.982725495899,-14.318257066762,16.65403540354,2584242.1272317,211.97112727977,2871392.4369911,21.85403540354,0,0
60.982725769643,-14.321931204455,16.658465846585,2584242.1272317,211.97112727977,2871392.4369911,21.858465846585,0,0
60.982726043386,-14.325605342148,16.662896289629,2584242.1272317,211.97112727977,2871392.4369911,21.862896289629,0,0
60.982726317129,-14.329279479841,16.667326732673,2584242.1272317,211.97112727977,2871392.4369911,21.867326732673,0,0
60.982726590872,-14.332953617533,16.671757175718,2584242.1272317,211.97112727977,2871392.4369911,21.871757175718,0,0
60.982726864615,-14.336627755226,16.676187618762,2584242.1272317,211.97112727977,2871392.4369911,21.876187618762,0,0
60.982727138358,-14.340301892919,16.680618061806,2584242.1272317,211.97112727977,2871392.4369911,21.880618061806,0,0
60.982727412102,-14.343976030612,16.68504850485,2584242.1272317,211.97112727977,2871392.4369911,21.88504850485,0,0
60.982727685845,-14.347650168305,16.689478947895,2584242.1272317,211.97112727977,2871392.4369911,21.889478947895,0,0
60.982727959588,-14.351324305997,16.693909390939,2584242.1272317,211.97112727977,2871392.4369911,21.893909390939,0,0
60.982728233331,-14.35499844369,16.698339833983,2584242.1272317,211.97112727977,2871392.4369911,21.898339833983,0,0
60.982728507074,-14.358672581383,16.702770277028,2584242.1272317,211.97112727977,2871392.4369911,21.902770277028,0,0
60.982728780817,-14.362346719076,16.707200720072,2584242.1272317,211.97112727977,2871392.4369911,21.907200720072,0,0
60.982729054561,-14.366020856768,16.711631163116,2584242.1272317,211.97112727977,2871392.4369911,21.911631163116,0,0
60.982729328304,-14.369694994461,16.716061606161,2584242.1272317,211.97112727977,2871392.4369911,21.916061606161,0,0
60.982729602047,-14.373369132154,16.720492049205,2584242.1272317,211.97112727977,2871392.4369911,21.920492049205,0,0
60.98272987579,-14.377043269847,16.724922492249,2584242.1272317,211.97112727977,2871392.4369911,21.924922492249,0,0
60.982730149533,-14.38071740754,16.729352935294,2584242.1272317,211.97112727977,2871392.4369911,21.929352935294,0,0
60.982730423276,-14.384391545232,16.733783378338,2584242.1272317,211.97112727977,2871392.4369911,21.933783378338,0,0
60.98273069702,-14.388065682925,16.738213821382,2584242.1272317,211.97112727977,2871392.4369911,21.938213821382,0,0
60.982730970763,-14.391739820618,16.742644264426,2584242.1272317,211.97112727977,2871392.4369911,21.942644264426,0,0
60.982731244506,-14.395413958311,16.747074707471,2584242.1272317,211.97112727977,2871392.4369911,21.947074707471,0,0
60.982731518249,-14.399088096004,16.751505150515,2584242.1272317,211.97112727977,2871392.4369911,21.951505150515,0,0
60.982731791992,-14.402762233696,16.755935593559,2584242.1272317,211.97112727977,2871392.4369911,21.955935593559,0,0
60.982732065736,-14.406436371389,16.760366036604,2584242.1272317,211.97112727977,2871392.4369911,21.960366036604,0,0
60.982732339479,-14.410110509082,16.764796479648,2584242.1272317,211.97112727977,2871392.4369911,21.964796479648,0,0
60.982732613222,-14.413784646775,16.769226922692,2584242.1272317,211.97112727977,2871392.4369911,21.969226922692,0,0
60.982732886965,-14.417458784467,16.773657365737,2584242.1272317,211.97112727977,2871392.4369911,21.973657365737,0,0
60.982733160708,-14.42113292216,16.778087808781,2584242.1272317,211.97112727977,2871392.4369911,21.978087808781,0,0
60.982733434451,-14.424807059853,16.782518251825,2584242.1272317,211.97112727977,2871392.4369911,21.982518251825,0,0
60.982733708457,-14.428481198119,16.786948694869,2587927.0968447,-3870.0191374573,2858764.5657738,21.986948694869,0,0
60.982733982831,-14.432155337188,16.791379137914,2587927.0968447,-3870.0191374573,2858764.5657738,21.991379137914,0,0
60.982734257205,-14.435829476257,16.795809580958,2587927.0968447,-3870.0191374573,2858764.5657738,21.995809580958,0,0
60.982734531578,-14.439503615327,16.800240024002,2587927.0968447,-3870.0191374573,2858764.5657738,22.000240024002,0,0
60.982734805952,-14.443177754396,16.804670467047,2587927.0968447,-3870.0191374573,2858764.5657738,22.004670467047,0,0
60.982735080326,-14.446851893465,16.809100910091,2587927.0968447,-3870.0191374573,2858764.5657738,22.009100910091,0,0
60.9827353547,-14.450526032534,16.813531353135,2587927.0968447,-3870.0191374573,2858764.5657738,22.013531353135,0,0
60.982735629073,-14.454200171604,16.81796179618,2587927.0968447,-3870.0191374573,2858764.5657738,22.01796179618,0,0
60.982735903447,-14.457874310673,16.822392239224,2587927.0968447,-3870.0191374573,2858764.5657738,22.022392239224,0,0
60.982736177821,-14.461548449742,16.826822682268,2587927.0968447,-3870.0191374573,2858764.5657738,22.026822682268,0,0
60.982736452194,-14.465222588811,16.831253125313,2587927.0968447,-3870.0191374573,2858764.5657738,22.031253125313,0,0
60.982736726568,-14.468896727881,16.835683568357,2587927.0968447,-3870.0191374573,2858764.5657738,22.035683568357,0,0
60.982737000942,-14.47257086695,16.840114011401,2587927.0968447,-3870.0191374573,2858764.5657738,22.040114011401,0,0
60.982737275316,-14.476245006019,16.844544454445,2587927.0968447,-3870.0191374573,2858764.5657738,22.044544454445,0,0
60.982737549689,-14.479919145089,16.84897489749,2587927.0968447,-3870.0191374573,2858764.5657738,22.04897489749,0,0
60.982737824063,-14.483593284158,16.853405340534,2587927.0968447,-3870.0191374573,2858764.5657738,22.053405340534,0,0
60.982738098437,-14.487267423227,16.857835783578,2587927.0968447,-3870.0191374573,2858764.5657738,22.057835783578,0,0
60.982738372811,-14.490941562296,16.862266226623,2587927.0968447,-3870.0191374573,2858764.5657738,22.062266226623,0,0
60.982738647184,-14.494615701366,16.866696669667,2587927.0968447,-3870.0191374573,2858764.5657738,22.066696669667,0,0
60.982738921558,-14.498289840435,16.871127112711,2587927.0968447,-3870.0191374573,2858764.5657738,22.071127112711,0,0
60.982739195932,-14.501963979504,16.875557555756,2587927.0968447,-3870.0191374573,2858764.5657738,22.075557555756,0,0
60.982739470306,-14.505638118573,16.8799879988,2587927.0968447,-3870.0191374573,2858764.5657738,22.0799879988,0,0
60.982739744679,-14.509312257643,16.884418441844,2587927.0968447,-3870.0191374573,2858764.5657738,22.084418441844,0,0
60.982740019053,-14.512986396712,16.888848884888,2587927.0968447,-3870.0191374573,2858764.5657738,22.088848884888,0,0
60.982740293427,-14.516660535781,16.893279327933,2587927.0968447,-3870.0191374573,2858764.5657738,22.093279327933,0,0
60.9827405678,-14.52033467485,16.897709770977,2587927.0968447,-3870.0191374573,2858764.5657738,22.097709770977,0,0
60.982740842174,-14.52400881392,16.902140214021,2587927.0968447,-3870.0191374573,2858764.5657738,22.102140214021,0,0
60.982741116548,-14.527682952989,16.906570657066,2587927.0968447,-3870.0191374573,2858764.5657738,22.106570657066,0,0
60.982741390922,-14.531357092058,16.91100110011,2587927.0968447,-3870.0191374573,2858764.5657738,22.11100110011,0,0
60.982741665295,-14.535031231127,16.915431543154,2587927.0968447,-3870.0191374573,2858764.5657738,22.115431543154,0,0
60.982741939669,-14.538705370197,16.919861986199,2587927.0968447,-3870.0191374573,2858764.5657738,22.119861986199,0,0
60.982742214043,-14.542379509266,16.924292429243,2587927.0968447,-3870.0191374573,2858764.5657738,22.124292429243,0,0
60.982742488417,-14.546053648335,16.928722872287,2587927.0968447,-3870.0191374573,2858764.5657738,22.128722872287,0,0
60.98274276279,-14.549727787405,16.933153315332,2587927.0968447,-3870.0191374573,2858764.5657738,22.133153315332,0,0
60.982743037164,-14.553401926474,16.937583758376,2587927.0968447,-3870.0191374573,2858764.5657738,22.137583758376,0,0
60.982743311538,-14.557076065543,16.94201420142,2587927.0968447,-3870.0191374573,2858764.5657738,22.14201420142,0,0
60.982743585912,-14.560750204612,16.946444644464,2587927.0968447,-3870.0191374573,2858764.5657738,22.146444644464,0,0
60.982743860285,-14.564424343682,16.950875087509,2587927.0968447,-3870.0191374573,2858764.5657738,22.150875087509,0,0
60.982744134659,-14.568098482751,16.955305530553,2587927.0968447,-3870.0191374573,2858764.5657738,22.155305530553,0,0
60.982744409033,-14.57177262182,16.959735973597,2587927.0968447,-3870.0191374573,2858764.5657738,22.159735973597,0,0
60.982744683407,-14.575446760889,16.964166416642,2587927.0968447,-3870.0191374573,2858764.5657738,22.164166416642,0,0
60.98274495778,-14.579120899959,16.968596859686,2587927.0968447,-3870.0191374573,2858764.5657738,22.168596859686,0,0
60.982745232154,-14.582795039028,16.97302730273,2587927.0968447,-3870.0191374573,2858764.5657738,22.17302730273,0,0
60.982745506528,-14.586469178097,16.977457745775,2587927.0968447,-3870.0191374573,2858764.5657738,22.177457745775,0,0
60.982745780901,-14.590143317166,16.981888188819,2587927.0968447,-3870.0191374573,2858764.5657738,22.181888188819,0,0
60.982746055275,-14.593817456236,16.986318631863,2587927.0968447,-3870.0191374573,2858764.5657738,22.186318631863,0,0
60.982746329649,-14.597491595305,16.990749074907,2587927.0968447,-3870.0191374573,2858764.5657738,22.190749074907,0,0
60.982746604023,-14.601165734374,16.995179517952,2587927.0968447,-3870.0191374573,2858764.5657738,22.195179517952,0,0
60.982746878396,-14.604839873443,16.999609960996,2587927.0968447,-3870.0191374573,2858764.5657738,22.199609960996,0,0
60.98274715277,-14.608514012513,17.00404040404,2587927.0968447,-3870.0191374573,2858764.5657738,22.20404040404,0,0
60.982747427144,-14.612188151582,17.008470847085,2587927.0968447,-3870.0191374573,2858764.5657738,22.208470847085,0,0
60.982747701518,-14.615862290651,17.012901290129,2587927.0968447,-3870.0191374573,2858764.5657738,22.212901290129,0,0
60.982747975891,-14.619536429721,17.017331733173,2587927.0968447,-3870.0191374573,2858764.5657738,22.217331733173,0,0
60.982748250265,-14.62321056879,17.021762176218,2587927.0968447,-3870.0191374573,2858764.5657738,22.221762176218,0,0
60.982748524639,-14.626884707859,17.026192619262,2587927.0968447,-3870.0191374573,2858764.5657738,22.226192619262,0,0
60.982748799013,-14.630558846928,17.030623062306,2587927.0968447,-3870.0191374573,2858764.5657738,22.230623062306,0,0
60.982749073386,-14.634232985998,17.035053505351,2587927.0968447,-3870.0191374573,2858764.5657738,22.235053505351,0,0
60.98274934776,-14.637907125067,17.039483948395,2587927.0968447,-3870.0191374573,2858764.5657738,22.239483948395,0,0
60.982749622134,-14.641581264136,17.043914391439,2587927.0968447,-3870.0191374573,2858764.5657738,22.243914391439,0,0
60.982749896508,-14.645255403205,17.048344834483,2587927.0968447,-3870.0191374573,2858764.5657738,22.248344834483,0,0
60.982750170881,-14.648929542275,17.052775277528,2587927.0968447,-3870.0191374573,2858764.5657738,22.252775277528,0,0
60.982750445255,-14.652603681344,17.057205720572,2587927.0968447,-3870.0191374573,2858764.5657738,22.257205720572,0,0
60.982750719629,-14.656277820413,17.061636163616,2587927.0968447,-3870.0191374573,2858764.5657738,22.261636163616,0,0
60.982750994002,-14.659951959482,17.066066606661,2587927.0968447,-3870.0191374573,2858764.5657738,22.266066606661,0,0
60.982751268376,-14.663626098552,17.070497049705,2587927.0968447,-3870.0191374573,2858764.5657738,22.270497049705,0,0
60.98275154275,-14.667300237621,17.074927492749,2587927.0968447,-3870.0191374573,2858764.5657738,22.274927492749,0,0
60.982751817124,-14.67097437669,17.079357935794,2587927.0968447,-3870.0191374573,2858764.5657738,22.279357935794,0,0
60.982752091497,-14.67464851576,17.083788378838,2587927.0968447,-3870.0191374573,2858764.5657738,22.283788378838,0,0
60.982752365871,-14.678322654829,17.088218821882,2587927.0968447,-3870.0191374573,2858764.5657738,22.288218821882,0,0
60.982752640245,-14.681996793898,17.092649264926,2587927.0968447,-3870.0191374573,2858764.5657738,22.292649264926,0,0
60.982752914619,-14.685670932967,17.097079707971,2587927.0968447,-3870.0191374573,2858764.5657738,22.297079707971,0,0
60.982753188992,-14.689345072037,17.101510151015,2587927.0968447,-3870.0191374573,2858764.5657738,22.301510151015,0,0
60.982753463366,-14.693019211106,17.105940594059,2587927.0968447,-3870.0191374573,2858764.5657738,22.305940594059,0,0
60.98275373774,-14.696693350175,17.110371037104,2587927.0968447,-3870.0191374573,2858764.5657738,22.310371037104,0,0
60.982754012114,-14.700367489244,17.114801480148,2587927.0968447,-3870.0191374573,2858764.5657738,22.314801480148,0,0
60.982754286487,-14.704041628314,17.119231923192,2587927.0968447,-3870.0191374573,2858764.5657738,22.319231923192,0,0
60.982754560861,-14.707715767383,17.123662366237,2587927.0968447,-3870.0191374573,2858764.5657738,22.323662366237,0,0
60.982754835235,-14.711389906452,17.128092809281,2587927.0968447,-3870.0191374573,2858764.5657738,22.328092809281,0,0
60.982755109608,-14.715064045521,17.132523252325,2587927.0968447,-3870.0191374573,2858764.5657738,22.332523252325,0,0
60.982755383982,-14.718738184591,17.13695369537,2587927.0968447,-3870.0191374573,2858764.5657738,22.33695369537,0,0
60.982755658356,-14.72241232366,17.141384138414,2587927.0968447,-3870.0191374573,2858764.5657738,22.341384138414,0,0
60.98275593273,-14.726086462729,17.145814581458,2587927.0968447,-3870.0191374573,2858764.5657738,22.345814581458,0,0
60.982756207103,-14.729760601798,17.150245024502,2587927.0968447,-3870.0191374573,2858764.5657738,22.350245024502,0,0
60.982756481477,-14.733434740868,17.154675467547,2587927.0968447,-3870.0191374573,2858764.5657738,22.354675467547,0,0
60.982756755851,-14.737108879937,17.159105910591,2587927.0968447,-3870.0191374573,2858764.5657738,22.359105910591,0,0
60.982757030225,-14.740783019006,17.163536353635,2587927.0968447,-3870.0191374573,2858764.5657738,22.363536353635,0,0
60.982757304598,-14.744457158076,17.16796679668,2587927.0968447,-3870.0191374573,2858764.5657738,22.36796679668,0,0
60.982757578972,-14.748131297145,17.172397239724,2587927.0968447,-3870.0191374573,2858764.5657738,22.372397239724,0,0
60.982757853346,-14.751805436214,17.176827682768,2587927.0968447,-3870.0191374573,2858764.5657738,22.376827682768,0,0
60.98275812772,-14.755479575283,17.181258125813,2587927.0968447,-3870.0191374573,2858764.5657738,22.381258125813,0,0
60.982758402093,-14.759153714353,17.185688568857,2587927.0968447,-3870.0191374573,2858764.5657738,22.385688568857,0,0
60.98275867757,-14.762827852524,17.190119011901,2602646.7119679,-2650.1510041953,2855950.6895548,22.390119011901,0,0
60.982758953195,-14.766501990576,17.194549454945,2602646.7119679,-2650.1510041953,2855950.6895548,22.394549454945,0,0
60.982759228819,-14.770176128627,17.19897989799,2602646.7119679,-2650.1510041953,2855950.6895548,22.39897989799,0,0
60.982759504443,-14.773850266679,17.203410341034,2602646.7119679,-2650.1510041953,2855950.6895548,22.403410341034,0,0
60.982759780068,-14.777524404731,17.207840784078,2602646.7119679,-2650.1510041953,2855950.6895548,22.407840784078,0,0
60.982760055692,-14.781198542782,17.212271227123,2602646.7119679,-2650.1510041953,2855950.6895548,22.412271227123,0,0
60.982760331317,-14.784872680834,17.216701670167,2602646.7119679,-2650.1510041953,2855950.6895548,22.416701670167,0,0
60.982760606941,-14.788546818885,17.221132113211,2602646.7119679,-2650.1510041953,2855950.6895548,22.421132113211,0,0
60.982760882565,-14.792220956937,17.225562556256,2602646.7119679,-2650.1510041953,2855950.6895548,22.425562556256,0,0
60.98276115819,-14.795895094988,17.2299929993,2602646.7119679,-2650.1510041953,2855950.6895548,22.4299929993,0,0
60.982761433814,-14.79956923304,17.234423442344,2602646.7119679,-2650.1510041953,2855950.6895548,22.434423442344,0,0
60.982761709439,-14.803243371092,17.238853885389,2602646.7119679,-2650.1510041953,2855950.6895548,22.438853885389,0,0
60.982761985063,-14.806917509143,17.243284328433,2602646.7119679,-2650.1510041953,2855950.6895548,22.443284328433,0,0
60.982762260687,-14.810591647195,17.247714771477,2602646.7119679,-2650.1510041953,2855950.6895548,22.447714771477,0,0
60.982762536312,-14.814265785246,17.252145214521,2602646.7119679,-2650.1510041953,2855950.6895548,22.452145214521,0,0
60.982762811936,-14.817939923298,17.256575657566,2602646.7119679,-2650.1510041953,2855950.6895548,22.456575657566,0,0
60.98276308756,-14.82161406135,17.26100610061,2602646.7119679,-2650.1510041953,2855950.6895548,22.46100610061,0,0
60.982763363185,-14.825288199401,17.265436543654,2602646.7119679,-2650.1510041953,2855950.6895548,22.465436543654,0,0
60.982763638809,-14.828962337453,17.269866986699,2602646.7119679,-2650.1510041953,2855950.6895548,22.469866986699,0,0
60.982763914434,-14.832636475504,17.274297429743,2602646.7119679,-2650.1510041953,2855950.6895548,22.474297429743,0,0
60.982764190058,-14.836310613556,17.278727872787,2602646.7119679,-2650.1510041953,2855950.6895548,22.478727872787,0,0
60.982764465682,-14.839984751607,17.283158315832,2602646.7119679,-2650.1510041953,2855950.6895548,22.483158315832,0,0
60.982764741307,-14.843658889659,17.287588758876,2602646.7119679,-2650.1510041953,2855950.6895548,22.487588758876,0,0
60.982765016931,-14.847333027711,17.29201920192,2602646.7119679,-2650.1510041953,2855950.6895548,22.49201920192,0,0
60.982765292556,-14.851007165762,17.296449644964,2602646.7119679,-2650.1510041953,2855950.6895548,22.496449644964,0,0
60.98276556818,-14.854681303814,17.300880088009,2602646.7119679,-2650.1510041953,2855950.6895548,22.500880088009,0,0
60.982765843804,-14.858355441865,17.305310531053,2602646.7119679,-2650.1510041953,2855950.6895548,22.505310531053,0,0
60.982766119429,-14.862029579917,17.309740974097,2602646.7119679,-2650.1510041953,2855950.6895548,22.509740974097,0,0
60.982766395053,-14.865703717969,17.314171417142,2602646.7119679,-2650.1510041953,2855950.6895548,22.514171417142,0,0
60.982766670678,-14.86937785602,17.318601860186,2602646.7119679,-2650.1510041953,2855950.6895548,22.518601860186,0,0
60.982766946302,-14.873051994072,17.32303230323,2602646.7119679,-2650.1510041953,2855950.6895548,22.52303230323,0,0
60.982767221926,-14.876726132123,17.327462746275,2602646.7119679,-2650.1510041953,2855950.6895548,22.527462746275,0,0
60.982767497551,-14.880400270175,17.331893189319,2602646.7119679,-2650.1510041953,2855950.6895548,22.531893189319,0,0
60.982767773175,-14.884074408226,17.336323632363,2602646.7119679,-2650.1510041953,2855950.6895548,22.536323632363,0,0
60.9827680488,-14.887748546278,17.340754075408,2602646.7119679,-2650.1510041953,2855950.6895548,22.540754075408,0,0
60.982768324424,-14.89142268433,17.345184518452,2602646.7119679,-2650.1510041953,2855950.6895548,22.545184518452,0,0
60.982768600048,-14.895096822381,17.349614961496,2602646.7119679,-2650.1510041953,2855950.6895548,22.549614961496,0,0
60.982768875673,-14.898770960433,17.35404540454,2602646.7119679,-2650.1510041953,2855950.6895548,22.55404540454,0,0
60.982769151297,-14.902445098484,17.358475847585,2602646.7119679,-2650.1510041953,2855950.6895548,22.558475847585,0,0
60.982769426922,-14.906119236536,17.362906290629,2602646.7119679,-2650.1510041953,2855950.6895548,22.562906290629,0,0
60.982769702546,-14.909793374587,17.367336733673,2602646.7119679,-2650.1510041953,2855950.6895548,22.567336733673,0,0
60.98276997817,-14.913467512639,17.371767176718,2602646.7119679,-2650.1510041953,2855950.6895548,22.571767176718,0,0
60.982770253795,-14.917141650691,17.376197619762,2602646.7119679,-2650.1510041953,2855950.6895548,22.576197619762,0,0
60.982770529419,-14.920815788742,17.380628062806,2602646.7119679,-2650.1510041953,2855950.6895548,22.580628062806,0,0
60.982770805044,-14.924489926794,17.385058505851,2602646.7119679,-2650.1510041953,2855950.6895548,22.585058505851,0,0
60.982771080668,-14.928164064845,17.389488948895,2602646.7119679,-2650.1510041953,2855950.6895548,22.589488948895,0,0
60.982771356292,-14.931838202897,17.393919391939,2602646.7119679,-2650.1510041953,2855950.6895548,22.593919391939,0,0
60.982771631917,-14.935512340949,17.398349834983,2602646.7119679,-2650.1510041953,2855950.6895548,22.598349834983,0,0
60.982771907541,-14.939186479,17.402780278028,2602646.7119679,-2650.1510041953,2855950.6895548,22.602780278028,0,0
60.982772183166,-14.942860617052,17.407210721072,2602646.7119679,-2650.1510041953,2855950.6895548,22.607210721072,0,0
60.98277245879,-14.946534755103,17.411641164116,2602646.7119679,-2650.1510041953,2855950.6895548,22.611641164116,0,0
60.982772734414,-14.950208893155,17.416071607161,2602646.7119679,-2650.1510041953,2855950.6895548,22.616071607161,0,0
60.982773010039,-14.953883031206,17.420502050205,2602646.7119679,-2650.1510041953,2855950.6895548,22.620502050205,0,0
60.982773285663,-14.957557169258,17.424932493249,2602646.7119679,-2650.1510041953,2855950.6895548,22.624932493249,0,0
60.982773561288,-14.96123130731,17.429362936294,2602646.7119679,-2650.1510041953,2855950.6895548,22.629362936294,0,0
60.982773836912,-14.964905445361,17.433793379338,2602646.7119679,-2650.1510041953,2855950.6895548,22.633793379338,0,0
60.982774112536,-14.968579583413,17.438223822382,2602646.7119679,-2650.1510041953,2855950.6895548,22.638223822382,0,0
60.982774388161,-14.972253721464,17.442654265427,2602646.7119679,-2650.1510041953,2855950.6895548,22.642654265427,0,0
60.982774663785,-14.975927859516,17.447084708471,2602646.7119679,-2650.1510041953,2855950.6895548,22.647084708471,0,0
60.98277493941,-14.979601997568,17.451515151515,2602646.7119679,-2650.1510041953,2855950.6895548,22.651515151515,0,0
60.982775215034,-14.983276135619,17.455945594559,2602646.7119679,-2650.1510041953,2855950.6895548,22.655945594559,0,0
60.982775490658,-14.986950273671,17.460376037604,2602646.7119679,-2650.1510041953,2855950.6895548,22.660376037604,0,0
60.982775766283,-14.990624411722,17.464806480648,2602646.7119679,-2650.1510041953,2855950.6895548,22.664806480648,0,0
60.982776041907,-14.994298549774,17.469236923692,2602646.7119679,-2650.1510041953,2855950.6895548,22.669236923692,0,0
60.982776317532,-14.997972687825,17.473667366737,2602646.7119679,-2650.1510041953,2855950.6895548,22.673667366737,0,0
60.982776593156,-15.001646825877,17.478097809781,2602646.7119679,-2650.1510041953,2855950.6895548,22.678097809781,0,0
60.98277686878,-15.005320963929,17.482528252825,2602646.7119679,-2650.1510041953,2855950.6895548,22.682528252825,0,0
60.982777144405,-15.00899510198,17.48695869587,2602646.7119679,-2650.1510041953,2855950.6895548,22.68695869587,0,0
60.982777420029,-15.012669240032,17.491389138914,2602646.7119679,-2650.1510041953,2855950.6895548,22.691389138914,0,0
60.982777695654,-15.016343378083,17.495819581958,2602646.7119679,-2650.1510041953,2855950.6895548,22.695819581958,0,0
60.982777971278,-15.020017516135,17.500250025002,2602646.7119679,-2650.1510041953,2855950.6895548,22.700250025002,0,0
60.982778246902,-15.023691654187,17.504680468047,2602646.7119679,-2650.1510041953,2855950.6895548,22.704680468047,0,0
60.982778522527,-15.027365792238,17.509110911091,2602646.7119679,-2650.1510041953,2855950.6895548,22.709110911091,0,0
60.982778798151,-15.03103993029,17.513541354135,2602646.7119679,-2650.1510041953,2855950.6895548,22.713541354135,0,0
60.982779073776,-15.034714068341,17.51797179718,2602646.7119679,-2650.1510041953,2855950.6895548,22.71797179718,0,0
60.9827793494,-15.038388206393,17.522402240224,2602646.7119679,-2650.1510041953,2855950.6895548,22.722402240224,0,0
60.982779625024,-15.042062344444,17.526832683268,2602646.7119679,-2650.1510041953,2855950.6895548,22.726832683268,0,0
60.982779900649,-15.045736482496,17.531263126313,2602646.7119679,-2650.1510041953,2855950.6895548,22.731263126313,0,0
60.982780176273,-15.049410620548,17.535693569357,2602646.7119679,-2650.1510041953,2855950.6895548,22.735693569357,0,0
60.982780451897,-15.053084758599,17.540124012401,2602646.7119679,-2650.1510041953,2855950.6895548,22.740124012401,0,0
60.982780727522,-15.056758896651,17.544554455446,2602646.7119679,-2650.1510041953,2855950.6895548,22.744554455446,0,0
60.982781003146,-15.060433034702,17.54898489849,2602646.7119679,-2650.1510041953,2855950.6895548,22.74898489849,0,0
60.982781278771,-15.064107172754,17.553415341534,2602646.7119679,-2650.1510041953,2855950.6895548,22.753415341534,0,0
60.982781554395,-15.067781310805,17.557845784578,2602646.7119679,-2650.1510041953,2855950.6895548,22.757845784578,0,0
60.982781830019,-15.071455448857,17.562276227623,2602646.7119679,-2650.1510041953,2855950.6895548,22.762276227623,0,0
60.982782105644,-15.075129586909,17.566706670667,2602646.7119679,-2650.1510041953,2855950.6895548,22.766706670667,0,0
60.982782381268,-15.07880372496,17.571137113711,2602646.7119679,-2650.1510041953,2855950.6895548,22.771137113711,0,0
60.982782656893,-15.082477863012,17.575567556756,2602646.7119679,-2650.1510041953,2855950.6895548,22.775567556756,0,0
60.982782932517,-15.086152001063,17.5799979998,2602646.7119679,-2650.1510041953,2855950.6895548,22.7799979998,0,0
60.982783208141,-15.089826139115,17.584428442844,2602646.7119679,-2650.1510041953,2855950.6895548,22.784428442844,0,0
60.982783483766,-15.093500277167,17.588858885889,2602646.7119679,-2650.1510041953,2855950.6895548,22.788858885889,0,0
60.98278375939,-15.097174415218,17.593289328933,2602646.7119679,-2650.1510041953,2855950.6895548,22.793289328933,0,0
60.982784035015,-15.10084855327,17.597719771977,2602646.7119679,-2650.1510041953,2855950.6895548,22.797719771977,0,0
60.982784310639,-15.104522691321,17.602150215021,2602646.7119679,-2650.1510041953,2855950.6895548,22.802150215021,0,0
60.982784586263,-15.108196829373,17.606580658066,2602646.7119679,-2650.1510041953,2855950.6895548,22.806580658066,0,0
60.982784861888,-15.111870967424,17.61101110111,2602646.7119679,-2650.1510041953,2855950.6895548,22.81101110111,0,0
60.982785137512,-15.115545105476,17.615441544154,2602646.7119679,-2650.1510041953,2855950.6895548,22.815441544154,0,0
60.982785413137,-15.119219243528,17.619871987199,2602646.7119679,-2650.1510041953,2855950.6895548,22.819871987199,0,0
60.982785688761,-15.122893381579,17.624302430243,2602646.7119679,-2650.1510041953,2855950.6895548,22.824302430243,0,0
60.982785964385,-15.126567519631,17.628732873287,2602646.7119679,-2650.1510041953,2855950.6895548,22.828732873287,0,0
60.98278624001,-15.130241657682,17.633163316332,2602646.7119679,-2650.1510041953,2855950.6895548,22.833163316332,0,0
60.982786515634,-15.133915795734,17.637593759376,2602646.7119679,-2650.1510041953,2855950.6895548,22.837593759376,0,0
60.982786791259,-15.137589933786,17.64202420242,2602646.7119679,-2650.1510041953,2855950.6895548,22.84202420242,0,0
60.982787066883,-15.141264071837,17.646454645465,2602646.7119679,-2650.1510041953,2855950.6895548,22.846454645465,0,0
60.982787342507,-15.144938209889,17.650885088509,2602646.7119679,-2650.1510041953,2855950.6895548,22.850885088509,0,0
60.982787618132,-15.14861234794,17.655315531553,2602646.7119679,-2650.1510041953,2855950.6895548,22.855315531553,0,0
60.982787893756,-15.152286485992,17.659745974597,2602646.7119679,-2650.1510041953,2855950.6895548,22.859745974597,0,0
60.982788169381,-15.155960624043,17.664176417642,2602646.7119679,-2650.1510041953,2855950.6895548,22.864176417642,0,0
60.982788445005,-15.159634762095,17.668606860686,2602646.7119679,-2650.1510041953,2855950.6895548,22.868606860686,0,0
60.982788720629,-15.163308900147,17.67303730373,2602646.7119679,-2650.1510041953,2855950.6895548,22.87303730373,0,0
60.982788996254,-15.166983038198,17.677467746775,2602646.7119679,-2650.1510041953,2855950.6895548,22.877467746775,0,0
60.982789271878,-15.17065717625,17.681898189819,2602646.7119679,-2650.1510041953,2855950.6895548,22.881898189819,0,0
60.982789547503,-15.174331314301,17.686328632863,2602646.7119679,-2650.1510041953,2855950.6895548,22.886328632863,0,0
60.982789823127,-15.178005452353,17.690759075908,2602646.7119679,-2650.1510041953,2855950.6895548,22.890759075908,0,0
60.982790098751,-15.181679590404,17.695189518952,2602646.7119679,-2650.1510041953,2855950.6895548,22.895189518952,0,0
60.982790374376,-15.185353728456,17.699619961996,2602646.7119679,-2650.1510041953,2855950.6895548,22.899619961996,0,0
60.98279065,-15.189027866508,17.704050405041,2602646.7119679,-2650.1510041953,2855950.6895548,22.904050405041,0,0
60.982790925625,-15.192702004559,17.708480848085,2602646.7119679,-2650.1510041953,2855950.6895548,22.908480848085,0,0
60.982791201249,-15.196376142611,17.712911291129,2602646.7119679,-2650.1510041953,2855950.6895548,22.912911291129,0,0
60.982791476873,-15.200050280662,17.717341734173,2602646.7119679,-2650.1510041953,2855950.6895548,22.917341734173,0,0
60.982791752498,-15.203724418714,17.721772177218,2602646.7119679,-2650.1510041953,2855950.6895548,22.921772177218,0,0
60.982792028122,-15.207398556766,17.726202620262,2602646.7119679,-2650.1510041953,2855950.6895548,22.926202620262,0,0
60.982792303747,-15.211072694817,17.730633063306,2602646.7119679,-2650.1510041953,2855950.6895548,22.930633063306,0,0
60.982792579371,-15.214746832869,17.735063506351,2602646.7119679,-2650.1510041953,2855950.6895548,22.935063506351,0,0
60.982792854995,-15.21842097092,17.739493949395,2602646.7119679,-2650.1510041953,2855950.6895548,22.939493949395,0,0
60.98279313062,-15.222095108972,17.743924392439,2602646.7119679,-2650.1510041953,2855950.6895548,22.943924392439,0,0
60.982793406244,-15.225769247023,17.748354835484,2602646.7119679,-2650.1510041953,2855950.6895548,22.948354835484,0,0
60.982793681869,-15.229443385075,17.752785278528,2602646.7119679,-2650.1510041953,2855950.6895548,22.952785278528,0,0
60.982793957493,-15.233117523127,17.757215721572,2602646.7119679,-2650.1510041953,2855950.6895548,22.957215721572,0,0
60.982794233117,-15.236791661178,17.761646164616,2602646.7119679,-2650.1510041953,2855950.6895548,22.961646164616,0,0
60.982794508742,-15.24046579923,17.766076607661,2602646.7119679,-2650.1510041953,2855950.6895548,22.966076607661,0,0
60.982794784366,-15.244139937281,17.770507050705,2602646.7119679,-2650.1510041953,2855950.6895548,22.970507050705,0,0
60.982795059991,-15.247814075333,17.774937493749,2602646.7119679,-2650.1510041953,2855950.6895548,22.974937493749,0,0
60.982795335615,-15.251488213385,17.779367936794,2602646.7119679,-2650.1510041953,2855950.6895548,22.979367936794,0,0
60.982795611239,-15.255162351436,17.783798379838,2602646.7119679,-2650.1510041953,2855950.6895548,22.983798379838,0,0
60.982795886864,-15.258836489488,17.788228822882,2602646.7119679,-2650.1510041953,2855950.6895548,22.988228822882,0,0
60.982796162488,-15.262510627539,17.792659265927,2602646.7119679,-2650.1510041953,2855950.6895548,22.992659265927,0,0
60.982796438113,-15.266184765591,17.797089708971,2602646.7119679,-2650.1510041953,2855950.6895548,22.997089708971,0,0
60.982796713737,-15.269858903642,17.801520152015,2602646.7119679,-2650.1510041953,2855950.6895548,23.001520152015,0,0
60.982796989361,-15.273533041694,17.80595059506,2602646.7119679,-2650.1510041953,2855950.6895548,23.00595059506,0,0
60.982797264986,-15.277207179746,17.810381038104,2602646.7119679,-2650.1510041953,2855950.6895548,23.010381038104,0,0
60.98279754061,-15.280881317797,17.814811481148,2602646.7119679,-2650.1510041953,2855950.6895548,23.014811481148,0,0
60.982797816234,-15.284555455849,17.819241924192,2602646.7119679,-2650.1510041953,2855950.6895548,23.019241924192,0,0
60.982798091859,-15.2882295939,17.823672367237,2602646.7119679,-2650.1510041953,2855950.6895548,23.023672367237,0,0
60.982798367483,-15.291903731952,17.828102810281,2602646.7119679,-2650.1510041953,2855950.6895548,23.028102810281,0,0
60.982798643108,-15.295577870003,17.832533253325,2602646.7119679,-2650.1510041953,2855950.6895548,23.032533253325,0,0
60.982798918732,-15.299252008055,17.83696369637,2602646.7119679,-2650.1510041953,2855950.6895548,23.03696369637,0,0
60.982799194356,-15.302926146107,17.841394139414,2602646.7119679,-2650.1510041953,2855950.6895548,23.041394139414,0,0
60.982799469981,-15.306600284158,17.845824582458,2602646.7119679,-2650.1510041953,2855950.6895548,23.045824582458,0,0
60.982799745605,-15.31027442221,17.850255025503,2602646.7119679,-2650.1510041953,2855950.6895548,23.050255025503,0,0
60.98280002123,-15.313948560261,17.854685468547,2602646.7119679,-2650.1510041953,2855950.6895548,23.054685468547,0,0
60.982800296854,-15.317622698313,17.859115911591,2602646.7119679,-2650.1510041953,2855950.6895548,23.059115911591,0,0
60.982800572478,-15.321296836365,17.863546354635,2602646.7119679,-2650.1510041953,2855950.6895548,23.063546354635,0,0
60.982800848103,-15.324970974416,17.86797679768,2602646.7119679,-2650.1510041953,2855950.6895548,23.06797679768,0,0
60.982801123727,-15.328645112468,17.872407240724,2602646.7119679,-2650.1510041953,2855950.6895548,23.072407240724,0,0
60.982801399352,-15.332319250519,17.876837683768,2602646.7119679,-2650.1510041953,2855950.6895548,23.076837683768,0,0
60.982801674976,-15.335993388571,17.881268126813,2602646.7119679,-2650.1510041953,2855950.6895548,23.081268126813,0,0
60.9828019506,-15.339667526622,17.885698569857,2602646.7119679,-2650.1510041953,2855950.6895548,23.085698569857,0,0
60.982802226225,-15.343341664674,17.890129012901,2602646.7119679,-2650.1510041953,2855950.6895548,23.090129012901,0,0
60.982802501849,-15.347015802726,17.894559455946,2602646.7119679,-2650.1510041953,2855950.6895548,23.094559455946,0,0
60.982802777474,-15.350689940777,17.89898989899,2602646.7119679,-2650.1510041953,2855950.6895548,23.09898989899,0,0
60.982803053098,-15.354364078829,17.903420342034,2602646.7119679,-2650.1510041953,2855950.6895548,23.103420342034,0,0
60.982803328722,-15.35803821688,17.907850785079,2602646.7119679,-2650.1510041953,2855950.6895548,23.107850785079,0,0
60.982803604347,-15.361712354932,17.912281228123,2602646.7119679,-2650.1510041953,2855950.6895548,23.112281228123,0,0
60.982803879971,-15.365386492984,17.916711671167,2602646.7119679,-2650.1510041953,2855950.6895548,23.116711671167,0,0
60.982804155596,-15.369060631035,17.921142114211,2602646.7119679,-2650.1510041953,2855950.6895548,23.121142114211,0,0
60.98280443122,-15.372734769087,17.925572557256,2602646.7119679,-2650.1510041953,2855950.6895548,23.125572557256,0,0
60.982804706844,-15.376408907138,17.9300030003,2602646.7119679,-2650.1510041953,2855950.6895548,23.1300030003,0,0
60.982804982469,-15.38008304519,17.934433443344,2602646.7119679,-2650.1510041953,2855950.6895548,23.134433443344,0,0
60.982805258093,-15.383757183241,17.938863886389,2602646.7119679,-2650.1510041953,2855950.6895548,23.138863886389,0,0
60.982805533718,-15.387431321293,17.943294329433,2602646.7119679,-2650.1510041953,2855950.6895548,23.143294329433,0,0
60.982805809342,-15.391105459345,17.947724772477,2602646.7119679,-2650.1510041953,2855950.6895548,23.147724772477,0,0
60.982806084966,-15.394779597396,17.952155215522,2602646.7119679,-2650.1510041953,2855950.6895548,23.152155215522,0,0
60.982806360591,-15.398453735448,17.956585658566,2602646.7119679,-2650.1510041953,2855950.6895548,23.156585658566,0,0
60.982806636215,-15.402127873499,17.96101610161,2602646.7119679,-2650.1510041953,2855950.6895548,23.16101610161,0,0
60.98280691184,-15.405802011551,17.965446544654,2602646.7119679,-2650.1510041953,2855950.6895548,23.165446544654,0,0
60.982807187464,-15.409476149603,17.969876987699,2602646.7119679,-2650.1510041953,2855950.6895548,23.169876987699,0,0
60.982807463088,-15.413150287654,17.974307430743,2602646.7119679,-2650.1510041953,2855950.6895548,23.174307430743,0,0
60.982807738713,-15.416824425706,17.978737873787,2602646.7119679,-2650.1510041953,2855950.6895548,23.178737873787,0,0
60.982808014337,-15.420498563757,17.983168316832,2602646.7119679,-2650.1510041953,2855950.6895548,23.183168316832,0,0
60.982808289962,-15.424172701809,17.987598759876,2602646.7119679,-2650.1510041953,2855950.6895548,23.187598759876,0,0
60.982808565586,-15.42784683986,17.99202920292,2602646.7119679,-2650.1510041953,2855950.6895548,23.19202920292,0,0
60.98280884121,-15.431520977912,17.996459645965,2602646.7119679,-2650.1510041953,2855950.6895548,23.196459645965,0,0
60.982809116835,-15.435195115964,18.000890089009,2602646.7119679,-2650.1510041953,2855950.6895548,23.200890089009,0,0
60.982809392459,-15.438869254015,18.005320532053,2602646.7119679,-2650.1510041953,2855950.6895548,23.205320532053,0,0
60.982809668084,-15.442543392067,18.009750975098,2602646.7119679,-2650.1510041953,2855950.6895548,23.209750975098,0,0
60.982809943708,-15.446217530118,18.014181418142,2602646.7119679,-2650.1510041953,2855950.6895548,23.214181418142,0,0
60.982810219332,-15.44989166817,18.018611861186,2602646.7119679,-2650.1510041953,2855950.6895548,23.218611861186,0,0
60.982810494957,-15.453565806221,18.02304230423,2602646.7119679,-2650.1510041953,2855950.6895548,23.22304230423,0,0
60.982810770581,-15.457239944273,18.027472747275,2602646.7119679,-2650.1510041953,2855950.6895548,23.227472747275,0,0
60.982811046206,-15.460914082325,18.031903190319,2602646.7119679,-2650.1510041953,2855950.6895548,23.231903190319,0,0
60.98281132183,-15.464588220376,18.036333633363,2602646.7119679,-2650.1510041953,2855950.6895548,23.236333633363,0,0
60.982811597454,-15.468262358428,18.040764076408,2602646.7119679,-2650.1510041953,2855950.6895548,23.240764076408,0,0
60.982811873079,-15.471936496479,18.045194519452,2602646.7119679,-2650.1510041953,2855950.6895548,23.245194519452,0,0
60.982812148703,-15.475610634531,18.049624962496,2602646.7119679,-2650.1510041953,2855950.6895548,23.249624962496,0,0
60.982812424328,-15.479284772583,18.054055405541,2602646.7119679,-2650.1510041953,2855950.6895548,23.254055405541,0,0
60.982812699952,-15.482958910634,18.058485848585,2602646.7119679,-2650.1510041953,2855950.6895548,23.258485848585,0,0
60.982812975576,-15.486633048686,18.062916291629,2602646.7119679,-2650.1510041953,2855950.6895548,23.262916291629,0,0
60.982813251201,-15.490307186737,18.067346734673,2602646.7119679,-2650.1510041953,2855950.6895548,23.267346734673,0,0
60.982813526825,-15.493981324789,18.071777177718,2602646.7119679,-2650.1510041953,2855950.6895548,23.271777177718,0,0
60.98281380245,-15.49765546284,18.076207620762,2602646.7119679,-2650.1510041953,2855950.6895548,23.276207620762,0,0
60.982814078074,-15.501329600892,18.080638063806,2602646.7119679,-2650.1510041953,2855950.6895548,23.280638063806,0,0
60.982814353698,-15.505003738944,18.085068506851,2602646.7119679,-2650.1510041953,2855950.6895548,23.285068506851,0,0
60.982814629323,-15.508677876995,18.089498949895,2602646.7119679,-2650.1510041953,2855950.6895548,23.289498949895,0,0
60.982814904947,-15.512352015047,18.093929392939,2602646.7119679,-2650.1510041953,2855950.6895548,23.293929392939,0,0
60.982815180571,-15.516026153098,18.098359835984,2602646.7119679,-2650.1510041953,2855950.6895548,23.298359835984,0,0
60.982815456196,-15.51970029115,18.102790279028,2602646.7119679,-2650.1510041953,2855950.6895548,23.302790279028,0,0
60.98281573182,-15.523374429202,18.107220722072,2602646.7119679,-2650.1510041953,2855950.6895548,23.307220722072,0,0
60.982816007445,-15.527048567253,18.111651165117,2602646.7119679,-2650.1510041953,2855950.6895548,23.311651165117,0,0
60.982816283069,-15.530722705305,18.116081608161,2602646.7119679,-2650.1510041953,2855950.6895548,23.316081608161,0,0
60.982816558693,-15.534396843356,18.120512051205,2602646.7119679,-2650.1510041953,2855950.6895548,23.320512051205,0,0
60.982816834318,-15.538070981408,18.124942494249,2602646.7119679,-2650.1510041953,2855950.6895548,23.324942494249,0,0
60.982817109942,-15.541745119459,18.129372937294,2602646.7119679,-2650.1510041953,2855950.6895548,23.329372937294,0,0
60.982817385567,-15.545419257511,18.133803380338,2602646.7119679,-2650.1510041953,2855950.6895548,23.333803380338,0,0
60.982817661191,-15.549093395563,18.138233823382,2602646.7119679,-2650.1510041953,2855950.6895548,23.338233823382,0,0
60.982817936815,-15.552767533614,18.142664266427,2602646.7119679,-2650.1510041953,2855950.6895548,23.342664266427,0,0
60.98281821244,-15.556441671666,18.147094709471,2602646.7119679,-2650.1510041953,2855950.6895548,23.347094709471,0,0
60.982818488064,-15.560115809717,18.151525152515,2602646.7119679,-2650.1510041953,2855950.6895548,23.351525152515,0,0
60.982818763689,-15.563789947769,18.15595559556,2602646.7119679,-2650.1510041953,2855950.6895548,23.35595559556,0,0
60.982819039313,-15.56746408582,18.160386038604,2602646.7119679,-2650.1510041953,2855950.6895548,23.360386038604,0,0
60.982819314937,-15.571138223872,18.164816481648,2602646.7119679,-2650.1510041953,2855950.6895548,23.364816481648,0,0
60.982819590562,-15.574812361924,18.169246924692,2602646.7119679,-2650.1510041953,2855950.6895548,23.369246924692,0,0
60.982819866186,-15.578486499975,18.173677367737,2602646.7119679,-2650.1510041953,2855950.6895548,23.373677367737,0,0
60.982820141811,-15.582160638027,18.178107810781,2602646.7119679,-2650.1510041953,2855950.6895548,23.378107810781,0,0
60.982820417435,-15.585834776078,18.182538253825,2602646.7119679,-2650.1510041953,2855950.6895548,23.382538253825,0,0
60.982820693059,-15.58950891413,18.18696869687,2602646.7119679,-2650.1510041953,2855950.6895548,23.38696869687,0,0
60.982820968684,-15.593183052182,18.191399139914,2602646.7119679,-2650.1510041953,2855950.6895548,23.391399139914,0,0
60.982821244308,-15.596857190233,18.195829582958,2602646.7119679,-2650.1510041953,2855950.6895548,23.395829582958,0,0
60.982821519933,-15.600531328285,18.200260026003,2602646.7119679,-2650.1510041953,2855950.6895548,23.400260026003,0,0
60.982821795557,-15.604205466336,18.204690469047,2602646.7119679,-2650.1510041953,2855950.6895548,23.404690469047,0,0
60.982822071181,-15.607879604388,18.209120912091,2602646.7119679,-2650.1510041953,2855950.6895548,23.409120912091,0,0
60.982822346806,-15.611553742439,18.213551355136,2602646.7119679,-2650.1510041953,2855950.6895548,23.413551355136,0,0
60.98282262243,-15.615227880491,18.21798179818,2602646.7119679,-2650.1510041953,2855950.6895548,23.41798179818,0,0
60.982822898055,-15.618902018543,18.222412241224,2602646.7119679,-2650.1510041953,2855950.6895548,23.422412241224,0,0
60.982823173679,-15.622576156594,18.226842684268,2602646.7119679,-2650.1510041953,2855950.6895548,23.426842684268,0,0
60.982823449303,-15.626250294646,18.231273127313,2602646.7119679,-2650.1510041953,2855950.6895548,23.431273127313,0,0
60.982823724928,-15.629924432697,18.235703570357,2602646.7119679,-2650.1510041953,2855950.6895548,23.435703570357,0,0
60.982824000552,-15.633598570749,18.240134013401,2602646.7119679,-2650.1510041953,2855950.6895548,23.440134013401,0,0
60.982824276177,-15.637272708801,18.244564456446,2602646.7119679,-2650.1510041953,2855950.6895548,23.444564456446,0,0
60.982824551801,-15.640946846852,18.24899489949,2602646.7119679,-2650.1510041953,2855950.6895548,23.44899489949,0,0
60.982824827425,-15.644620984904,18.253425342534,2602646.7119679,-2650.1510041953,2855950.6895548,23.453425342534,0,0
60.98282510305,-15.648295122955,18.257855785579,2602646.7119679,-2650.1510041953,2855950.6895548,23.457855785579,0,0
60.982825378674,-15.651969261007,18.262286228623,2602646.7119679,-2650.1510041953,2855950.6895548,23.462286228623,0,0
60.982825654299,-15.655643399058,18.266716671667,2602646.7119679,-2650.1510041953,2855950.6895548,23.466716671667,0,0
60.982825929923,-15.65931753711,18.271147114711,2602646.7119679,-2650.1510041953,2855950.6895548,23.471147114711,0,0
60.982826205547,-15.662991675162,18.275577557756,2602646.7119679,-2650.1510041953,2855950.6895548,23.475577557756,0,0
60.982826481172,-15.666665813213,18.2800080008,2602646.7119679,-2650.1510041953,2855950.6895548,23.4800080008,0,0
60.982826756796,-15.670339951265,18.284438443844,2602646.7119679,-2650.1510041953,2855950.6895548,23.484438443844,0,0
60.982827032421,-15.674014089316,18.288868886889,2602646.7119679,-2650.1510041953,2855950.6895548,23.488868886889,0,0
60.982827308045,-15.677688227368,18.293299329933,2602646.7119679,-2650.1510041953,2855950.6895548,23.493299329933,0,0
60.982827583669,-15.681362365419,18.297729772977,2602646.7119679,-2650.1510041953,2855950.6895548,23.497729772977,0,0
60.982827859294,-15.685036503471,18.302160216022,2602646.7119679,-2650.1510041953,2855950.6895548,23.502160216022,0,0
60.982828134918,-15.688710641523,18.306590659066,2602646.7119679,-2650.1510041953,2855950.6895548,23.506590659066,0,0
60.982828410543,-15.692384779574,18.31102110211,2602646.7119679,-2650.1510041953,2855950.6895548,23.51102110211,0,0
60.982828686167,-15.696058917626,18.315451545155,2602646.7119679,-2650.1510041953,2855950.6895548,23.515451545155,0,0
60.982828961791,-15.699733055677,18.319881988199,2602646.7119679,-2650.1510041953,2855950.6895548,23.519881988199,0,0
60.982829237416,-15.703407193729,18.324312431243,2602646.7119679,-2650.1510041953,2855950.6895548,23.524312431243,0,0
60.982829513055,-15.707081332091,18.328742874287,2597585.2275317,-7772.0451464301,2838632.7190867,23.528742874287,0,0
60.982829788737,-15.710755471295,18.333173317332,2597585.2275317,-7772.0451464301,2838632.7190867,23.533173317332,0,0
60.982830064418,-15.714429610499,18.337603760376,2597585.2275317,-7772.0451464301,2838632.7190867,23.537603760376,0,0
60.982830340099,-15.718103749703,18.34203420342,2597585.2275317,-7772.0451464301,2838632.7190867,23.54203420342,0,0
60.98283061578,-15.721777888907,18.346464646465,2597585.2275317,-7772.0451464301,2838632.7190867,23.546464646465,0,0
60.982830891461,-15.725452028111,18.350895089509,2597585.2275317,-7772.0451464301,2838632.7190867,23.550895089509,0,0
60.982831167143,-15.729126167315,18.355325532553,2597585.2275317,-7772.0451464301,2838632.7190867,23.555325532553,0,0
60.982831442824,-15.732800306519,18.359755975598,2597585.2275317,-7772.0451464301,2838632.7190867,23.559755975598,0,0
60.982831718505,-15.736474445724,18.364186418642,2597585.2275317,-7772.0451464301,2838632.7190867,23.564186418642,0,0
60.982831994186,-15.740148584928,18.368616861686,2597585.2275317,-7772.0451464301,2838632.7190867,23.568616861686,0,0
60.982832269867,-15.743822724132,18.37304730473,2597585.2275317,-7772.0451464301,2838632.7190867,23.57304730473,0,0
60.982832545549,-15.747496863336,18.377477747775,2597585.2275317,-7772.0451464302,2838632.7190867,23.577477747775,0,0
60.98283282123,-15.75117100254,18.381908190819,2597585.2275317,-7772.0451464302,2838632.7190867,23.581908190819,0,0
60.982833096911,-15.754845141744,18.386338633863,2597585.2275317,-7772.0451464302,2838632.7190867,23.586338633863,0,0
60.982833372592,-15.758519280948,18.390769076908,2597585.2275317,-7772.0451464302,2838632.7190867,23.590769076908,0,0
60.982833648273,-15.762193420152,18.395199519952,2597585.2275317,-7772.0451464301,2838632.7190867,23.595199519952,0,0
60.982833923955,-15.765867559356,18.399629962996,2597585.2275317,-7772.0451464301,2838632.7190867,23.599629962996,0,0
60.982834199636,-15.76954169856,18.404060406041,2597585.2275317,-7772.0451464301,2838632.7190867,23.604060406041,0,0
60.982834475317,-15.773215837764,18.408490849085,2597585.2275317,-7772.0451464301,2838632.7190867,23.608490849085,0,0
60.982834750998,-15.776889976969,18.412921292129,2597585.2275317,-7772.0451464301,2838632.7190867,23.612921292129,0,0
60.982835026679,-15.780564116173,18.417351735174,2597585.2275317,-7772.0451464301,2838632.7190867,23.617351735174,0,0
60.982835302361,-15.784238255377,18.421782178218,2597585.2275317,-7772.0451464301,2838632.7190867,23.621782178218,0,0
60.982835578042,-15.787912394581,18.426212621262,2597585.2275317,-7772.0451464301,2838632.7190867,23.626212621262,0,0
60.982835853723,-15.791586533785,18.430643064306,2597585.2275317,-7772.0451464301,2838632.7190867,23.630643064306,0,0
60.982836129404,-15.795260672989,18.435073507351,2597585.2275317,-7772.0451464301,2838632.7190867,23.635073507351,0,0
60.982836405085,-15.798934812193,18.439503950395,2597585.2275317,-7772.0451464301,2838632.7190867,23.639503950395,0,0
60.982836680767,-15.802608951397,18.443934393439,2597585.2275317,-7772.0451464301,2838632.7190867,23.643934393439,0,0
60.982836957791,-15.806283090027,18.448364836484,2616868.8881568,-5391.7706146421,2844617.3035003,23.648364836484,0,0
60.982837234853,-15.809957228642,18.452795279528,2616868.8881568,-5391.7706146421,2844617.3035003,23.652795279528,0,0
60.982837511916,-15.813631367256,18.457225722572,2616868.8881568,-5391.7706146421,2844617.3035003,23.657225722572,0,0
60.982837788978,-15.81730550587,18.461656165617,2616868.8881568,-5391.7706146421,2844617.3035003,23.661656165617,0,0
60.98283806604,-15.820979644484,18.466086608661,2616868.8881568,-5391.7706146421,2844617.3035003,23.666086608661,0,0
60.982838343102,-15.824653783098,18.470517051705,2616868.8881568,-5391.7706146421,2844617.3035003,23.670517051705,0,0
60.982838620164,-15.828327921713,18.474947494749,2616868.8881568,-5391.7706146421,2844617.3035003,23.674947494749,0,0
60.982838897226,-15.832002060327,18.479377937794,2616868.8881568,-5391.7706146421,2844617.3035003,23.679377937794,0,0
60.982839174289,-15.835676198941,18.483808380838,2616868.8881568,-5391.7706146421,2844617.3035003,23.683808380838,0,0
60.982839451351,-15.839350337555,18.488238823882,2616868.8881568,-5391.7706146421,2844617.3035003,23.688238823882,0,0
60.982839728413,-15.843024476169,18.492669266927,2616868.8881568,-5391.7706146421,2844617.3035003,23.692669266927,0,0
60.982840005475,-15.846698614784,18.497099709971,2616868.8881568,-5391.7706146421,2844617.3035003,23.697099709971,0,0
60.982840282537,-15.850372753398,18.501530153015,2616868.8881568,-5391.7706146421,2844617.3035003,23.701530153015,0,0
60.982840559599,-15.854046892012,18.50596059606,2616868.8881568,-5391.7706146421,2844617.3035003,23.70596059606,0,0
60.982840836662,-15.857721030626,18.510391039104,2616868.8881568,-5391.7706146421,2844617.3035003,23.710391039104,0,0
60.982841113724,-15.86139516924,18.514821482148,2616868.8881568,-5391.7706146421,2844617.3035003,23.714821482148,0,0
60.982841390786,-15.865069307855,18.519251925193,2616868.8881568,-5391.7706146421,2844617.3035003,23.719251925193,0,0
60.982841667848,-15.868743446469,18.523682368237,2616868.8881568,-5391.7706146421,2844617.3035003,23.723682368237,0,0
60.98284194491,-15.872417585083,18.528112811281,2616868.8881568,-5391.7706146421,2844617.3035003,23.728112811281,0,0
60.982842221972,-15.876091723697,18.532543254325,2616868.8881568,-5391.7706146421,2844617.3035003,23.732543254325,0,0
60.982842499035,-15.879765862311,18.53697369737,2616868.8881568,-5391.7706146421,2844617.3035003,23.73697369737,0,0
60.982842776097,-15.883440000926,18.541404140414,2616868.8881568,-5391.7706146421,2844617.3035003,23.741404140414,0,0
60.982843053159,-15.88711413954,18.545834583458,2616868.8881568,-5391.7706146421,2844617.3035003,23.745834583458,0,0
60.982843330221,-15.890788278154,18.550265026503,2616868.8881568,-5391.7706146421,2844617.3035003,23.750265026503,0,0
60.982843607283,-15.894462416768,18.554695469547,2616868.8881568,-5391.7706146421,2844617.3035003,23.754695469547,0,0
60.982843884345,-15.898136555382,18.559125912591,2616868.8881568,-5391.7706146421,2844617.3035003,23.759125912591,0,0
60.982844161407,-15.901810693997,18.563556355636,2616868.8881568,-5391.7706146421,2844617.3035003,23.763556355636,0,0
60.98284443847,-15.905484832611,18.56798679868,2616868.8881568,-5391.7706146421,2844617.3035003,23.76798679868,0,0
60.982844715532,-15.909158971225,18.572417241724,2616868.8881568,-5391.7706146421,2844617.3035003,23.772417241724,0,0
60.982844992594,-15.912833109839,18.576847684768,2616868.8881568,-5391.7706146421,2844617.3035003,23.776847684768,0,0
60.982845269656,-15.916507248453,18.581278127813,2616868.8881568,-5391.7706146421,2844617.3035003,23.781278127813,0,0
60.982845546718,-15.920181387067,18.585708570857,2616868.8881568,-5391.7706146421,2844617.3035003,23.785708570857,0,0
60.98284582378,-15.923855525682,18.590139013901,2616868.8881568,-5391.7706146421,2844617.3035003,23.790139013901,0,0
60.982846100843,-15.927529664296,18.594569456946,2616868.8881568,-5391.7706146421,2844617.3035003,23.794569456946,0,0
60.982846377905,-15.93120380291,18.59899989999,2616868.8881568,-5391.7706146421,2844617.3035003,23.79899989999,0,0
60.982846654967,-15.934877941524,18.603430343034,2616868.8881568,-5391.7706146421,2844617.3035003,23.803430343034,0,0
60.982846932029,-15.938552080138,18.607860786079,2616868.8881568,-5391.7706146421,2844617.3035003,23.807860786079,0,0
60.982847209091,-15.942226218753,18.612291229123,2616868.8881568,-5391.7706146421,2844617.3035003,23.812291229123,0,0
60.982847486153,-15.945900357367,18.616721672167,2616868.8881568,-5391.7706146421,2844617.3035003,23.816721672167,0,0
60.982847763216,-15.949574495981,18.621152115212,2616868.8881568,-5391.7706146421,2844617.3035003,23.821152115212,0,0
60.982848040278,-15.953248634595,18.625582558256,2616868.8881568,-5391.7706146421,2844617.3035003,23.825582558256,0,0
60.98284831734,-15.956922773209,18.6300130013,2616868.8881568,-5391.7706146421,2844617.3035003,23.8300130013,0,0
60.982848594402,-15.960596911824,18.634443444344,2616868.8881568,-5391.7706146421,2844617.3035003,23.834443444344,0,0
60.982848871464,-15.964271050438,18.638873887389,2616868.8881568,-5391.7706146421,2844617.3035003,23.838873887389,0,0
60.982849148526,-15.967945189052,18.643304330433,2616868.8881568,-5391.7706146421,2844617.3035003,23.843304330433,0,0
60.982849425588,-15.971619327666,18.647734773477,2616868.8881568,-5391.7706146421,2844617.3035003,23.847734773477,0,0
60.982849702651,-15.97529346628,18.652165216522,2616868.8881568,-5391.7706146421,2844617.3035003,23.852165216522,0,0
60.982849979713,-15.978967604895,18.656595659566,2616868.8881568,-5391.7706146421,2844617.3035003,23.856595659566,0,0
60.982850256775,-15.982641743509,18.66102610261,2616868.8881568,-5391.7706146421,2844617.3035003,23.86102610261,0,0
60.982850533837,-15.986315882123,18.665456545655,2616868.8881568,-5391.7706146421,2844617.3035003,23.865456545655,0,0
60.982850810899,-15.989990020737,18.669886988699,2616868.8881568,-5391.7706146421,2844617.3035003,23.869886988699,0,0
60.982851087961,-15.993664159351,18.674317431743,2616868.8881568,-5391.7706146421,2844617.3035003,23.874317431743,0,0
60.982851365024,-15.997338297966,18.678747874787,2616868.8881568,-5391.7706146421,2844617.3035003,23.878747874787,0,0
60.982851642086,-16.00101243658,18.683178317832,2616868.8881568,-5391.7706146421,2844617.3035003,23.883178317832,0,0
60.982851919148,-16.004686575194,18.687608760876,2616868.8881568,-5391.7706146421,2844617.3035003,23.887608760876,0,0
60.98285219621,-16.008360713808,18.69203920392,2616868.8881568,-5391.7706146421,2844617.3035003,23.89203920392,0,0
60.982852473272,-16.012034852422,18.696469646965,2616868.8881568,-5391.7706146421,2844617.3035003,23.896469646965,0,0
60.982852750334,-16.015708991037,18.700900090009,2616868.8881568,-5391.7706146421,2844617.3035003,23.900900090009,0,0
60.982853027397,-16.019383129651,18.705330533053,2616868.8881568,-5391.7706146421,2844617.3035003,23.905330533053,0,0
60.982853304459,-16.023057268265,18.709760976098,2616868.8881568,-5391.7706146421,2844617.3035003,23.909760976098,0,0
60.982853581521,-16.026731406879,18.714191419142,2616868.8881568,-5391.7706146421,2844617.3035003,23.914191419142,0,0
60.982853858583,-16.030405545493,18.718621862186,2616868.8881568,-5391.7706146421,2844617.3035003,23.918621862186,0,0
60.982854135645,-16.034079684108,18.723052305231,2616868.8881568,-5391.7706146421,2844617.3035003,23.923052305231,0,0
60.982854412707,-16.037753822722,18.727482748275,2616868.8881568,-5391.7706146421,2844617.3035003,23.927482748275,0,0
60.982854689769,-16.041427961336,18.731913191319,2616868.8881568,-5391.7706146421,2844617.3035003,23.931913191319,0,0
60.982854966832,-16.04510209995,18.736343634363,2616868.8881568,-5391.7706146421,2844617.3035003,23.936343634363,0,0
60.982855243894,-16.048776238564,18.740774077408,2616868.8881568,-5391.7706146421,2844617.3035003,23.940774077408,0,0
60.982855520956,-16.052450377179,18.745204520452,2616868.8881568,-5391.7706146421,2844617.3035003,23.945204520452,0,0
60.982855798018,-16.056124515793,18.749634963496,2616868.8881568,-5391.7706146421,2844617.3035003,23.949634963496,0,0
60.98285607508,-16.059798654407,18.754065406541,2616868.8881568,-5391.7706146421,2844617.3035003,23.954065406541,0,0
60.982856352142,-16.063472793021,18.758495849585,2616868.8881568,-5391.7706146421,2844617.3035003,23.958495849585,0,0
60.982856629205,-16.067146931635,18.762926292629,2616868.8881568,-5391.7706146421,2844617.3035003,23.962926292629,0,0
60.982856906267,-16.07082107025,18.767356735674,2616868.8881568,-5391.7706146421,2844617.3035003,23.967356735674,0,0
60.982857183193,-16.074495208807,18.771787178718,2607347.2954154,2630.3828797382,2833472.1010368,23.971787178718,0,0
60.982857459792,-16.078169347226,18.776217621762,2607347.2954154,2630.3828797382,2833472.1010368,23.976217621762,0,0
60.98285773639,-16.081843485645,18.780648064806,2607347.2954154,2630.3828797382,2833472.1010368,23.980648064806,0,0
60.982858012988,-16.085517624064,18.785078507851,2607347.2954154,2630.3828797382,2833472.1010368,23.985078507851,0,0
60.982858289587,-16.089191762483,18.789508950895,2607347.2954154,2630.3828797382,2833472.1010368,23.989508950895,0,0
60.982858566185,-16.092865900902,18.793939393939,2607347.2954154,2630.3828797382,2833472.1010368,23.993939393939,0,0
60.982858842783,-16.096540039321,18.798369836984,2607347.2954154,2630.3828797382,2833472.1010368,23.998369836984,0,0
60.982859119382,-16.10021417774,18.802800280028,2607347.2954154,2630.3828797382,2833472.1010368,24.002800280028,0,0
60.98285939598,-16.103888316159,18.807230723072,2607347.2954154,2630.3828797382,2833472.1010368,24.007230723072,0,0
60.982859672578,-16.107562454578,18.811661166117,2607347.2954154,2630.3828797382,2833472.1010368,24.011661166117,0,0
60.982859949177,-16.111236592998,18.816091609161,2607347.2954154,2630.3828797382,2833472.1010368,24.016091609161,0,0
60.982860225775,-16.114910731417,18.820522052205,2607347.2954154,2630.3828797382,2833472.1010368,24.020522052205,0,0
60.982860502373,-16.118584869836,18.82495249525,2607347.2954154,2630.3828797382,2833472.1010368,24.02495249525,0,0
60.982860778972,-16.122259008255,18.829382938294,2607347.2954154,2630.3828797382,2833472.1010368,24.029382938294,0,0
60.98286105557,-16.125933146674,18.833813381338,2607347.2954154,2630.3828797382,2833472.1010368,24.033813381338,0,0
60.982861332169,-16.129607285093,18.838243824382,2607347.2954154,2630.3828797382,2833472.1010368,24.038243824382,0,0
60.982861608767,-16.133281423512,18.842674267427,2607347.2954154,2630.3828797382,2833472.1010368,24.042674267427,0,0
60.982861885365,-16.136955561931,18.847104710471,2607347.2954154,2630.3828797382,2833472.1010368,24.047104710471,0,0
60.982862161964,-16.14062970035,18.851535153515,2607347.2954154,2630.3828797382,2833472.1010368,24.051535153515,0,0
60.982862438562,-16.144303838769,18.85596559656,2607347.2954154,2630.3828797382,2833472.1010368,24.05596559656,0,0
60.98286271516,-16.147977977189,18.860396039604,2607347.2954154,2630.3828797382,2833472.1010368,24.060396039604,0,0
60.982862991759,-16.151652115608,18.864826482648,2607347.2954154,2630.3828797382,2833472.1010368,24.064826482648,0,0
60.982863268357,-16.155326254027,18.869256925693,2607347.2954154,2630.3828797382,2833472.1010368,24.069256925693,0,0
60.982863544955,-16.159000392446,18.873687368737,2607347.2954154,2630.3828797382,2833472.1010368,24.073687368737,0,0
60.982863821554,-16.162674530865,18.878117811781,2607347.2954154,2630.3828797382,2833472.1010368,24.078117811781,0,0
60.982864098152,-16.166348669284,18.882548254825,2607347.2954154,2630.3828797382,2833472.1010368,24.082548254825,0,0
60.98286437475,-16.170022807703,18.88697869787,2607347.2954154,2630.3828797382,2833472.1010368,24.08697869787,0,0
60.982864651349,-16.173696946122,18.891409140914,2607347.2954154,2630.3828797382,2833472.1010368,24.091409140914,0,0
60.982864927947,-16.177371084541,18.895839583958,2607347.2954154,2630.3828797382,2833472.1010368,24.095839583958,0,0
60.982865204546,-16.18104522296,18.900270027003,2607347.2954154,2630.3828797382,2833472.1010368,24.100270027003,0,0
60.982865481144,-16.184719361379,18.904700470047,2607347.2954154,2630.3828797382,2833472.1010368,24.104700470047,0,0
60.982865757742,-16.188393499799,18.909130913091,2607347.2954154,2630.3828797382,2833472.1010368,24.109130913091,0,0
60.982866034341,-16.192067638218,18.913561356136,2607347.2954154,2630.3828797382,2833472.1010368,24.113561356136,0,0
60.982866310939,-16.195741776637,18.91799179918,2607347.2954154,2630.3828797382,2833472.1010368,24.11799179918,0,0
60.982866587537,-16.199415915056,18.922422242224,2607347.2954154,2630.3828797382,2833472.1010368,24.122422242224,0,0
60.982866864136,-16.203090053475,18.926852685269,2607347.2954154,2630.3828797382,2833472.1010368,24.126852685269,0,0
60.982867140734,-16.206764191894,18.931283128313,2607347.2954154,2630.3828797382,2833472.1010368,24.131283128313,0,0
60.982867417332,-16.210438330313,18.935713571357,2607347.2954154,2630.3828797382,2833472.1010368,24.135713571357,0,0
60.982867693931,-16.214112468732,18.940144014401,2607347.2954154,2630.3828797382,2833472.1010368,24.140144014401,0,0
60.982867970529,-16.217786607151,18.944574457446,2607347.2954154,2630.3828797382,2833472.1010368,24.144574457446,0,0
60.982868247127,-16.22146074557,18.94900490049,2607347.2954154,2630.3828797382,2833472.1010368,24.14900490049,0,0
60.982868523726,-16.22513488399,18.953435343534,2607347.2954154,2630.3828797382,2833472.1010368,24.153435343534,0,0
60.982868800324,-16.228809022409,18.957865786579,2607347.2954154,2630.3828797382,2833472.1010368,24.157865786579,0,0
60.982869076923,-16.232483160828,18.962296229623,2607347.2954154,2630.3828797382,2833472.1010368,24.162296229623,0,0
60.982869353521,-16.236157299247,18.966726672667,2607347.2954154,2630.3828797382,2833472.1010368,24.166726672667,0,0
60.982869630119,-16.239831437666,18.971157115712,2607347.2954154,2630.3828797382,2833472.1010368,24.171157115712,0,0
60.982869906718,-16.243505576085,18.975587558756,2607347.2954154,2630.3828797382,2833472.1010368,24.175587558756,0,0
60.982870183316,-16.247179714504,18.9800180018,2607347.2954154,2630.3828797382,2833472.1010368,24.1800180018,0,0
60.982870459914,-16.250853852923,18.984448444844,2607347.2954154,2630.3828797382,2833472.1010368,24.184448444844,0,0
60.982870736513,-16.254527991342,18.988878887889,2607347.2954154,2630.3828797382,2833472.1010368,24.188878887889,0,0
60.982871013111,-16.258202129761,18.993309330933,2607347.2954154,2630.3828797382,2833472.1010368,24.193309330933,0,0
60.982871289709,-16.261876268181,18.997739773977,2607347.2954154,2630.3828797382,2833472.1010368,24.197739773977,0,0
60.982871566308,-16.2655504066,19.002170217022,2607347.2954154,2630.3828797382,2833472.1010368,24.202170217022,0,0
60.982871842906,-16.269224545019,19.006600660066,2607347.2954154,2630.3828797382,2833472.1010368,24.206600660066,0,0
60.982872119504,-16.272898683438,19.01103110311,2607347.2954154,2630.3828797382,2833472.1010368,24.21103110311,0,0
60.982872396103,-16.276572821857,19.015461546155,2607347.2954154,2630.3828797382,2833472.1010368,24.215461546155,0,0
60.982872672701,-16.280246960276,19.019891989199,2607347.2954154,2630.3828797382,2833472.1010368,24.219891989199,0,0
60.9828729493,-16.283921098695,19.024322432243,2607347.2954154,2630.3828797382,2833472.1010368,24.224322432243,0,0
60.982873225898,-16.287595237114,19.028752875288,2607347.2954154,2630.3828797382,2833472.1010368,24.228752875288,0,0
60.982873502496,-16.291269375533,19.033183318332,2607347.2954154,2630.3828797382,2833472.1010368,24.233183318332,0,0
60.982873779095,-16.294943513952,19.037613761376,2607347.2954154,2630.3828797382,2833472.1010368,24.237613761376,0,0
60.982874055693,-16.298617652371,19.04204420442,2607347.2954154,2630.3828797382,2833472.1010368,24.24204420442,0,0
60.982874332291,-16.302291790791,19.046474647465,2607347.2954154,2630.3828797382,2833472.1010368,24.246474647465,0,0
60.98287460889,-16.30596592921,19.050905090509,2607347.2954154,2630.3828797382,2833472.1010368,24.250905090509,0,0
60.982874885488,-16.309640067629,19.055335533553,2607347.2954154,2630.3828797382,2833472.1010368,24.255335533553,0,0
60.982875162086,-16.313314206048,19.059765976598,2607347.2954154,2630.3828797382,2833472.1010368,24.259765976598,0,0
60.982875438685,-16.316988344467,19.064196419642,2607347.2954154,2630.3828797382,2833472.1010368,24.264196419642,0,0
60.982875715283,-16.320662482886,19.068626862686,2607347.2954154,2630.3828797382,2833472.1010368,24.268626862686,0,0
60.982875991881,-16.324336621305,19.073057305731,2607347.2954154,2630.3828797382,2833472.1010368,24.273057305731,0,0
60.98287626848,-16.328010759724,19.077487748775,2607347.2954154,2630.3828797382,2833472.1010368,24.277487748775,0,0
60.982876545078,-16.331684898143,19.081918191819,2607347.2954154,2630.3828797382,2833472.1010368,24.281918191819,0,0
60.982876821677,-16.335359036562,19.086348634863,2607347.2954154,2630.3828797382,2833472.1010368,24.286348634863,0,0
60.982877098275,-16.339033174982,19.090779077908,2607347.2954154,2630.3828797382,2833472.1010368,24.290779077908,0,0
60.982877374873,-16.342707313401,19.095209520952,2607347.2954154,2630.3828797382,2833472.1010368,24.295209520952,0,0
60.982877651472,-16.34638145182,19.099639963996,2607347.2954154,2630.3828797382,2833472.1010368,24.299639963996,0,0
60.98287792807,-16.350055590239,19.104070407041,2607347.2954154,2630.3828797382,2833472.1010368,24.304070407041,0,0
60.982878204668,-16.353729728658,19.108500850085,2607347.2954154,2630.3828797382,2833472.1010368,24.308500850085,0,0
60.982878481267,-16.357403867077,19.112931293129,2607347.2954154,2630.3828797382,2833472.1010368,24.312931293129,0,0
60.982878757865,-16.361078005496,19.117361736174,2607347.2954154,2630.3828797382,2833472.1010368,24.317361736174,0,0
60.982879034463,-16.364752143915,19.121792179218,2607347.2954154,2630.3828797382,2833472.1010368,24.321792179218,0,0
60.982879311062,-16.368426282334,19.126222622262,2607347.2954154,2630.3828797382,2833472.1010368,24.326222622262,0,0
60.98287958766,-16.372100420753,19.130653065307,2607347.2954154,2630.3828797382,2833472.1010368,24.330653065307,0,0
60.982879864258,-16.375774559173,19.135083508351,2607347.2954154,2630.3828797382,2833472.1010368,24.335083508351,0,0
60.982880140857,-16.379448697592,19.139513951395,2607347.2954154,2630.3828797382,2833472.1010368,24.339513951395,0,0
60.982880417455,-16.383122836011,19.143944394439,2607347.2954154,2630.3828797382,2833472.1010368,24.343944394439,0,0
60.982880694054,-16.38679697443,19.148374837484,2607347.2954154,2630.3828797382,2833472.1010368,24.348374837484,0,0
60.982880970652,-16.390471112849,19.152805280528,2607347.2954154,2630.3828797382,2833472.1010368,24.352805280528,0,0
60.98288124725,-16.394145251268,19.157235723572,2607347.2954154,2630.3828797382,2833472.1010368,24.357235723572,0,0
60.982881523849,-16.397819389687,19.161666166617,2607347.2954154,2630.3828797382,2833472.1010368,24.361666166617,0,0
60.982881800447,-16.401493528106,19.166096609661,2607347.2954154,2630.3828797382,2833472.1010368,24.366096609661,0,0
60.982882077045,-16.405167666525,19.170527052705,2607347.2954154,2630.3828797382,2833472.1010368,24.370527052705,0,0
60.982882353644,-16.408841804944,19.17495749575,2607347.2954154,2630.3828797382,2833472.1010368,24.37495749575,0,0
60.982882630242,-16.412515943363,19.179387938794,2607347.2954154,2630.3828797382,2833472.1010368,24.379387938794,0,0
60.98288290684,-16.416190081783,19.183818381838,2607347.2954154,2630.3828797382,2833472.1010368,24.383818381838,0,0
60.982883183439,-16.419864220202,19.188248824882,2607347.2954154,2630.3828797382,2833472.1010368,24.388248824882,0,0
60.982883460037,-16.423538358621,19.192679267927,2607347.2954154,2630.3828797382,2833472.1010368,24.392679267927,0,0
60.982883736636,-16.42721249704,19.197109710971,2607347.2954154,2630.3828797382,2833472.1010368,24.397109710971,0,0
60.982884013234,-16.430886635459,19.201540154015,2607347.2954154,2630.3828797382,2833472.1010368,24.401540154015,0,0
60.982884289832,-16.434560773878,19.20597059706,2607347.2954154,2630.3828797382,2833472.1010368,24.40597059706,0,0
60.982884566431,-16.438234912297,19.210401040104,2607347.2954154,2630.3828797382,2833472.1010368,24.410401040104,0,0
60.982884843029,-16.441909050716,19.214831483148,2607347.2954154,2630.3828797382,2833472.1010368,24.414831483148,0,0
60.982885119627,-16.445583189135,19.219261926193,2607347.2954154,2630.3828797382,2833472.1010368,24.419261926193,0,0
60.982885396226,-16.449257327554,19.223692369237,2607347.2954154,2630.3828797382,2833472.1010368,24.423692369237,0,0
60.982885672824,-16.452931465974,19.228122812281,2607347.2954154,2630.3828797382,2833472.1010368,24.428122812281,0,0
60.982885949422,-16.456605604393,19.232553255326,2607347.2954154,2630.3828797382,2833472.1010368,24.432553255326,0,0
60.982886226021,-16.460279742812,19.23698369837,2607347.2954154,2630.3828797382,2833472.1010368,24.43698369837,0,0
60.982886502619,-16.463953881231,19.241414141414,2607347.2954154,2630.3828797382,2833472.1010368,24.441414141414,0,0
60.982886779217,-16.46762801965,19.245844584458,2607347.2954154,2630.3828797382,2833472.1010368,24.445844584458,0,0
60.982887055816,-16.471302158069,19.250275027503,2607347.2954154,2630.3828797382,2833472.1010368,24.450275027503,0,0
60.982887332414,-16.474976296488,19.254705470547,2607347.2954154,2630.3828797382,2833472.1010368,24.454705470547,0,0
60.982887609013,-16.478650434907,19.259135913591,2607347.2954154,2630.3828797382,2833472.1010368,24.459135913591,0,0
60.982887885611,-16.482324573326,19.263566356636,2607347.2954154,2630.3828797382,2833472.1010368,24.463566356636,0,0
60.982888162209,-16.485998711745,19.26799679968,2607347.2954154,2630.3828797382,2833472.1010368,24.46799679968,0,0
60.982888438808,-16.489672850165,19.272427242724,2607347.2954154,2630.3828797382,2833472.1010368,24.472427242724,0,0
60.982888715406,-16.493346988584,19.276857685769,2607347.2954154,2630.3828797382,2833472.1010368,24.476857685769,0,0
60.982888992004,-16.497021127003,19.281288128813,2607347.2954154,2630.3828797382,2833472.1010368,24.481288128813,0,0
60.982889268603,-16.500695265422,19.285718571857,2607347.2954154,2630.3828797382,2833472.1010368,24.485718571857,0,0
60.982889545201,-16.504369403841,19.290149014901,2607347.2954154,2630.3828797382,2833472.1010368,24.490149014901,0,0
60.982889821799,-16.50804354226,19.294579457946,2607347.2954154,2630.3828797382,2833472.1010368,24.494579457946,0,0
60.982890098398,-16.511717680679,19.29900990099,2607347.2954154,2630.3828797382,2833472.1010368,24.49900990099,0,0
60.982890374996,-16.515391819098,19.303440344034,2607347.2954154,2630.3828797382,2833472.1010368,24.503440344034,0,0
60.982890651594,-16.519065957517,19.307870787079,2607347.2954154,2630.3828797382,2833472.1010368,24.507870787079,0,0
60.982890928193,-16.522740095936,19.312301230123,2607347.2954154,2630.3828797382,2833472.1010368,24.512301230123,0,0
60.982891204791,-16.526414234355,19.316731673167,2607347.2954154,2630.3828797382,2833472.1010368,24.516731673167,0,0
60.98289148139,-16.530088372775,19.321162116212,2607347.2954154,2630.3828797382,2833472.1010368,24.521162116212,0,0
60.982891757988,-16.533762511194,19.325592559256,2607347.2954154,2630.3828797382,2833472.1010368,24.525592559256,0,0
60.982892034586,-16.537436649613,19.3300230023,2607347.2954154,2630.3828797382,2833472.1010368,24.5300230023,0,0
60.982892311185,-16.541110788032,19.334453445345,2607347.2954154,2630.3828797382,2833472.1010368,24.534453445345,0,0
60.982892587783,-16.544784926451,19.338883888389,2607347.2954154,2630.3828797382,2833472.1010368,24.538883888389,0,0
60.982892864381,-16.54845906487,19.343314331433,2607347.2954154,2630.3828797382,2833472.1010368,24.543314331433,0,0
60.98289314098,-16.552133203289,19.347744774477,2607347.2954154,2630.3828797382,2833472.1010368,24.547744774477,0,0
60.982893417578,-16.555807341708,19.352175217522,2607347.2954154,2630.3828797382,2833472.1010368,24.552175217522,0,0
60.982893694176,-16.559481480127,19.356605660566,2607347.2954154,2630.3828797382,2833472.1010368,24.556605660566,0,0
60.982893970775,-16.563155618546,19.36103610361,2607347.2954154,2630.3828797382,2833472.1010368,24.56103610361,0,0
60.982894247373,-16.566829756966,19.365466546655,2607347.2954154,2630.3828797382,2833472.1010368,24.565466546655,0,0
60.982894523971,-16.570503895385,19.369896989699,2607347.2954154,2630.3828797382,2833472.1010368,24.569896989699,0,0
60.98289480057,-16.574178033804,19.374327432743,2607347.2954154,2630.3828797382,2833472.1010368,24.574327432743,0,0
60.982895077168,-16.577852172223,19.378757875788,2607347.2954154,2630.3828797382,2833472.1010368,24.578757875788,0,0
60.982895353767,-16.581526310642,19.383188318832,2607347.2954154,2630.3828797382,2833472.1010368,24.583188318832,0,0
60.982895630365,-16.585200449061,19.387618761876,2607347.2954154,2630.3828797382,2833472.1010368,24.587618761876,0,0
60.982895906963,-16.58887458748,19.39204920492,2607347.2954154,2630.3828797382,2833472.1010368,24.59204920492,0,0
60.982896183562,-16.592548725899,19.396479647965,2607347.2954154,2630.3828797382,2833472.1010368,24.596479647965,0,0
60.98289646016,-16.596222864318,19.400910091009,2607347.2954154,2630.3828797382,2833472.1010368,24.600910091009,0,0
60.982896736758,-16.599897002737,19.405340534053,2607347.2954154,2630.3828797382,2833472.1010368,24.605340534053,0,0
60.982897013357,-16.603571141156,19.409770977098,2607347.2954154,2630.3828797382,2833472.1010368,24.609770977098,0,0
60.982897289955,-16.607245279576,19.414201420142,2607347.2954154,2630.3828797382,2833472.1010368,24.614201420142,0,0
60.982897566553,-16.610919417995,19.418631863186,2607347.2954154,2630.3828797382,2833472.1010368,24.618631863186,0,0
60.982897843152,-16.614593556414,19.423062306231,2607347.2954154,2630.3828797382,2833472.1010368,24.623062306231,0,0
60.98289811975,-16.618267694833,19.427492749275,2607347.2954154,2630.3828797382,2833472.1010368,24.627492749275,0,0
60.982898396348,-16.621941833252,19.431923192319,2607347.2954154,2630.3828797382,2833472.1010368,24.631923192319,0,0
60.982898672947,-16.625615971671,19.436353635364,2607347.2954154,2630.3828797382,2833472.1010368,24.636353635364,0,0
60.982898949545,-16.62929011009,19.440784078408,2607347.2954154,2630.3828797382,2833472.1010368,24.640784078408,0,0
60.982899226144,-16.632964248509,19.445214521452,2607347.2954154,2630.3828797382,2833472.1010368,24.645214521452,0,0
60.982899502742,-16.636638386928,19.449644964496,2607347.2954154,2630.3828797382,2833472.1010368,24.649644964496,0,0
60.98289977934,-16.640312525347,19.454075407541,2607347.2954154,2630.3828797382,2833472.1010368,24.654075407541,0,0
60.982900055939,-16.643986663767,19.458505850585,2607347.2954154,2630.3828797382,2833472.1010368,24.658505850585,0,0
60.982900332537,-16.647660802186,19.462936293629,2607347.2954154,2630.3828797382,2833472.1010368,24.662936293629,0,0
60.982900609135,-16.651334940605,19.467366736674,2607347.2954154,2630.3828797382,2833472.1010368,24.667366736674,0,0
60.982900885734,-16.655009079024,19.471797179718,2607347.2954154,2630.3828797382,2833472.1010368,24.671797179718,0,0
60.982901162332,-16.658683217443,19.476227622762,2607347.2954154,2630.3828797382,2833472.1010368,24.676227622762,0,0
60.98290143893,-16.662357355862,19.480658065807,2607347.2954154,2630.3828797382,2833472.1010368,24.680658065807,0,0
60.982901715529,-16.666031494281,19.485088508851,2607347.2954154,2630.3828797382,2833472.1010368,24.685088508851,0,0
60.982901992127,-16.6697056327,19.489518951895,2607347.2954154,2630.3828797382,2833472.1010368,24.689518951895,0,0
60.982902268725,-16.673379771119,19.493949394939,2607347.2954154,2630.3828797382,2833472.1010368,24.693949394939,0,0
60.982902545324,-16.677053909538,19.498379837984,2607347.2954154,2630.3828797381,2833472.1010368,24.698379837984,0,0
60.982902821922,-16.680728047958,19.502810281028,2607347.2954154,2630.3828797381,2833472.1010368,24.702810281028,0,0
60.982903098521,-16.684402186377,19.507240724072,2607347.2954154,2630.3828797381,2833472.1010368,24.707240724072,0,0
60.982903375119,-16.688076324796,19.511671167117,2607347.2954154,2630.3828797381,2833472.1010368,24.711671167117,0,0
60.982903651717,-16.691750463215,19.516101610161,2607347.2954154,2630.3828797381,2833472.1010368,24.716101610161,0,0
60.982903928316,-16.695424601634,19.520532053205,2607347.2954154,2630.3828797381,2833472.1010368,24.720532053205,0,0
60.982904204914,-16.699098740053,19.52496249625,2607347.2954154,2630.3828797381,2833472.1010368,24.72496249625,0,0
60.982904481512,-16.702772878472,19.529392939294,2607347.2954154,2630.3828797381,2833472.1010368,24.729392939294,0,0
60.982904758111,-16.706447016891,19.533823382338,2607347.2954154,2630.3828797381,2833472.1010368,24.733823382338,0,0
60.982905034709,-16.71012115531,19.538253825383,2607347.2954154,2630.3828797381,2833472.1010368,24.738253825383,0,0
60.982905311307,-16.713795293729,19.542684268427,2607347.2954154,2630.3828797381,2833472.1010368,24.742684268427,0,0
60.982905587906,-16.717469432148,19.547114711471,2607347.2954154,2630.3828797381,2833472.1010368,24.747114711471,0,0
60.982905864504,-16.721143570568,19.551545154515,2607347.2954154,2630.3828797381,2833472.1010368,24.751545154515,0,0
60.982906141102,-16.724817708987,19.55597559756,2607347.2954154,2630.3828797381,2833472.1010368,24.75597559756,0,0
60.982906417701,-16.728491847406,19.560406040604,2607347.2954154,2630.3828797381,2833472.1010368,24.760406040604,0,0
60.982906694299,-16.732165985825,19.564836483648,2607347.2954154,2630.3828797381,2833472.1010368,24.764836483648,0,0
60.982906970898,-16.735840124244,19.569266926693,2607347.2954154,2630.3828797381,2833472.1010368,24.769266926693,0,0
60.982907248572,-16.739514261501,19.573697369737,2622292.3242437,6919.787546218,2833311.5387775,24.773697369737,0,0
60.982907526369,-16.743188398626,19.578127812781,2622292.3242437,6919.787546218,2833311.5387775,24.778127812781,0,0
60.982907804165,-16.746862535751,19.582558255826,2622292.3242437,6919.787546218,2833311.5387775,24.782558255826,0,0
60.982908081961,-16.750536672876,19.58698869887,2622292.3242437,6919.787546218,2833311.5387775,24.78698869887,0,0
60.982908359758,-16.754210810001,19.591419141914,2622292.3242437,6919.787546218,2833311.5387775,24.791419141914,0,0
60.982908637554,-16.757884947126,19.595849584958,2622292.3242437,6919.787546218,2833311.5387775,24.795849584958,0,0
60.98290891535,-16.761559084252,19.600280028003,2622292.3242437,6919.787546218,2833311.5387775,24.800280028003,0,0
60.982909193147,-16.765233221377,19.604710471047,2622292.3242437,6919.787546218,2833311.5387775,24.804710471047,0,0
60.982909470943,-16.768907358502,19.609140914091,2622292.3242437,6919.787546218,2833311.5387775,24.809140914091,0,0
60.98290974874,-16.772581495627,19.613571357136,2622292.3242437,6919.787546218,2833311.5387775,24.813571357136,0,0
60.982910026536,-16.776255632752,19.61800180018,2622292.3242437,6919.787546218,2833311.5387775,24.81800180018,0,0
60.982910304332,-16.779929769877,19.622432243224,2622292.3242437,6919.787546218,2833311.5387775,24.822432243224,0,0
60.982910582129,-16.783603907002,19.626862686269,2622292.3242437,6919.787546218,2833311.5387775,24.826862686269,0,0
60.982910859925,-16.787278044128,19.631293129313,2622292.3242437,6919.787546218,2833311.5387775,24.831293129313,0,0
60.982911137721,-16.790952181253,19.635723572357,2622292.3242437,6919.787546218,2833311.5387775,24.835723572357,0,0
60.982911415518,-16.794626318378,19.640154015402,2622292.3242437,6919.787546218,2833311.5387775,24.840154015402,0,0
60.982911693314,-16.798300455503,19.644584458446,2622292.3242437,6919.787546218,2833311.5387775,24.844584458446,0,0
60.982911971111,-16.801974592628,19.64901490149,2622292.3242437,6919.787546218,2833311.5387775,24.84901490149,0,0
60.982912248907,-16.805648729753,19.653445344534,2622292.3242437,6919.787546218,2833311.5387775,24.853445344534,0,0
60.982912526703,-16.809322866879,19.657875787579,2622292.3242437,6919.787546218,2833311.5387775,24.857875787579,0,0
60.9829128045,-16.812997004004,19.662306230623,2622292.3242437,6919.787546218,2833311.5387775,24.862306230623,0,0
60.982913082296,-16.816671141129,19.666736673667,2622292.3242437,6919.787546218,2833311.5387775,24.866736673667,0,0
60.982913360092,-16.820345278254,19.671167116712,2622292.3242437,6919.787546218,2833311.5387775,24.871167116712,0,0
60.982913637889,-16.824019415379,19.675597559756,2622292.3242437,6919.787546218,2833311.5387775,24.875597559756,0,0
60.982913915685,-16.827693552504,19.6800280028,2622292.3242437,6919.787546218,2833311.5387775,24.8800280028,0,0
60.982914193482,-16.831367689629,19.684458445845,2622292.3242437,6919.787546218,2833311.5387775,24.884458445845,0,0
60.982914471278,-16.835041826755,19.688888888889,2622292.3242437,6919.787546218,2833311.5387775,24.888888888889,0,0
60.982914749074,-16.83871596388,19.693319331933,2622292.3242437,6919.787546218,2833311.5387775,24.893319331933,0,0
60.982915026871,-16.842390101005,19.697749774977,2622292.3242437,6919.787546218,2833311.5387775,24.897749774977,0,0
60.982915304667,-16.84606423813,19.702180218022,2622292.3242437,6919.787546218,2833311.5387775,24.902180218022,0,0
60.982915582464,-16.849738375255,19.706610661066,2622292.3242437,6919.787546218,2833311.5387775,24.906610661066,0,0
60.98291586026,-16.85341251238,19.71104110411,2622292.3242437,6919.787546218,2833311.5387775,24.91104110411,0,0
60.982916138056,-16.857086649506,19.715471547155,2622292.3242437,6919.787546218,2833311.5387775,24.915471547155,0,0
60.982916415853,-16.860760786631,19.719901990199,2622292.3242437,6919.787546218,2833311.5387775,24.919901990199,0,0
60.982916693649,-16.864434923756,19.724332433243,2622292.3242437,6919.787546218,2833311.5387775,24.924332433243,0,0
60.982916971445,-16.868109060881,19.728762876288,2622292.3242437,6919.787546218,2833311.5387775,24.928762876288,0,0
60.982917249242,-16.871783198006,19.733193319332,2622292.3242437,6919.787546218,2833311.5387775,24.933193319332,0,0
60.982917527038,-16.875457335131,19.737623762376,2622292.3242437,6919.787546218,2833311.5387775,24.937623762376,0,0
60.982917804835,-16.879131472256,19.742054205421,2622292.3242437,6919.787546218,2833311.5387775,24.942054205421,0,0
60.982918082631,-16.882805609382,19.746484648465,2622292.3242437,6919.787546218,2833311.5387775,24.946484648465,0,0
60.982918360427,-16.886479746507,19.750915091509,2622292.3242437,6919.787546218,2833311.5387775,24.950915091509,0,0
60.982918638224,-16.890153883632,19.755345534553,2622292.3242437,6919.787546218,2833311.5387775,24.955345534553,0,0
60.98291891602,-16.893828020757,19.759775977598,2622292.3242437,6919.787546218,2833311.5387775,24.959775977598,0,0
60.982919193816,-16.897502157882,19.764206420642,2622292.3242437,6919.787546218,2833311.5387775,24.964206420642,0,0
60.982919471613,-16.901176295007,19.768636863686,2622292.3242437,6919.787546218,2833311.5387775,24.968636863686,0,0
60.982919749409,-16.904850432133,19.773067306731,2622292.3242437,6919.787546218,2833311.5387775,24.973067306731,0,0
60.982920027206,-16.908524569258,19.777497749775,2622292.3242437,6919.787546218,2833311.5387775,24.977497749775,0,0
60.982920305002,-16.912198706383,19.781928192819,2622292.3242437,6919.787546218,2833311.5387775,24.981928192819,0,0
60.982920582798,-16.915872843508,19.786358635864,2622292.3242437,6919.787546218,2833311.5387775,24.986358635864,0,0
60.982920860595,-16.919546980633,19.790789078908,2622292.3242437,6919.787546218,2833311.5387775,24.990789078908,0,0
60.982921138391,-16.923221117758,19.795219521952,2622292.3242437,6919.787546218,2833311.5387775,24.995219521952,0,0
60.982921416187,-16.926895254883,19.799649964996,2622292.3242437,6919.787546218,2833311.5387775,24.999649964996,0,0
60.982921693984,-16.930569392009,19.804080408041,2622292.3242437,6919.787546218,2833311.5387775,25.004080408041,0,0
60.98292197178,-16.934243529134,19.808510851085,2622292.3242437,6919.787546218,2833311.5387775,25.008510851085,0,0
60.982922249577,-16.937917666259,19.812941294129,2622292.3242437,6919.787546218,2833311.5387775,25.012941294129,0,0
60.982922527373,-16.941591803384,19.817371737174,2622292.3242437,6919.787546218,2833311.5387775,25.017371737174,0,0
60.982922805311,-16.945265940955,19.821802180218,2624382.1937016,2058.7507628079,2824276.9365535,25.021802180218,0,0
60.982923083515,-16.948940079363,19.826232623262,2624382.1937016,2058.7507628079,2824276.9365535,25.026232623262,0,0
60.982923361719,-16.95261421777,19.830663066307,2624382.1937016,2058.7507628079,2824276.9365535,25.030663066307,0,0
60.982923639923,-16.956288356178,19.835093509351,2624382.1937016,2058.7507628079,2824276.9365535,25.035093509351,0,0
60.982923918127,-16.959962494585,19.839523952395,2624382.1937016,2058.7507628079,2824276.9365535,25.039523952395,0,0
60.98292419633,-16.963636632993,19.84395439544,2624382.1937016,2058.7507628079,2824276.9365535,25.04395439544,0,0
60.982924474534,-16.9673107714,19.848384838484,2624382.1937016,2058.7507628079,2824276.9365535,25.048384838484,0,0
60.982924752738,-16.970984909808,19.852815281528,2624382.1937016,2058.7507628079,2824276.9365535,25.052815281528,0,0
60.982925030942,-16.974659048216,19.857245724572,2624382.1937016,2058.7507628079,2824276.9365535,25.057245724572,0,0
60.982925309146,-16.978333186623,19.861676167617,2624382.1937016,2058.7507628079,2824276.9365535,25.061676167617,0,0
60.98292558735,-16.982007325031,19.866106610661,2624382.1937016,2058.7507628079,2824276.9365535,25.066106610661,0,0
60.982925865554,-16.985681463438,19.870537053705,2624382.1937016,2058.7507628079,2824276.9365535,25.070537053705,0,0
60.982926143757,-16.989355601846,19.87496749675,2624382.1937016,2058.7507628079,2824276.9365535,25.07496749675,0,0
60.982926421961,-16.993029740253,19.879397939794,2624382.1937016,2058.7507628079,2824276.9365535,25.079397939794,0,0
60.982926700165,-16.996703878661,19.883828382838,2624382.1937016,2058.7507628079,2824276.9365535,25.083828382838,0,0
60.982926978369,-17.000378017068,19.888258825883,2624382.1937016,2058.7507628079,2824276.9365535,25.088258825883,0,0
60.982927256573,-17.004052155476,19.892689268927,2624382.1937016,2058.7507628079,2824276.9365535,25.092689268927,0,0
60.982927534777,-17.007726293883,19.897119711971,2624382.1937016,2058.7507628079,2824276.9365535,25.097119711971,0,0
60.982927812981,-17.011400432291,19.901550155015,2624382.1937016,2058.7507628079,2824276.9365535,25.101550155015,0,0
60.982928091184,-17.015074570699,19.90598059806,2624382.1937016,2058.7507628079,2824276.9365535,25.10598059806,0,0
60.982928369388,-17.018748709106,19.910411041104,2624382.1937016,2058.7507628079,2824276.9365535,25.110411041104,0,0
60.982928647592,-17.022422847514,19.914841484148,2624382.1937016,2058.7507628079,2824276.9365535,25.114841484148,0,0
60.982928925796,-17.026096985921,19.919271927193,2624382.1937016,2058.7507628079,2824276.9365535,25.119271927193,0,0
60.982929204,-17.029771124329,19.923702370237,2624382.1937016,2058.7507628079,2824276.9365535,25.123702370237,0,0
60.982929482204,-17.033445262736,19.928132813281,2624382.1937016,2058.7507628079,2824276.9365535,25.128132813281,0,0
60.982929760408,-17.037119401144,19.932563256326,2624382.1937016,2058.7507628079,2824276.9365535,25.132563256326,0,0
60.982930038611,-17.040793539551,19.93699369937,2624382.1937016,2058.7507628079,2824276.9365535,25.13699369937,0,0
60.982930316815,-17.044467677959,19.941424142414,2624382.1937016,2058.7507628079,2824276.9365535,25.141424142414,0,0
60.982930595019,-17.048141816367,19.945854585459,2624382.1937016,2058.7507628079,2824276.9365535,25.145854585459,0,0
60.982930873223,-17.051815954774,19.950285028503,2624382.1937016,2058.7507628079,2824276.9365535,25.150285028503,0,0
60.982931151427,-17.055490093182,19.954715471547,2624382.1937016,2058.7507628079,2824276.9365535,25.154715471547,0,0
60.982931429631,-17.059164231589,19.959145914591,2624382.1937016,2058.7507628079,2824276.9365535,25.159145914591,0,0
60.982931707835,-17.062838369997,19.963576357636,2624382.1937016,2058.7507628079,2824276.9365535,25.163576357636,0,0
60.982931986038,-17.066512508404,19.96800680068,2624382.1937016,2058.7507628079,2824276.9365535,25.16800680068,0,0
60.982932264242,-17.070186646812,19.972437243724,2624382.1937016,2058.7507628079,2824276.9365535,25.172437243724,0,0
60.982932542446,-17.073860785219,19.976867686769,2624382.1937016,2058.7507628079,2824276.9365535,25.176867686769,0,0
60.98293282065,-17.077534923627,19.981298129813,2624382.1937016,2058.7507628079,2824276.9365535,25.181298129813,0,0
60.982933098854,-17.081209062034,19.985728572857,2624382.1937016,2058.7507628079,2824276.9365535,25.185728572857,0,0
60.982933377058,-17.084883200442,19.990159015902,2624382.1937016,2058.7507628079,2824276.9365535,25.190159015902,0,0
60.982933655262,-17.08855733885,19.994589458946,2624382.1937016,2058.7507628079,2824276.9365535,25.194589458946,0,0
60.982933933465,-17.092231477257,19.99901990199,2624382.1937016,2058.7507628079,2824276.9365535,25.19901990199,0,0
60.982934211669,-17.095905615665,20.003450345035,2624382.1937016,2058.7507628079,2824276.9365535,25.203450345035,0,0
60.982934489873,-17.099579754072,20.007880788079,2624382.1937016,2058.7507628079,2824276.9365535,25.207880788079,0,0
60.982934768077,-17.10325389248,20.012311231123,2624382.1937016,2058.7507628079,2824276.9365535,25.212311231123,0,0
60.982935046281,-17.106928030887,20.016741674167,2624382.1937016,2058.7507628079,2824276.9365535,25.216741674167,0,0
60.982935324485,-17.110602169295,20.021172117212,2624382.1937016,2058.7507628079,2824276.9365535,25.221172117212,0,0
60.982935602689,-17.114276307702,20.025602560256,2624382.1937016,2058.7507628079,2824276.9365535,25.225602560256,0,0
60.982935880892,-17.11795044611,20.0300330033,2624382.1937016,2058.7507628079,2824276.9365535,25.2300330033,0,0
60.982936159096,-17.121624584517,20.034463446345,2624382.1937016,2058.7507628079,2824276.9365535,25.234463446345,0,0
60.9829364373,-17.125298722925,20.038893889389,2624382.1937016,2058.7507628079,2824276.9365535,25.238893889389,0,0
60.982936715504,-17.128972861333,20.043324332433,2624382.1937016,2058.7507628079,2824276.9365535,25.243324332433,0,0
60.982936993708,-17.13264699974,20.047754775478,2624382.1937016,2058.7507628079,2824276.9365535,25.247754775478,0,0
60.982937271912,-17.136321138148,20.052185218522,2624382.1937016,2058.7507628079,2824276.9365535,25.252185218522,0,0
60.982937550116,-17.139995276555,20.056615661566,2624382.1937016,2058.7507628079,2824276.9365535,25.256615661566,0,0
60.982937828319,-17.143669414963,20.06104610461,2624382.1937016,2058.7507628079,2824276.9365535,25.26104610461,0,0
60.982938106523,-17.14734355337,20.065476547655,2624382.1937016,2058.7507628079,2824276.9365535,25.265476547655,0,0
60.982938384727,-17.151017691778,20.069906990699,2624382.1937016,2058.7507628079,2824276.9365535,25.269906990699,0,0
60.982938662931,-17.154691830185,20.074337433743,2624382.1937016,2058.7507628079,2824276.9365535,25.274337433743,0,0
60.982938941135,-17.158365968593,20.078767876788,2624382.1937016,2058.7507628079,2824276.9365535,25.278767876788,0,0
60.982939219339,-17.162040107,20.083198319832,2624382.1937016,2058.7507628079,2824276.9365535,25.283198319832,0,0
60.982939497543,-17.165714245408,20.087628762876,2624382.1937016,2058.7507628079,2824276.9365535,25.287628762876,0,0
60.982939775746,-17.169388383816,20.092059205921,2624382.1937016,2058.7507628079,2824276.9365535,25.292059205921,0,0
60.98294005395,-17.173062522223,20.096489648965,2624382.1937016,2058.7507628079,2824276.9365535,25.296489648965,0,0
60.982940332154,-17.176736660631,20.100920092009,2624382.1937016,2058.7507628079,2824276.9365535,25.300920092009,0,0
60.982940610358,-17.180410799038,20.105350535054,2624382.1937016,2058.7507628079,2824276.9365535,25.305350535054,0,0
60.982940888562,-17.184084937446,20.109780978098,2624382.1937016,2058.7507628079,2824276.9365535,25.309780978098,0,0
60.982941166766,-17.187759075853,20.114211421142,2624382.1937016,2058.7507628079,2824276.9365535,25.314211421142,0,0
60.98294144497,-17.191433214261,20.118641864186,2624382.1937016,2058.7507628079,2824276.9365535,25.318641864186,0,0
60.982941723173,-17.195107352668,20.123072307231,2624382.1937016,2058.7507628079,2824276.9365535,25.323072307231,0,0
60.982942001377,-17.198781491076,20.127502750275,2624382.1937016,2058.7507628079,2824276.9365535,25.327502750275,0,0
60.982942279581,-17.202455629483,20.131933193319,2624382.1937016,2058.7507628079,2824276.9365535,25.331933193319,0,0
60.982942557785,-17.206129767891,20.136363636364,2624382.1937016,2058.7507628079,2824276.9365535,25.336363636364,0,0
60.982942835989,-17.209803906299,20.140794079408,2624382.1937016,2058.7507628079,2824276.9365535,25.340794079408,0,0
60.982943114193,-17.213478044706,20.145224522452,2624382.1937016,2058.7507628079,2824276.9365535,25.345224522452,0,0
60.982943392397,-17.217152183114,20.149654965497,2624382.1937016,2058.7507628079,2824276.9365535,25.349654965497,0,0
60.9829436706,-17.220826321521,20.154085408541,2624382.1937016,2058.7507628079,2824276.9365535,25.354085408541,0,0
60.982943948804,-17.224500459929,20.158515851585,2624382.1937016,2058.7507628079,2824276.9365535,25.358515851585,0,0
60.982944227008,-17.228174598336,20.162946294629,2624382.1937016,2058.7507628079,2824276.9365535,25.362946294629,0,0
60.982944505212,-17.231848736744,20.167376737674,2624382.1937016,2058.7507628079,2824276.9365535,25.367376737674,0,0
60.982944783416,-17.235522875151,20.171807180718,2624382.1937016,2058.7507628079,2824276.9365535,25.371807180718,0,0
60.98294506162,-17.239197013559,20.176237623762,2624382.1937016,2058.7507628079,2824276.9365535,25.376237623762,0,0
60.982945339824,-17.242871151966,20.180668066807,2624382.1937016,2058.7507628079,2824276.9365535,25.380668066807,0,0
60.982945618027,-17.246545290374,20.185098509851,2624382.1937016,2058.7507628079,2824276.9365535,25.385098509851,0,0
60.982945896231,-17.250219428782,20.189528952895,2624382.1937016,2058.7507628079,2824276.9365535,25.389528952895,0,0
60.982946174435,-17.253893567189,20.19395939594,2624382.1937016,2058.7507628079,2824276.9365535,25.39395939594,0,0
60.982946452639,-17.257567705597,20.198389838984,2624382.1937016,2058.7507628079,2824276.9365535,25.398389838984,0,0
60.982946730843,-17.261241844004,20.202820282028,2624382.1937016,2058.7507628079,2824276.9365535,25.402820282028,0,0
60.982947009047,-17.264915982412,20.207250725073,2624382.1937016,2058.7507628079,2824276.9365535,25.407250725073,0,0
60.982947287251,-17.268590120819,20.211681168117,2624382.1937016,2058.7507628079,2824276.9365535,25.411681168117,0,0
60.982947565454,-17.272264259227,20.216111611161,2624382.1937016,2058.7507628079,2824276.9365535,25.416111611161,0,0
60.982947843658,-17.275938397634,20.220542054205,2624382.1937016,2058.7507628079,2824276.9365535,25.420542054205,0,0
60.982948121862,-17.279612536042,20.22497249725,2624382.1937016,2058.7507628079,2824276.9365535,25.42497249725,0,0
60.982948400066,-17.283286674449,20.229402940294,2624382.1937016,2058.7507628079,2824276.9365535,25.429402940294,0,0
60.98294867827,-17.286960812857,20.233833383338,2624382.1937016,2058.7507628079,2824276.9365535,25.433833383338,0,0
60.982948956474,-17.290634951265,20.238263826383,2624382.1937016,2058.7507628079,2824276.9365535,25.438263826383,0,0
60.982949234678,-17.294309089672,20.242694269427,2624382.1937016,2058.7507628079,2824276.9365535,25.442694269427,0,0
60.982949512881,-17.29798322808,20.247124712471,2624382.1937016,2058.7507628079,2824276.9365535,25.447124712471,0,0
60.982949791085,-17.301657366487,20.251555155516,2624382.1937016,2058.7507628079,2824276.9365535,25.451555155516,0,0
60.982950069289,-17.305331504895,20.25598559856,2624382.1937016,2058.7507628079,2824276.9365535,25.45598559856,0,0
60.982950347493,-17.309005643302,20.260416041604,2624382.1937016,2058.7507628079,2824276.9365535,25.460416041604,0,0
60.982950625697,-17.31267978171,20.264846484648,2624382.1937016,2058.7507628079,2824276.9365535,25.464846484648,0,0
60.982950903901,-17.316353920117,20.269276927693,2624382.1937016,2058.7507628079,2824276.9365535,25.469276927693,0,0
60.982951182105,-17.320028058525,20.273707370737,2624382.1937016,2058.7507628079,2824276.9365535,25.473707370737,0,0
60.982951460308,-17.323702196932,20.278137813781,2624382.1937016,2058.7507628079,2824276.9365535,25.478137813781,0,0
60.982951738512,-17.32737633534,20.282568256826,2624382.1937016,2058.7507628079,2824276.9365535,25.482568256826,0,0
60.982952016716,-17.331050473748,20.28699869987,2624382.1937016,2058.7507628079,2824276.9365535,25.48699869987,0,0
60.98295229492,-17.334724612155,20.291429142914,2624382.1937016,2058.7507628079,2824276.9365535,25.491429142914,0,0
60.982952573124,-17.338398750563,20.295859585959,2624382.1937016,2058.7507628079,2824276.9365535,25.495859585959,0,0
60.982952851328,-17.34207288897,20.300290029003,2624382.1937016,2058.7507628079,2824276.9365535,25.500290029003,0,0
60.982953129532,-17.345747027378,20.304720472047,2624382.1937016,2058.7507628079,2824276.9365535,25.504720472047,0,0
60.982953407735,-17.349421165785,20.309150915092,2624382.1937016,2058.7507628079,2824276.9365535,25.509150915092,0,0
60.982953685939,-17.353095304193,20.313581358136,2624382.1937016,2058.7507628079,2824276.9365535,25.513581358136,0,0
60.982953964143,-17.3567694426,20.31801180118,2624382.1937016,2058.7507628079,2824276.9365535,25.51801180118,0,0
60.982954242347,-17.360443581008,20.322442244224,2624382.1937016,2058.7507628079,2824276.9365535,25.522442244224,0,0
60.982954520551,-17.364117719415,20.326872687269,2624382.1937016,2058.7507628079,2824276.9365535,25.526872687269,0,0
60.982954798755,-17.367791857823,20.331303130313,2624382.1937016,2058.7507628079,2824276.9365535,25.531303130313,0,0
60.982955076959,-17.371465996231,20.335733573357,2624382.1937016,2058.7507628079,2824276.9365535,25.535733573357,0,0
60.982955355162,-17.375140134638,20.340164016402,2624382.1937016,2058.7507628079,2824276.9365535,25.540164016402,0,0
60.982955633366,-17.378814273046,20.344594459446,2624382.1937016,2058.7507628079,2824276.9365535,25.544594459446,0,0
60.98295591157,-17.382488411453,20.34902490249,2624382.1937016,2058.7507628079,2824276.9365535,25.54902490249,0,0
60.982956189774,-17.386162549861,20.353455345535,2624382.1937016,2058.7507628079,2824276.9365535,25.553455345535,0,0
60.982956467978,-17.389836688268,20.357885788579,2624382.1937016,2058.7507628079,2824276.9365535,25.557885788579,0,0
60.982956746182,-17.393510826676,20.362316231623,2624382.1937016,2058.7507628079,2824276.9365535,25.562316231623,0,0
60.982957024386,-17.397184965083,20.366746674667,2624382.1937016,2058.7507628079,2824276.9365535,25.566746674667,0,0
60.982957302589,-17.400859103491,20.371177117712,2624382.1937016,2058.7507628079,2824276.9365535,25.571177117712,0,0
60.982957580793,-17.404533241899,20.375607560756,2624382.1937016,2058.7507628079,2824276.9365535,25.575607560756,0,0
60.982957858997,-17.408207380306,20.3800380038,2624382.1937016,2058.7507628079,2824276.9365535,25.5800380038,0,0
60.982958137201,-17.411881518714,20.384468446845,2624382.1937016,2058.7507628079,2824276.9365535,25.584468446845,0,0
60.982958415405,-17.415555657121,20.388898889889,2624382.1937016,2058.7507628079,2824276.9365535,25.588898889889,0,0
60.982958693609,-17.419229795529,20.393329332933,2624382.1937016,2058.7507628079,2824276.9365535,25.593329332933,0,0
60.982958971813,-17.422903933936,20.397759775978,2624382.1937016,2058.7507628079,2824276.9365535,25.597759775978,0,0
60.982959250016,-17.426578072344,20.402190219022,2624382.1937016,2058.7507628079,2824276.9365535,25.602190219022,0,0
60.98295952822,-17.430252210751,20.406620662066,2624382.1937016,2058.7507628079,2824276.9365535,25.606620662066,0,0
60.982959806424,-17.433926349159,20.411051105111,2624382.1937016,2058.7507628079,2824276.9365535,25.611051105111,0,0
60.982960084628,-17.437600487566,20.415481548155,2624382.1937016,2058.7507628079,2824276.9365535,25.615481548155,0,0
60.982960362832,-17.441274625974,20.419911991199,2624382.1937016,2058.7507628079,2824276.9365535,25.619911991199,0,0
60.982960641036,-17.444948764382,20.424342434243,2624382.1937016,2058.7507628079,2824276.9365535,25.624342434243,0,0
60.98296091924,-17.448622902789,20.428772877288,2624382.1937016,2058.7507628079,2824276.9365535,25.628772877288,0,0
60.982961197443,-17.452297041197,20.433203320332,2624382.1937016,2058.7507628079,2824276.9365535,25.633203320332,0,0
60.982961475647,-17.455971179604,20.437633763376,2624382.1937016,2058.7507628079,2824276.9365535,25.637633763376,0,0
60.982961753851,-17.459645318012,20.442064206421,2624382.1937016,2058.7507628079,2824276.9365535,25.642064206421,0,0
60.982962032055,-17.463319456419,20.446494649465,2624382.1937016,2058.7507628079,2824276.9365535,25.646494649465,0,0
60.982962310259,-17.466993594827,20.450925092509,2624382.1937016,2058.7507628079,2824276.9365535,25.650925092509,0,0
60.982962588463,-17.470667733234,20.455355535554,2624382.1937016,2058.7507628079,2824276.9365535,25.655355535554,0,0
60.982962866667,-17.474341871642,20.459785978598,2624382.1937016,2058.7507628079,2824276.9365535,25.659785978598,0,0
60.98296314487,-17.478016010049,20.464216421642,2624382.1937016,2058.7507628079,2824276.9365535,25.664216421642,0,0
60.982963423074,-17.481690148457,20.468646864686,2624382.1937016,2058.7507628079,2824276.9365535,25.668646864686,0,0
60.982963701278,-17.485364286865,20.473077307731,2624382.1937016,2058.7507628079,2824276.9365535,25.673077307731,0,0
60.982963979482,-17.489038425272,20.477507750775,2624382.1937016,2058.7507628079,2824276.9365535,25.677507750775,0,0
60.982964257686,-17.49271256368,20.481938193819,2624382.1937016,2058.7507628079,2824276.9365535,25.681938193819,0,0
60.98296453589,-17.496386702087,20.486368636864,2624382.1937016,2058.7507628079,2824276.9365535,25.686368636864,0,0
60.982964814094,-17.500060840495,20.490799079908,2624382.1937016,2058.7507628079,2824276.9365535,25.690799079908,0,0
60.982965092297,-17.503734978902,20.495229522952,2624382.1937016,2058.7507628079,2824276.9365535,25.695229522952,0,0
60.982965370501,-17.50740911731,20.499659965997,2624382.1937016,2058.7507628079,2824276.9365535,25.699659965997,0,0
60.982965648705,-17.511083255717,20.504090409041,2624382.1937016,2058.7507628079,2824276.9365535,25.704090409041,0,0
60.982965926909,-17.514757394125,20.508520852085,2624382.1937016,2058.7507628079,2824276.9365535,25.708520852085,0,0
60.982966205113,-17.518431532532,20.51295129513,2624382.1937016,2058.7507628079,2824276.9365535,25.71295129513,0,0
60.982966483317,-17.52210567094,20.517381738174,2624382.1937016,2058.7507628079,2824276.9365535,25.717381738174,0,0
60.982966761521,-17.525779809348,20.521812181218,2624382.1937016,2058.7507628079,2824276.9365535,25.721812181218,0,0
60.982967039724,-17.529453947755,20.526242624262,2624382.1937016,2058.7507628079,2824276.9365535,25.726242624262,0,0
60.982967317928,-17.533128086163,20.530673067307,2624382.1937016,2058.7507628079,2824276.9365535,25.730673067307,0,0
60.982967596132,-17.53680222457,20.535103510351,2624382.1937016,2058.7507628079,2824276.9365535,25.735103510351,0,0
60.982967874336,-17.540476362978,20.539533953395,2624382.1937016,2058.7507628079,2824276.9365535,25.739533953395,0,0
60.98296815254,-17.544150501385,20.54396439644,2624382.1937016,2058.7507628079,2824276.9365535,25.74396439644,0,0
60.982968430744,-17.547824639793,20.548394839484,2624382.1937016,2058.7507628079,2824276.9365535,25.748394839484,0,0
60.982968708948,-17.5514987782,20.552825282528,2624382.1937016,2058.7507628079,2824276.9365535,25.752825282528,0,0
60.982968987151,-17.555172916608,20.557255725573,2624382.1937016,2058.7507628079,2824276.9365535,25.757255725573,0,0
60.982969265355,-17.558847055015,20.561686168617,2624382.1937016,2058.7507628079,2824276.9365535,25.761686168617,0,0
60.982969543559,-17.562521193423,20.566116611661,2624382.1937016,2058.7507628079,2824276.9365535,25.766116611661,0,0
60.982969821763,-17.566195331831,20.570547054705,2624382.1937016,2058.7507628079,2824276.9365535,25.770547054705,0,0
60.982970099967,-17.569869470238,20.57497749775,2624382.1937016,2058.7507628079,2824276.9365535,25.77497749775,0,0
60.982970378171,-17.573543608646,20.579407940794,2624382.1937016,2058.7507628079,2824276.9365535,25.779407940794,0,0
60.982970656375,-17.577217747053,20.583838383838,2624382.1937016,2058.7507628079,2824276.9365535,25.783838383838,0,0
60.982970934578,-17.580891885461,20.588268826883,2624382.1937016,2058.7507628079,2824276.9365535,25.788268826883,0,0
60.982971212782,-17.584566023868,20.592699269927,2624382.1937016,2058.7507628079,2824276.9365535,25.792699269927,0,0
60.982971490986,-17.588240162276,20.597129712971,2624382.1937016,2058.7507628079,2824276.9365535,25.797129712971,0,0
60.98297176919,-17.591914300683,20.601560156016,2624382.1937016,2058.7507628079,2824276.9365535,25.801560156016,0,0
60.982972047394,-17.595588439091,20.60599059906,2624382.1937016,2058.7507628079,2824276.9365535,25.80599059906,0,0
60.982972325598,-17.599262577498,20.610421042104,2624382.1937016,2058.7507628079,2824276.9365535,25.810421042104,0,0
60.982972603802,-17.602936715906,20.614851485149,2624382.1937016,2058.7507628079,2824276.9365535,25.814851485149,0,0
60.982972882005,-17.606610854314,20.619281928193,2624382.1937016,2058.7507628079,2824276.9365535,25.819281928193,0,0
60.982973160209,-17.610284992721,20.623712371237,2624382.1937016,2058.7507628079,2824276.9365535,25.823712371237,0,0
60.982973438413,-17.613959131129,20.628142814281,2624382.1937016,2058.7507628079,2824276.9365535,25.828142814281,0,0
60.982973716617,-17.617633269536,20.632573257326,2624382.1937016,2058.7507628079,2824276.9365535,25.832573257326,0,0
60.982973994821,-17.621307407944,20.63700370037,2624382.1937016,2058.7507628079,2824276.9365535,25.83700370037,0,0
60.982974273025,-17.624981546351,20.641434143414,2624382.1937016,2058.7507628079,2824276.9365535,25.841434143414,0,0
60.982974551229,-17.628655684759,20.645864586459,2624382.1937016,2058.7507628079,2824276.9365535,25.845864586459,0,0
60.982974829432,-17.632329823166,20.650295029503,2624382.1937016,2058.7507628079,2824276.9365535,25.850295029503,0,0
60.982975107636,-17.636003961574,20.654725472547,2624382.1937016,2058.7507628079,2824276.9365535,25.854725472547,0,0
60.98297538584,-17.639678099981,20.659155915592,2624382.1937016,2058.7507628079,2824276.9365535,25.859155915592,0,0
60.982975664044,-17.643352238389,20.663586358636,2624382.1937016,2058.7507628079,2824276.9365535,25.863586358636,0,0
60.982975942248,-17.647026376797,20.66801680168,2624382.1937016,2058.7507628079,2824276.9365535,25.86801680168,0,0
60.982976220452,-17.650700515204,20.672447244724,2624382.1937016,2058.7507628079,2824276.9365535,25.872447244724,0,0
60.982976498656,-17.654374653612,20.676877687769,2624382.1937016,2058.7507628079,2824276.9365535,25.876877687769,0,0
60.982976776859,-17.658048792019,20.681308130813,2624382.1937016,2058.7507628079,2824276.9365535,25.881308130813,0,0
60.982977055063,-17.661722930427,20.685738573857,2624382.1937016,2058.7507628079,2824276.9365535,25.885738573857,0,0
60.982977333267,-17.665397068834,20.690169016902,2624382.1937016,2058.7507628079,2824276.9365535,25.890169016902,0,0
60.982977611471,-17.669071207242,20.694599459946,2624382.1937016,2058.7507628079,2824276.9365535,25.894599459946,0,0
60.982977889675,-17.672745345649,20.69902990299,2624382.1937016,2058.7507628079,2824276.9365535,25.89902990299,0,0
60.982978167879,-17.676419484057,20.703460346035,2624382.1937016,2058.7507628079,2824276.9365535,25.903460346035,0,0
60.982978446083,-17.680093622464,20.707890789079,2624382.1937016,2058.7507628079,2824276.9365535,25.907890789079,0,0
60.982978724286,-17.683767760872,20.712321232123,2624382.1937016,2058.7507628079,2824276.9365535,25.912321232123,0,0
60.98297900249,-17.68744189928,20.716751675168,2624382.1937016,2058.7507628079,2824276.9365535,25.916751675168,0,0
60.982979280694,-17.691116037687,20.721182118212,2624382.1937016,2058.7507628079,2824276.9365535,25.921182118212,0,0
60.982979558898,-17.694790176095,20.725612561256,2624382.1937016,2058.7507628079,2824276.9365535,25.925612561256,0,0
60.982979837102,-17.698464314502,20.7300430043,2624382.1937016,2058.7507628079,2824276.9365535,25.9300430043,0,0
60.982980115306,-17.70213845291,20.734473447345,2624382.1937016,2058.7507628079,2824276.9365535,25.934473447345,0,0
60.98298039351,-17.705812591317,20.738903890389,2624382.1937016,2058.7507628079,2824276.9365535,25.938903890389,0,0
60.982980671713,-17.709486729725,20.743334333433,2624382.1937016,2058.7507628079,2824276.9365535,25.943334333433,0,0
60.982980949917,-17.713160868132,20.747764776478,2624382.1937016,2058.7507628079,2824276.9365535,25.947764776478,0,0
60.982981228121,-17.71683500654,20.752195219522,2624382.1937016,2058.7507628079,2824276.9365535,25.952195219522,0,0
60.982981506325,-17.720509144947,20.756625662566,2624382.1937016,2058.7507628079,2824276.9365535,25.956625662566,0,0
60.982981784529,-17.724183283355,20.761056105611,2624382.1937016,2058.7507628079,2824276.9365535,25.961056105611,0,0
60.982982062733,-17.727857421763,20.765486548655,2624382.1937016,2058.7507628079,2824276.9365535,25.965486548655,0,0
60.982982340937,-17.73153156017,20.769916991699,2624382.1937016,2058.7507628079,2824276.9365535,25.969916991699,0,0
60.98298261914,-17.735205698578,20.774347434743,2624382.1937016,2058.7507628079,2824276.9365535,25.974347434743,0,0
60.982982897344,-17.738879836985,20.778777877788,2624382.1937016,2058.7507628079,2824276.9365535,25.978777877788,0,0
60.982983175548,-17.742553975393,20.783208320832,2624382.1937016,2058.7507628079,2824276.9365535,25.983208320832,0,0
60.982983453752,-17.7462281138,20.787638763876,2624382.1937016,2058.7507628079,2824276.9365535,25.987638763876,0,0
60.982983731956,-17.749902252208,20.792069206921,2624382.1937016,2058.7507628079,2824276.9365535,25.992069206921,0,0
60.98298401016,-17.753576390615,20.796499649965,2624382.1937016,2058.7507628079,2824276.9365535,25.996499649965,0,0
60.982984288364,-17.757250529023,20.800930093009,2624382.1937016,2058.7507628079,2824276.9365535,26.000930093009,0,0
60.982984566567,-17.760924667431,20.805360536054,2624382.1937016,2058.7507628079,2824276.9365535,26.005360536054,0,0
60.982984844771,-17.764598805838,20.809790979098,2624382.1937016,2058.7507628079,2824276.9365535,26.009790979098,0,0
60.982985122975,-17.768272944246,20.814221422142,2624382.1937016,2058.7507628079,2824276.9365535,26.014221422142,0,0
60.982985401179,-17.771947082653,20.818651865187,2624382.1937016,2058.7507628079,2824276.9365535,26.018651865187,0,0
60.982985679383,-17.775621221061,20.823082308231,2624382.1937016,2058.7507628079,2824276.9365535,26.023082308231,0,0
60.982985957587,-17.779295359468,20.827512751275,2624382.1937016,2058.7507628079,2824276.9365535,26.027512751275,0,0
60.982986235791,-17.782969497876,20.831943194319,2624382.1937016,2058.7507628079,2824276.9365535,26.031943194319,0,0
60.982986513994,-17.786643636283,20.836373637364,2624382.1937016,2058.7507628079,2824276.9365535,26.036373637364,0,0
60.982986792198,-17.790317774691,20.840804080408,2624382.1937016,2058.7507628079,2824276.9365535,26.040804080408,0,0
60.982987070402,-17.793991913098,20.845234523452,2624382.1937016,2058.7507628079,2824276.9365535,26.045234523452,0,0
60.982987348606,-17.797666051506,20.849664966497,2624382.1937016,2058.7507628079,2824276.9365535,26.049664966497,0,0
60.98298762681,-17.801340189914,20.854095409541,2624382.1937016,2058.7507628079,2824276.9365535,26.054095409541,0,0
60.982987905014,-17.805014328321,20.858525852585,2624382.1937016,2058.7507628079,2824276.9365535,26.058525852585,0,0
60.982988183218,-17.808688466729,20.86295629563,2624382.1937016,2058.7507628079,2824276.9365535,26.06295629563,0,0
60.982988461421,-17.812362605136,20.867386738674,2624382.1937016,2058.7507628079,2824276.9365535,26.067386738674,0,0
60.982988739625,-17.816036743544,20.871817181718,2624382.1937016,2058.7507628079,2824276.9365535,26.071817181718,0,0
60.982989017829,-17.819710881951,20.876247624762,2624382.1937016,2058.7507628079,2824276.9365535,26.076247624762,0,0
60.982989296033,-17.823385020359,20.880678067807,2624382.1937016,2058.7507628079,2824276.9365535,26.080678067807,0,0
60.982989574237,-17.827059158766,20.885108510851,2624382.1937016,2058.7507628079,2824276.9365535,26.085108510851,0,0
60.982989852441,-17.830733297174,20.889538953895,2624382.1937016,2058.7507628079,2824276.9365535,26.089538953895,0,0
60.982990130645,-17.834407435581,20.89396939694,2624382.1937016,2058.7507628079,2824276.9365535,26.09396939694,0,0
60.982990408848,-17.838081573989,20.898399839984,2624382.1937016,2058.7507628079,2824276.9365535,26.098399839984,0,0
60.982990687052,-17.841755712397,20.902830283028,2624382.1937016,2058.7507628079,2824276.9365535,26.102830283028,0,0
60.982990965256,-17.845429850804,20.907260726073,2624382.1937016,2058.7507628079,2824276.9365535,26.107260726073,0,0
60.98299124346,-17.849103989212,20.911691169117,2624382.1937016,2058.7507628079,2824276.9365535,26.111691169117,0,0
60.982991521664,-17.852778127619,20.916121612161,2624382.1937016,2058.7507628079,2824276.9365535,26.116121612161,0,0
60.982991799868,-17.856452266027,20.920552055206,2624382.1937016,2058.7507628079,2824276.9365535,26.120552055206,0,0
60.982992078072,-17.860126404434,20.92498249825,2624382.1937016,2058.7507628079,2824276.9365535,26.12498249825,0,0
60.982992356275,-17.863800542842,20.929412941294,2624382.1937016,2058.7507628079,2824276.9365535,26.129412941294,0,0
60.982992634479,-17.867474681249,20.933843384338,2624382.1937016,2058.7507628079,2824276.9365535,26.133843384338,0,0
60.982992912683,-17.871148819657,20.938273827383,2624382.1937016,2058.7507628079,2824276.9365535,26.138273827383,0,0
60.982993190887,-17.874822958064,20.942704270427,2624382.1937016,2058.7507628079,2824276.9365535,26.142704270427,0,0
60.982993469091,-17.878497096472,20.947134713471,2624382.1937016,2058.7507628079,2824276.9365535,26.147134713471,0,0
60.982993747295,-17.88217123488,20.951565156516,2624382.1937016,2058.7507628079,2824276.9365535,26.151565156516,0,0
60.982994025499,-17.885845373287,20.95599559956,2624382.1937016,2058.7507628079,2824276.9365535,26.15599559956,0,0
60.982994303702,-17.889519511695,20.960426042604,2624382.1937016,2058.7507628079,2824276.9365535,26.160426042604,0,0
60.982994581906,-17.893193650102,20.964856485649,2624382.1937016,2058.7507628079,2824276.9365535,26.164856485649,0,0
60.98299486011,-17.89686778851,20.969286928693,2624382.1937016,2058.7507628079,2824276.9365535,26.169286928693,0,0
60.982995138314,-17.900541926917,20.973717371737,2624382.1937016,2058.7507628079,2824276.9365535,26.173717371737,0,0
60.982995416518,-17.904216065325,20.978147814781,2624382.1937016,2058.7507628079,2824276.9365535,26.178147814781,0,0
60.98299569473,-17.907890203719,20.982578257826,2632571.3267981,6244.388850314,2821667.1815089,26.182578257826,0,0
60.982995973657,-17.911564340969,20.98700870087,2632571.3267981,6244.388850314,2821667.1815089,26.18700870087,0,0
60.982996252585,-17.915238478218,20.991439143914,2632571.3267981,6244.388850314,2821667.1815089,26.191439143914,0,0
60.982996531512,-17.918912615468,20.995869586959,2632571.3267981,6244.388850314,2821667.1815089,26.195869586959,0,0
60.98299681044,-17.922586752717,21.000300030003,2632571.3267981,6244.388850314,2821667.1815089,26.200300030003,0,0
60.982997089367,-17.926260889967,21.004730473047,2632571.3267981,6244.388850314,2821667.1815089,26.204730473047,0,0
60.982997368295,-17.929935027216,21.009160916092,2632571.3267981,6244.388850314,2821667.1815089,26.209160916092,0,0
60.982997647222,-17.933609164466,21.013591359136,2632571.3267981,6244.388850314,2821667.1815089,26.213591359136,0,0
60.98299792615,-17.937283301715,21.01802180218,2632571.3267981,6244.388850314,2821667.1815089,26.21802180218,0,0
60.982998205077,-17.940957438965,21.022452245225,2632571.3267981,6244.388850314,2821667.1815089,26.222452245225,0,0
60.982998484004,-17.944631576214,21.026882688269,2632571.3267981,6244.388850314,2821667.1815089,26.226882688269,0,0
60.982998762932,-17.948305713464,21.031313131313,2632571.3267981,6244.388850314,2821667.1815089,26.231313131313,0,0
60.982999041859,-17.951979850713,21.035743574357,2632571.3267981,6244.388850314,2821667.1815089,26.235743574357,0,0
60.982999320787,-17.955653987963,21.040174017402,2632571.3267981,6244.388850314,2821667.1815089,26.240174017402,0,0
60.982999599714,-17.959328125212,21.044604460446,2632571.3267981,6244.388850314,2821667.1815089,26.244604460446,0,0
60.982999878642,-17.963002262462,21.04903490349,2632571.3267981,6244.388850314,2821667.1815089,26.24903490349,0,0
60.983000157569,-17.966676399711,21.053465346535,2632571.3267981,6244.388850314,2821667.1815089,26.253465346535,0,0
60.983000436497,-17.970350536961,21.057895789579,2632571.3267981,6244.388850314,2821667.1815089,26.257895789579,0,0
60.983000715424,-17.97402467421,21.062326232623,2632571.3267981,6244.388850314,2821667.1815089,26.262326232623,0,0
60.983000994352,-17.97769881146,21.066756675668,2632571.3267981,6244.388850314,2821667.1815089,26.266756675668,0,0
60.983001273279,-17.981372948709,21.071187118712,2632571.3267981,6244.388850314,2821667.1815089,26.271187118712,0,0
60.983001552206,-17.985047085959,21.075617561756,2632571.3267981,6244.388850314,2821667.1815089,26.275617561756,0,0
60.983001831134,-17.988721223208,21.0800480048,2632571.3267981,6244.388850314,2821667.1815089,26.2800480048,0,0
60.983002110061,-17.992395360458,21.084478447845,2632571.3267981,6244.388850314,2821667.1815089,26.284478447845,0,0
60.983002388989,-17.996069497707,21.088908890889,2632571.3267981,6244.388850314,2821667.1815089,26.288908890889,0,0
60.983002667916,-17.999743634957,21.093339333933,2632571.3267981,6244.388850314,2821667.1815089,26.293339333933,0,0
60.983002946844,-18.003417772206,21.097769776978,2632571.3267981,6244.388850314,2821667.1815089,26.297769776978,0,0
60.983003225771,-18.007091909456,21.102200220022,2632571.3267981,6244.388850314,2821667.1815089,26.302200220022,0,0
60.983003504699,-18.010766046705,21.106630663066,2632571.3267981,6244.388850314,2821667.1815089,26.306630663066,0,0
60.983003783626,-18.014440183955,21.111061106111,2632571.3267981,6244.388850314,2821667.1815089,26.311061106111,0,0
60.983004062554,-18.018114321204,21.115491549155,2632571.3267981,6244.388850314,2821667.1815089,26.315491549155,0,0
60.983004341481,-18.021788458454,21.119921992199,2632571.3267981,6244.388850314,2821667.1815089,26.319921992199,0,0
60.983004620408,-18.025462595703,21.124352435244,2632571.3267981,6244.388850314,2821667.1815089,26.324352435244,0,0
60.983004899336,-18.029136732953,21.128782878288,2632571.3267981,6244.388850314,2821667.1815089,26.328782878288,0,0
60.983005178263,-18.032810870202,21.133213321332,2632571.3267981,6244.388850314,2821667.1815089,26.333213321332,0,0
60.983005457191,-18.036485007452,21.137643764376,2632571.3267981,6244.388850314,2821667.1815089,26.337643764376,0,0
60.983005736118,-18.040159144701,21.142074207421,2632571.3267981,6244.388850314,2821667.1815089,26.342074207421,0,0
60.983006015046,-18.043833281951,21.146504650465,2632571.3267981,6244.388850314,2821667.1815089,26.346504650465,0,0
60.983006293973,-18.0475074192,21.150935093509,2632571.3267981,6244.388850314,2821667.1815089,26.350935093509,0,0
60.983006572901,-18.05118155645,21.155365536554,2632571.3267981,6244.388850314,2821667.1815089,26.355365536554,0,0
60.983006851828,-18.054855693699,21.159795979598,2632571.3267981,6244.388850314,2821667.1815089,26.359795979598,0,0
60.983007130756,-18.058529830949,21.164226422642,2632571.3267981,6244.388850314,2821667.1815089,26.364226422642,0,0
60.983007409998,-18.062203969002,21.168656865687,2635603.7383626,2179.5955075078,2814017.7344082,26.368656865687,0,0
60.983007689372,-18.065878107389,21.173087308731,2635603.7383626,2179.5955075078,2814017.7344082,26.373087308731,0,0
60.983007968745,-18.069552245776,21.177517751775,2635603.7383626,2179.5955075078,2814017.7344082,26.377517751775,0,0
60.983008248118,-18.073226384162,21.181948194819,2635603.7383626,2179.5955075078,2814017.7344082,26.381948194819,0,0
60.983008527492,-18.076900522549,21.186378637864,2635603.7383626,2179.5955075078,2814017.7344082,26.386378637864,0,0
60.983008806865,-18.080574660935,21.190809080908,2635603.7383626,2179.5955075078,2814017.7344082,26.390809080908,0,0
60.983009086238,-18.084248799322,21.195239523952,2635603.7383626,2179.5955075078,2814017.7344082,26.395239523952,0,0
60.983009365612,-18.087922937708,21.199669966997,2635603.7383626,2179.5955075078,2814017.7344082,26.399669966997,0,0
60.983009644985,-18.091597076095,21.204100410041,2635603.7383626,2179.5955075078,2814017.7344082,26.404100410041,0,0
60.983009924358,-18.095271214482,21.208530853085,2635603.7383626,2179.5955075078,2814017.7344082,26.408530853085,0,0
60.983010203732,-18.098945352868,21.21296129613,2635603.7383626,2179.5955075078,2814017.7344082,26.41296129613,0,0
60.983010483105,-18.102619491255,21.217391739174,2635603.7383626,2179.5955075078,2814017.7344082,26.417391739174,0,0
60.983010762478,-18.106293629641,21.221822182218,2635603.7383626,2179.5955075078,2814017.7344082,26.421822182218,0,0
60.983011041852,-18.109967768028,21.226252625263,2635603.7383626,2179.5955075078,2814017.7344082,26.426252625263,0,0
60.983011321225,-18.113641906414,21.230683068307,2635603.7383626,2179.5955075078,2814017.7344082,26.430683068307,0,0
60.983011600598,-18.117316044801,21.235113511351,2635603.7383626,2179.5955075078,2814017.7344082,26.435113511351,0,0
60.983011879972,-18.120990183188,21.239543954395,2635603.7383626,2179.5955075078,2814017.7344082,26.439543954395,0,0
60.983012159345,-18.124664321574,21.24397439744,2635603.7383626,2179.5955075078,2814017.7344082,26.44397439744,0,0
60.983012438718,-18.128338459961,21.248404840484,2635603.7383626,2179.5955075078,2814017.7344082,26.448404840484,0,0
60.983012718092,-18.132012598347,21.252835283528,2635603.7383626,2179.5955075078,2814017.7344082,26.452835283528,0,0
60.983012997465,-18.135686736734,21.257265726573,2635603.7383626,2179.5955075078,2814017.7344082,26.457265726573,0,0
60.983013276838,-18.13936087512,21.261696169617,2635603.7383626,2179.5955075078,2814017.7344082,26.461696169617,0,0
60.983013556212,-18.143035013507,21.266126612661,2635603.7383626,2179.5955075078,2814017.7344082,26.466126612661,0,0
60.983013835585,-18.146709151894,21.270557055706,2635603.7383626,2179.5955075078,2814017.7344082,26.470557055706,0,0
60.983014114959,-18.15038329028,21.27498749875,2635603.7383626,2179.5955075078,2814017.7344082,26.47498749875,0,0
60.983014394332,-18.154057428667,21.279417941794,2635603.7383626,2179.5955075078,2814017.7344082,26.479417941794,0,0
60.983014673705,-18.157731567053,21.283848384838,2635603.7383626,2179.5955075078,2814017.7344082,26.483848384838,0,0
60.983014953079,-18.16140570544,21.288278827883,2635603.7383626,2179.5955075078,2814017.7344082,26.488278827883,0,0
60.983015232452,-18.165079843826,21.292709270927,2635603.7383626,2179.5955075078,2814017.7344082,26.492709270927,0,0
60.983015511825,-18.168753982213,21.297139713971,2635603.7383626,2179.5955075078,2814017.7344082,26.497139713971,0,0
60.983015791199,-18.1724281206,21.301570157016,2635603.7383626,2179.5955075078,2814017.7344082,26.501570157016,0,0
60.983016070572,-18.176102258986,21.30600060006,2635603.7383626,2179.5955075078,2814017.7344082,26.50600060006,0,0
60.983016349945,-18.179776397373,21.310431043104,2635603.7383626,2179.5955075078,2814017.7344082,26.510431043104,0,0
60.983016629319,-18.183450535759,21.314861486149,2635603.7383626,2179.5955075078,2814017.7344082,26.514861486149,0,0
60.983016908692,-18.187124674146,21.319291929193,2635603.7383626,2179.5955075078,2814017.7344082,26.519291929193,0,0
60.983017188065,-18.190798812532,21.323722372237,2635603.7383626,2179.5955075078,2814017.7344082,26.523722372237,0,0
60.983017467439,-18.194472950919,21.328152815282,2635603.7383626,2179.5955075078,2814017.7344082,26.528152815282,0,0
60.983017746812,-18.198147089306,21.332583258326,2635603.7383626,2179.5955075078,2814017.7344082,26.532583258326,0,0
60.983018026185,-18.201821227692,21.33701370137,2635603.7383626,2179.5955075078,2814017.7344082,26.53701370137,0,0
60.983018305559,-18.205495366079,21.341444144414,2635603.7383626,2179.5955075078,2814017.7344082,26.541444144414,0,0
60.983018584932,-18.209169504465,21.345874587459,2635603.7383626,2179.5955075078,2814017.7344082,26.545874587459,0,0
60.983018864305,-18.212843642852,21.350305030503,2635603.7383626,2179.5955075078,2814017.7344082,26.550305030503,0,0
60.983019143679,-18.216517781238,21.354735473547,2635603.7383626,2179.5955075078,2814017.7344082,26.554735473547,0,0
60.983019423052,-18.220191919625,21.359165916592,2635603.7383626,2179.5955075078,2814017.7344082,26.559165916592,0,0
60.983019702425,-18.223866058012,21.363596359636,2635603.7383626,2179.5955075078,2814017.7344082,26.563596359636,0,0
60.983019981799,-18.227540196398,21.36802680268,2635603.7383626,2179.5955075078,2814017.7344082,26.56802680268,0,0
60.983020261172,-18.231214334785,21.372457245725,2635603.7383626,2179.5955075078,2814017.7344082,26.572457245725,0,0
60.983020540545,-18.234888473171,21.376887688769,2635603.7383626,2179.5955075078,2814017.7344082,26.576887688769,0,0
60.983020819919,-18.238562611558,21.381318131813,2635603.7383626,2179.5955075078,2814017.7344082,26.581318131813,0,0
60.983021099292,-18.242236749944,21.385748574857,2635603.7383626,2179.5955075078,2814017.7344082,26.585748574857,0,0
60.983021378665,-18.245910888331,21.390179017902,2635603.7383626,2179.5955075078,2814017.7344082,26.590179017902,0,0
60.983021658039,-18.249585026718,21.394609460946,2635603.7383626,2179.5955075078,2814017.7344082,26.594609460946,0,0
60.983021937412,-18.253259165104,21.39903990399,2635603.7383626,2179.5955075078,2814017.7344082,26.59903990399,0,0
60.983022216785,-18.256933303491,21.403470347035,2635603.7383626,2179.5955075078,2814017.7344082,26.603470347035,0,0
60.983022496159,-18.260607441877,21.407900790079,2635603.7383626,2179.5955075078,2814017.7344082,26.607900790079,0,0
60.983022775532,-18.264281580264,21.412331233123,2635603.7383626,2179.5955075078,2814017.7344082,26.612331233123,0,0
60.983023054905,-18.26795571865,21.416761676168,2635603.7383626,2179.5955075078,2814017.7344082,26.616761676168,0,0
60.983023334279,-18.271629857037,21.421192119212,2635603.7383626,2179.5955075078,2814017.7344082,26.621192119212,0,0
60.983023613652,-18.275303995424,21.425622562256,2635603.7383626,2179.5955075078,2814017.7344082,26.625622562256,0,0
60.983023893025,-18.27897813381,21.430053005301,2635603.7383626,2179.5955075078,2814017.7344082,26.630053005301,0,0
60.983024172399,-18.282652272197,21.434483448345,2635603.7383626,2179.5955075078,2814017.7344082,26.634483448345,0,0
60.983024451772,-18.286326410583,21.438913891389,2635603.7383626,2179.5955075078,2814017.7344082,26.638913891389,0,0
60.983024731145,-18.29000054897,21.443344334433,2635603.7383626,2179.5955075078,2814017.7344082,26.643344334433,0,0
60.983025010519,-18.293674687356,21.447774777478,2635603.7383626,2179.5955075078,2814017.7344082,26.647774777478,0,0
60.983025289892,-18.297348825743,21.452205220522,2635603.7383626,2179.5955075078,2814017.7344082,26.652205220522,0,0
60.983025569265,-18.30102296413,21.456635663566,2635603.7383626,2179.5955075078,2814017.7344082,26.656635663566,0,0
60.983025848639,-18.304697102516,21.461066106611,2635603.7383626,2179.5955075078,2814017.7344082,26.661066106611,0,0
60.983026128012,-18.308371240903,21.465496549655,2635603.7383626,2179.5955075078,2814017.7344082,26.665496549655,0,0
60.983026407385,-18.312045379289,21.469926992699,2635603.7383626,2179.5955075078,2814017.7344082,26.669926992699,0,0
60.983026686759,-18.315719517676,21.474357435744,2635603.7383626,2179.5955075078,2814017.7344082,26.674357435744,0,0
60.983026966132,-18.319393656062,21.478787878788,2635603.7383626,2179.5955075078,2814017.7344082,26.678787878788,0,0
60.983027245506,-18.323067794449,21.483218321832,2635603.7383626,2179.5955075078,2814017.7344082,26.683218321832,0,0
60.983027524879,-18.326741932835,21.487648764876,2635603.7383626,2179.5955075078,2814017.7344082,26.687648764876,0,0
60.983027804252,-18.330416071222,21.492079207921,2635603.7383626,2179.5955075078,2814017.7344082,26.692079207921,0,0
60.983028083626,-18.334090209609,21.496509650965,2635603.7383626,2179.5955075078,2814017.7344082,26.696509650965,0,0
60.983028362999,-18.337764347995,21.500940094009,2635603.7383626,2179.5955075078,2814017.7344082,26.700940094009,0,0
60.983028642372,-18.341438486382,21.505370537054,2635603.7383626,2179.5955075078,2814017.7344082,26.705370537054,0,0
60.983028921746,-18.345112624768,21.509800980098,2635603.7383626,2179.5955075078,2814017.7344082,26.709800980098,0,0
60.983029201119,-18.348786763155,21.514231423142,2635603.7383626,2179.5955075078,2814017.7344082,26.714231423142,0,0
60.983029480492,-18.352460901541,21.518661866187,2635603.7383626,2179.5955075078,2814017.7344082,26.718661866187,0,0
60.983029759866,-18.356135039928,21.523092309231,2635603.7383626,2179.5955075078,2814017.7344082,26.723092309231,0,0
60.983030039239,-18.359809178315,21.527522752275,2635603.7383626,2179.5955075078,2814017.7344082,26.727522752275,0,0
60.983030318612,-18.363483316701,21.53195319532,2635603.7383626,2179.5955075078,2814017.7344082,26.73195319532,0,0
60.983030597986,-18.367157455088,21.536383638364,2635603.7383626,2179.5955075078,2814017.7344082,26.736383638364,0,0
60.983030877359,-18.370831593474,21.540814081408,2635603.7383626,2179.5955075078,2814017.7344082,26.740814081408,0,0
60.983031156732,-18.374505731861,21.545244524452,2635603.7383626,2179.5955075078,2814017.7344082,26.745244524452,0,0
60.983031436106,-18.378179870247,21.549674967497,2635603.7383626,2179.5955075078,2814017.7344082,26.749674967497,0,0
60.983031715479,-18.381854008634,21.554105410541,2635603.7383626,2179.5955075078,2814017.7344082,26.754105410541,0,0
60.983031994852,-18.385528147021,21.558535853585,2635603.7383626,2179.5955075078,2814017.7344082,26.758535853585,0,0
60.983032274226,-18.389202285407,21.56296629663,2635603.7383626,2179.5955075078,2814017.7344082,26.76296629663,0,0
60.983032553599,-18.392876423794,21.567396739674,2635603.7383626,2179.5955075078,2814017.7344082,26.767396739674,0,0
60.983032832972,-18.39655056218,21.571827182718,2635603.7383626,2179.5955075078,2814017.7344082,26.771827182718,0,0
60.983033112346,-18.400224700567,21.576257625763,2635603.7383626,2179.5955075078,2814017.7344082,26.776257625763,0,0
60.983033391719,-18.403898838953,21.580688068807,2635603.7383626,2179.5955075078,2814017.7344082,26.780688068807,0,0
60.983033671092,-18.40757297734,21.585118511851,2635603.7383626,2179.5955075078,2814017.7344082,26.785118511851,0,0
60.983033950466,-18.411247115727,21.589548954895,2635603.7383626,2179.5955075078,2814017.7344082,26.789548954895,0,0
60.983034229839,-18.414921254113,21.59397939794,2635603.7383626,2179.5955075078,2814017.7344082,26.79397939794,0,0
60.983034509212,-18.4185953925,21.598409840984,2635603.7383626,2179.5955075078,2814017.7344082,26.798409840984,0,0
60.983034788586,-18.422269530886,21.602840284028,2635603.7383626,2179.5955075078,2814017.7344082,26.802840284028,0,0
60.983035067959,-18.425943669273,21.607270727073,2635603.7383626,2179.5955075078,2814017.7344082,26.807270727073,0,0
60.983035347332,-18.429617807659,21.611701170117,2635603.7383626,2179.5955075078,2814017.7344082,26.811701170117,0,0
60.983035626706,-18.433291946046,21.616131613161,2635603.7383626,2179.5955075078,2814017.7344082,26.816131613161,0,0
60.983035906079,-18.436966084433,21.620562056206,2635603.7383626,2179.5955075078,2814017.7344082,26.820562056206,0,0
60.983036185452,-18.440640222819,21.62499249925,2635603.7383626,2179.5955075078,2814017.7344082,26.82499249925,0,0
60.983036464826,-18.444314361206,21.629422942294,2635603.7383626,2179.5955075078,2814017.7344082,26.829422942294,0,0
60.983036744199,-18.447988499592,21.633853385339,2635603.7383626,2179.5955075078,2814017.7344082,26.833853385339,0,0
60.983037023572,-18.451662637979,21.638283828383,2635603.7383626,2179.5955075078,2814017.7344082,26.838283828383,0,0
60.983037302946,-18.455336776365,21.642714271427,2635603.7383626,2179.5955075078,2814017.7344082,26.842714271427,0,0
60.983037582319,-18.459010914752,21.647144714471,2635603.7383626,2179.5955075078,2814017.7344082,26.847144714471,0,0
60.983037861692,-18.462685053139,21.651575157516,2635603.7383626,2179.5955075078,2814017.7344082,26.851575157516,0,0
60.983038141066,-18.466359191525,21.65600560056,2635603.7383626,2179.5955075078,2814017.7344082,26.85600560056,0,0
60.983038420439,-18.470033329912,21.660436043604,2635603.7383626,2179.5955075078,2814017.7344082,26.860436043604,0,0
60.983038699812,-18.473707468298,21.664866486649,2635603.7383626,2179.5955075078,2814017.7344082,26.864866486649,0,0
60.983038979186,-18.477381606685,21.669296929693,2635603.7383626,2179.5955075078,2814017.7344082,26.869296929693,0,0
60.983039258559,-18.481055745071,21.673727372737,2635603.7383626,2179.5955075078,2814017.7344082,26.873727372737,0,0
60.983039537932,-18.484729883458,21.678157815782,2635603.7383626,2179.5955075078,2814017.7344082,26.878157815782,0,0
60.983039817306,-18.488404021845,21.682588258826,2635603.7383626,2179.5955075078,2814017.7344082,26.882588258826,0,0
60.983040096679,-18.492078160231,21.68701870187,2635603.7383626,2179.5955075078,2814017.7344082,26.88701870187,0,0
60.983040376053,-18.495752298618,21.691449144914,2635603.7383626,2179.5955075078,2814017.7344082,26.891449144914,0,0
60.983040655426,-18.499426437004,21.695879587959,2635603.7383626,2179.5955075078,2814017.7344082,26.895879587959,0,0
60.983040934799,-18.503100575391,21.700310031003,2635603.7383626,2179.5955075078,2814017.7344082,26.900310031003,0,0
60.983041214173,-18.506774713777,21.704740474047,2635603.7383626,2179.5955075078,2814017.7344082,26.904740474047,0,0
60.983041493546,-18.510448852164,21.709170917092,2635603.7383626,2179.5955075078,2814017.7344082,26.909170917092,0,0
60.983041772919,-18.514122990551,21.713601360136,2635603.7383626,2179.5955075078,2814017.7344082,26.913601360136,0,0
60.983042052293,-18.517797128937,21.71803180318,2635603.7383626,2179.5955075078,2814017.7344082,26.91803180318,0,0
60.983042331666,-18.521471267324,21.722462246225,2635603.7383626,2179.5955075078,2814017.7344082,26.922462246225,0,0
60.983042611039,-18.52514540571,21.726892689269,2635603.7383626,2179.5955075078,2814017.7344082,26.926892689269,0,0
60.983042890413,-18.528819544097,21.731323132313,2635603.7383626,2179.5955075078,2814017.7344082,26.931323132313,0,0
60.983043169786,-18.532493682483,21.735753575358,2635603.7383626,2179.5955075078,2814017.7344082,26.935753575358,0,0
60.983043449159,-18.53616782087,21.740184018402,2635603.7383626,2179.5955075078,2814017.7344082,26.940184018402,0,0
60.983043728533,-18.539841959257,21.744614461446,2635603.7383626,2179.5955075078,2814017.7344082,26.944614461446,0,0
60.983044007906,-18.543516097643,21.74904490449,2635603.7383626,2179.5955075078,2814017.7344082,26.94904490449,0,0
60.983044287279,-18.54719023603,21.753475347535,2635603.7383626,2179.5955075078,2814017.7344082,26.953475347535,0,0
60.983044566653,-18.550864374416,21.757905790579,2635603.7383626,2179.5955075078,2814017.7344082,26.957905790579,0,0
60.983044846026,-18.554538512803,21.762336233623,2635603.7383626,2179.5955075078,2814017.7344082,26.962336233623,0,0
60.983045125399,-18.558212651189,21.766766676668,2635603.7383626,2179.5955075078,2814017.7344082,26.966766676668,0,0
60.983045404773,-18.561886789576,21.771197119712,2635603.7383626,2179.5955075078,2814017.7344082,26.971197119712,0,0
60.983045684146,-18.565560927963,21.775627562756,2635603.7383626,2179.5955075078,2814017.7344082,26.975627562756,0,0
60.983045963519,-18.569235066349,21.780058005801,2635603.7383626,2179.5955075078,2814017.7344082,26.980058005801,0,0
60.983046242893,-18.572909204736,21.784488448845,2635603.7383626,2179.5955075078,2814017.7344082,26.984488448845,0,0
60.983046522266,-18.576583343122,21.788918891889,2635603.7383626,2179.5955075078,2814017.7344082,26.988918891889,0,0
60.983046801639,-18.580257481509,21.793349334933,2635603.7383626,2179.5955075078,2814017.7344082,26.993349334933,0,0
60.983047081013,-18.583931619895,21.797779777978,2635603.7383626,2179.5955075078,2814017.7344082,26.997779777978,0,0
60.983047360386,-18.587605758282,21.802210221022,2635603.7383626,2179.5955075078,2814017.7344082,27.002210221022,0,0
60.983047639759,-18.591279896669,21.806640664066,2635603.7383626,2179.5955075078,2814017.7344082,27.006640664066,0,0
60.983047919133,-18.594954035055,21.811071107111,2635603.7383626,2179.5955075078,2814017.7344082,27.011071107111,0,0
60.983048198506,-18.598628173442,21.815501550155,2635603.7383626,2179.5955075078,2814017.7344082,27.015501550155,0,0
60.983048477879,-18.602302311828,21.819931993199,2635603.7383626,2179.5955075078,2814017.7344082,27.019931993199,0,0
60.983048757253,-18.605976450215,21.824362436244,2635603.7383626,2179.5955075078,2814017.7344082,27.024362436244,0,0
60.983049036626,-18.609650588601,21.828792879288,2635603.7383626,2179.5955075078,2814017.7344082,27.028792879288,0,0
60.983049315999,-18.613324726988,21.833223322332,2635603.7383626,2179.5955075078,2814017.7344082,27.033223322332,0,0
60.983049595373,-18.616998865375,21.837653765377,2635603.7383626,2179.5955075078,2814017.7344082,27.037653765377,0,0
60.983049874746,-18.620673003761,21.842084208421,2635603.7383626,2179.5955075078,2814017.7344082,27.042084208421,0,0
60.983050154119,-18.624347142148,21.846514651465,2635603.7383626,2179.5955075078,2814017.7344082,27.046514651465,0,0
60.983050433493,-18.628021280534,21.850945094509,2635603.7383626,2179.5955075078,2814017.7344082,27.050945094509,0,0
60.983050712866,-18.631695418921,21.855375537554,2635603.7383626,2179.5955075078,2814017.7344082,27.055375537554,0,0
60.983050992239,-18.635369557307,21.859805980598,2635603.7383626,2179.5955075078,2814017.7344082,27.059805980598,0,0
60.983051271613,-18.639043695694,21.864236423642,2635603.7383626,2179.5955075078,2814017.7344082,27.064236423642,0,0
60.983051550986,-18.642717834081,21.868666866687,2635603.7383626,2179.5955075078,2814017.7344082,27.068666866687,0,0
60.983051830359,-18.646391972467,21.873097309731,2635603.7383626,2179.5955075078,2814017.7344082,27.073097309731,0,0
60.983052109733,-18.650066110854,21.877527752775,2635603.7383626,2179.5955075078,2814017.7344082,27.077527752775,0,0
60.983052389106,-18.65374024924,21.88195819582,2635603.7383626,2179.5955075078,2814017.7344082,27.08195819582,0,0
60.98305266848,-18.657414387627,21.886388638864,2635603.7383626,2179.5955075078,2814017.7344082,27.086388638864,0,0
60.983052947853,-18.661088526013,21.890819081908,2635603.7383626,2179.5955075078,2814017.7344082,27.090819081908,0,0
60.983053227226,-18.6647626644,21.895249524952,2635603.7383626,2179.5955075078,2814017.7344082,27.095249524952,0,0
60.9830535066,-18.668436802787,21.899679967997,2635603.7383626,2179.5955075078,2814017.7344082,27.099679967997,0,0
60.983053785973,-18.672110941173,21.904110411041,2635603.7383626,2179.5955075078,2814017.7344082,27.104110411041,0,0
60.983054065346,-18.67578507956,21.908540854085,2635603.7383626,2179.5955075078,2814017.7344082,27.108540854085,0,0
60.98305434472,-18.679459217946,21.91297129713,2635603.7383626,2179.5955075078,2814017.7344082,27.11297129713,0,0
60.983054624093,-18.683133356333,21.917401740174,2635603.7383626,2179.5955075078,2814017.7344082,27.117401740174,0,0
60.983054903466,-18.686807494719,21.921832183218,2635603.7383626,2179.5955075078,2814017.7344082,27.121832183218,0,0
60.98305518284,-18.690481633106,21.926262626263,2635603.7383626,2179.5955075078,2814017.7344082,27.126262626263,0,0
60.983055462213,-18.694155771493,21.930693069307,2635603.7383626,2179.5955075078,2814017.7344082,27.130693069307,0,0
60.983055741586,-18.697829909879,21.935123512351,2635603.7383626,2179.5955075078,2814017.7344082,27.135123512351,0,0
60.98305602096,-18.701504048266,21.939553955396,2635603.7383626,2179.5955075078,2814017.7344082,27.139553955396,0,0
60.983056300333,-18.705178186652,21.94398439844,2635603.7383626,2179.5955075078,2814017.7344082,27.14398439844,0,0
60.983056579706,-18.708852325039,21.948414841484,2635603.7383626,2179.5955075078,2814017.7344082,27.148414841484,0,0
60.98305685908,-18.712526463425,21.952845284528,2635603.7383626,2179.5955075078,2814017.7344082,27.152845284528,0,0
60.983057138453,-18.716200601812,21.957275727573,2635603.7383626,2179.5955075078,2814017.7344082,27.157275727573,0,0
60.983057417826,-18.719874740199,21.961706170617,2635603.7383626,2179.5955075078,2814017.7344082,27.161706170617,0,0
60.9830576972,-18.723548878585,21.966136613661,2635603.7383626,2179.5955075078,2814017.7344082,27.166136613661,0,0
60.983057976573,-18.727223016972,21.970567056706,2635603.7383626,2179.5955075078,2814017.7344082,27.170567056706,0,0
60.983058255946,-18.730897155358,21.97499749975,2635603.7383626,2179.5955075078,2814017.7344082,27.17499749975,0,0
60.98305853532,-18.734571293745,21.979427942794,2635603.7383626,2179.5955075078,2814017.7344082,27.179427942794,0,0
60.983058814693,-18.738245432131,21.983858385839,2635603.7383626,2179.5955075078,2814017.7344082,27.183858385839,0,0
60.983059094066,-18.741919570518,21.988288828883,2635603.7383626,2179.5955075078,2814017.7344082,27.188288828883,0,0
60.98305937344,-18.745593708905,21.992719271927,2635603.7383626,2179.5955075078,2814017.7344082,27.192719271927,0,0
60.983059652813,-18.749267847291,21.997149714971,2635603.7383626,2179.5955075078,2814017.7344082,27.197149714971,0,0
60.983059932186,-18.752941985678,22.001580158016,2635603.7383626,2179.5955075078,2814017.7344082,27.201580158016,0,0
60.98306021156,-18.756616124064,22.00601060106,2635603.7383626,2179.5955075078,2814017.7344082,27.20601060106,0,0
60.983060490933,-18.760290262451,22.010441044104,2635603.7383626,2179.5955075078,2814017.7344082,27.210441044104,0,0
60.983060770306,-18.763964400837,22.014871487149,2635603.7383626,2179.5955075078,2814017.7344082,27.214871487149,0,0
60.98306104968,-18.767638539224,22.019301930193,2635603.7383626,2179.5955075078,2814017.7344082,27.219301930193,0,0
60.983061329053,-18.771312677611,22.023732373237,2635603.7383626,2179.5955075078,2814017.7344082,27.223732373237,0,0
60.983061608426,-18.774986815997,22.028162816282,2635603.7383626,2179.5955075078,2814017.7344082,27.228162816282,0,0
60.9830618878,-18.778660954384,22.032593259326,2635603.7383626,2179.5955075078,2814017.7344082,27.232593259326,0,0
60.983062167173,-18.78233509277,22.03702370237,2635603.7383626,2179.5955075078,2814017.7344082,27.23702370237,0,0
60.983062446546,-18.786009231157,22.041454145415,2635603.7383626,2179.5955075078,2814017.7344082,27.241454145415,0,0
60.98306272592,-18.789683369543,22.045884588459,2635603.7383626,2179.5955075078,2814017.7344082,27.245884588459,0,0
60.983063005293,-18.79335750793,22.050315031503,2635603.7383626,2179.5955075078,2814017.7344082,27.250315031503,0,0
60.983063284666,-18.797031646317,22.054745474547,2635603.7383626,2179.5955075078,2814017.7344082,27.254745474547,0,0
60.98306356404,-18.800705784703,22.059175917592,2635603.7383626,2179.5955075078,2814017.7344082,27.259175917592,0,0
60.983063843413,-18.80437992309,22.063606360636,2635603.7383626,2179.5955075078,2814017.7344082,27.263606360636,0,0
60.983064122786,-18.808054061476,22.06803680368,2635603.7383626,2179.5955075078,2814017.7344082,27.26803680368,0,0
60.98306440216,-18.811728199863,22.072467246725,2635603.7383626,2179.5955075078,2814017.7344082,27.272467246725,0,0
60.983064681533,-18.815402338249,22.076897689769,2635603.7383626,2179.5955075078,2814017.7344082,27.276897689769,0,0
60.983064960907,-18.819076476636,22.081328132813,2635603.7383626,2179.5955075078,2814017.7344082,27.281328132813,0,0
60.98306524028,-18.822750615023,22.085758575858,2635603.7383626,2179.5955075078,2814017.7344082,27.285758575858,0,0
60.983065519653,-18.826424753409,22.090189018902,2635603.7383626,2179.5955075078,2814017.7344082,27.290189018902,0,0
60.983065799027,-18.830098891796,22.094619461946,2635603.7383626,2179.5955075078,2814017.7344082,27.294619461946,0,0
60.9830660784,-18.833773030182,22.09904990499,2635603.7383626,2179.5955075078,2814017.7344082,27.29904990499,0,0
60.983066357773,-18.837447168569,22.103480348035,2635603.7383626,2179.5955075078,2814017.7344082,27.303480348035,0,0
60.983066637147,-18.841121306955,22.107910791079,2635603.7383626,2179.5955075078,2814017.7344082,27.307910791079,0,0
60.98306691652,-18.844795445342,22.112341234123,2635603.7383626,2179.5955075078,2814017.7344082,27.312341234123,0,0
60.983067195893,-18.848469583729,22.116771677168,2635603.7383626,2179.5955075078,2814017.7344082,27.316771677168,0,0
60.983067475267,-18.852143722115,22.121202120212,2635603.7383626,2179.5955075078,2814017.7344082,27.321202120212,0,0
60.98306775464,-18.855817860502,22.125632563256,2635603.7383626,2179.5955075078,2814017.7344082,27.325632563256,0,0
60.983068034013,-18.859491998888,22.130063006301,2635603.7383626,2179.5955075078,2814017.7344082,27.330063006301,0,0
60.983068313387,-18.863166137275,22.134493449345,2635603.7383626,2179.5955075078,2814017.7344082,27.334493449345,0,0
60.98306859276,-18.866840275661,22.138923892389,2635603.7383626,2179.5955075078,2814017.7344082,27.338923892389,0,0
60.983068872133,-18.870514414048,22.143354335434,2635603.7383626,2179.5955075078,2814017.7344082,27.343354335434,0,0
60.983069151507,-18.874188552435,22.147784778478,2635603.7383626,2179.5955075078,2814017.7344082,27.347784778478,0,0
60.98306943088,-18.877862690821,22.152215221522,2635603.7383626,2179.5955075078,2814017.7344082,27.352215221522,0,0
60.983069710253,-18.881536829208,22.156645664566,2635603.7383626,2179.5955075078,2814017.7344082,27.356645664566,0,0
60.983069989627,-18.885210967594,22.161076107611,2635603.7383626,2179.5955075078,2814017.7344082,27.361076107611,0,0
60.983070269,-18.888885105981,22.165506550655,2635603.7383626,2179.5955075078,2814017.7344082,27.365506550655,0,0
60.983070548373,-18.892559244367,22.169936993699,2635603.7383626,2179.5955075078,2814017.7344082,27.369936993699,0,0
60.983070827747,-18.896233382754,22.174367436744,2635603.7383626,2179.5955075078,2814017.7344082,27.374367436744,0,0
60.98307110712,-18.899907521141,22.178797879788,2635603.7383626,2179.5955075078,2814017.7344082,27.378797879788,0,0
60.983071386493,-18.903581659527,22.183228322832,2635603.7383626,2179.5955075078,2814017.7344082,27.383228322832,0,0
60.983071665867,-18.907255797914,22.187658765877,2635603.7383626,2179.5955075078,2814017.7344082,27.387658765877,0,0
60.98307194524,-18.9109299363,22.192089208921,2635603.7383626,2179.5955075078,2814017.7344082,27.392089208921,0,0
60.983072224613,-18.914604074687,22.196519651965,2635603.7383626,2179.5955075078,2814017.7344082,27.396519651965,0,0
60.983072503987,-18.918278213073,22.200950095009,2635603.7383626,2179.5955075078,2814017.7344082,27.400950095009,0,0
60.98307278336,-18.92195235146,22.205380538054,2635603.7383626,2179.5955075078,2814017.7344082,27.405380538054,0,0
60.983073062733,-18.925626489847,22.209810981098,2635603.7383626,2179.5955075078,2814017.7344082,27.409810981098,0,0
60.983073342107,-18.929300628233,22.214241424142,2635603.7383626,2179.5955075078,2814017.7344082,27.414241424142,0,0
60.98307362148,-18.93297476662,22.218671867187,2635603.7383626,2179.5955075078,2814017.7344082,27.418671867187,0,0
60.983073900853,-18.936648905006,22.223102310231,2635603.7383626,2179.5955075078,2814017.7344082,27.423102310231,0,0
60.983074180227,-18.940323043393,22.227532753275,2635603.7383626,2179.5955075078,2814017.7344082,27.427532753275,0,0
60.9830744596,-18.943997181779,22.23196319632,2635603.7383626,2179.5955075078,2814017.7344082,27.43196319632,0,0
60.983074738973,-18.947671320166,22.236393639364,2635603.7383626,2179.5955075078,2814017.7344082,27.436393639364,0,0
60.983075018347,-18.951345458553,22.240824082408,2635603.7383626,2179.5955075078,2814017.7344082,27.440824082408,0,0
60.98307529772,-18.955019596939,22.245254525453,2635603.7383626,2179.5955075078,2814017.7344082,27.445254525453,0,0
60.983075577093,-18.958693735326,22.249684968497,2635603.7383626,2179.5955075078,2814017.7344082,27.449684968497,0,0
60.983075856467,-18.962367873712,22.254115411541,2635603.7383626,2179.5955075078,2814017.7344082,27.454115411541,0,0
60.98307613584,-18.966042012099,22.258545854585,2635603.7383626,2179.5955075078,2814017.7344082,27.458545854585,0,0
60.983076415213,-18.969716150485,22.26297629763,2635603.7383626,2179.5955075078,2814017.7344082,27.46297629763,0,0
60.983076694587,-18.973390288872,22.267406740674,2635603.7383626,2179.5955075078,2814017.7344082,27.467406740674,0,0
60.98307697396,-18.977064427259,22.271837183718,2635603.7383626,2179.5955075078,2814017.7344082,27.471837183718,0,0
60.983077253333,-18.980738565645,22.276267626763,2635603.7383626,2179.5955075078,2814017.7344082,27.476267626763,0,0
60.983077532707,-18.984412704032,22.280698069807,2635603.7383626,2179.5955075078,2814017.7344082,27.480698069807,0,0
60.98307781208,-18.988086842418,22.285128512851,2635603.7383626,2179.5955075078,2814017.7344082,27.485128512851,0,0
60.983078091454,-18.991760980805,22.289558955896,2635603.7383626,2179.5955075078,2814017.7344082,27.489558955896,0,0
60.983078370827,-18.995435119191,22.29398939894,2635603.7383626,2179.5955075078,2814017.7344082,27.49398939894,0,0
60.9830786502,-18.999109257578,22.298419841984,2635603.7383626,2179.5955075078,2814017.7344082,27.498419841984,0,0
60.983078929574,-19.002783395965,22.302850285029,2635603.7383626,2179.5955075078,2814017.7344082,27.502850285029,0,0
60.983079208947,-19.006457534351,22.307280728073,2635603.7383626,2179.5955075078,2814017.7344082,27.507280728073,0,0
60.98307948832,-19.010131672738,22.311711171117,2635603.7383626,2179.5955075078,2814017.7344082,27.511711171117,0,0
60.983079767694,-19.013805811124,22.316141614161,2635603.7383626,2179.5955075078,2814017.7344082,27.516141614161,0,0
60.983080047067,-19.017479949511,22.320572057206,2635603.7383626,2179.5955075078,2814017.7344082,27.520572057206,0,0
60.98308032644,-19.021154087897,22.32500250025,2635603.7383626,2179.5955075078,2814017.7344082,27.52500250025,0,0
60.983080605814,-19.024828226284,22.329432943294,2635603.7383626,2179.5955075078,2814017.7344082,27.529432943294,0,0
60.983080885187,-19.028502364671,22.333863386339,2635603.7383626,2179.5955075078,2814017.7344082,27.533863386339,0,0
60.98308116456,-19.032176503057,22.338293829383,2635603.7383626,2179.5955075078,2814017.7344082,27.538293829383,0,0
60.983081443934,-19.035850641444,22.342724272427,2635603.7383626,2179.5955075078,2814017.7344082,27.542724272427,0,0
60.983081723307,-19.03952477983,22.347154715472,2635603.7383626,2179.5955075078,2814017.7344082,27.547154715472,0,0
60.98308200268,-19.043198918217,22.351585158516,2635603.7383626,2179.5955075078,2814017.7344082,27.551585158516,0,0
60.983082282054,-19.046873056603,22.35601560156,2635603.7383626,2179.5955075078,2814017.7344082,27.55601560156,0,0
60.983082561427,-19.05054719499,22.360446044604,2635603.7383626,2179.5955075078,2814017.7344082,27.560446044604,0,0
60.9830828408,-19.054221333376,22.364876487649,2635603.7383626,2179.5955075078,2814017.7344082,27.564876487649,0,0
60.983083120174,-19.057895471763,22.369306930693,2635603.7383626,2179.5955075078,2814017.7344082,27.569306930693,0,0
60.983083399547,-19.06156961015,22.373737373737,2635603.7383626,2179.5955075078,2814017.7344082,27.573737373737,0,0
60.98308367892,-19.065243748536,22.378167816782,2635603.7383626,2179.5955075078,2814017.7344082,27.578167816782,0,0
60.983083958294,-19.068917886923,22.382598259826,2635603.7383626,2179.5955075078,2814017.7344082,27.582598259826,0,0
60.983084237667,-19.072592025309,22.38702870287,2635603.7383626,2179.5955075078,2814017.7344082,27.58702870287,0,0
60.98308451704,-19.076266163696,22.391459145915,2635603.7383626,2179.5955075078,2814017.7344082,27.591459145915,0,0
60.983084796414,-19.079940302082,22.395889588959,2635603.7383626,2179.5955075078,2814017.7344082,27.595889588959,0,0
60.983085075787,-19.083614440469,22.400320032003,2635603.7383626,2179.5955075078,2814017.7344082,27.600320032003,0,0
60.98308535516,-19.087288578856,22.404750475048,2635603.7383626,2179.5955075078,2814017.7344082,27.604750475048,0,0
60.983085634534,-19.090962717242,22.409180918092,2635603.7383626,2179.5955075078,2814017.7344082,27.609180918092,0,0
60.983085913907,-19.094636855629,22.413611361136,2635603.7383626,2179.5955075078,2814017.7344082,27.613611361136,0,0
60.98308619328,-19.098310994015,22.41804180418,2635603.7383626,2179.5955075078,2814017.7344082,27.61804180418,0,0
60.983086472654,-19.101985132402,22.422472247225,2635603.7383626,2179.5955075078,2814017.7344082,27.622472247225,0,0
60.983086752027,-19.105659270788,22.426902690269,2635603.7383626,2179.5955075078,2814017.7344082,27.626902690269,0,0
60.9830870314,-19.109333409175,22.431333133313,2635603.7383626,2179.5955075078,2814017.7344082,27.631333133313,0,0
60.983087310774,-19.113007547562,22.435763576358,2635603.7383626,2179.5955075078,2814017.7344082,27.635763576358,0,0
60.983087590147,-19.116681685948,22.440194019402,2635603.7383626,2179.5955075078,2814017.7344082,27.640194019402,0,0
60.98308786952,-19.120355824335,22.444624462446,2635603.7383626,2179.5955075078,2814017.7344082,27.644624462446,0,0
60.983088148894,-19.124029962721,22.449054905491,2635603.7383626,2179.5955075078,2814017.7344082,27.649054905491,0,0
60.983088428267,-19.127704101108,22.453485348535,2635603.7383626,2179.5955075078,2814017.7344082,27.653485348535,0,0
60.98308870764,-19.131378239494,22.457915791579,2635603.7383626,2179.5955075078,2814017.7344082,27.657915791579,0,0
60.983088987014,-19.135052377881,22.462346234623,2635603.7383626,2179.5955075078,2814017.7344082,27.662346234623,0,0
60.983089266387,-19.138726516268,22.466776677668,2635603.7383626,2179.5955075078,2814017.7344082,27.666776677668,0,0
60.98308954576,-19.142400654654,22.471207120712,2635603.7383626,2179.5955075078,2814017.7344082,27.671207120712,0,0
60.983089825134,-19.146074793041,22.475637563756,2635603.7383626,2179.5955075078,2814017.7344082,27.675637563756,0,0
60.983090104507,-19.149748931427,22.480068006801,2635603.7383626,2179.5955075078,2814017.7344082,27.680068006801,0,0
60.983090383881,-19.153423069814,22.484498449845,2635603.7383626,2179.5955075078,2814017.7344082,27.684498449845,0,0
60.983090663254,-19.1570972082,22.488928892889,2635603.7383626,2179.5955075078,2814017.7344082,27.688928892889,0,0
60.983090942627,-19.160771346587,22.493359335934,2635603.7383626,2179.5955075078,2814017.7344082,27.693359335934,0,0
60.983091222001,-19.164445484974,22.497789778978,2635603.7383626,2179.5955075078,2814017.7344082,27.697789778978,0,0
60.983091501374,-19.16811962336,22.502220222022,2635603.7383626,2179.5955075078,2814017.7344082,27.702220222022,0,0
60.983091780747,-19.171793761747,22.506650665067,2635603.7383626,2179.5955075078,2814017.7344082,27.706650665067,0,0
60.983092060121,-19.175467900133,22.511081108111,2635603.7383626,2179.5955075078,2814017.7344082,27.711081108111,0,0
60.983092339494,-19.17914203852,22.515511551155,2635603.7383626,2179.5955075078,2814017.7344082,27.715511551155,0,0
60.983092618867,-19.182816176906,22.519941994199,2635603.7383626,2179.5955075078,2814017.7344082,27.719941994199,0,0
60.983092898241,-19.186490315293,22.524372437244,2635603.7383626,2179.5955075078,2814017.7344082,27.724372437244,0,0
60.983093177614,-19.19016445368,22.528802880288,2635603.7383626,2179.5955075078,2814017.7344082,27.728802880288,0,0
60.983093456987,-19.193838592066,22.533233323332,2635603.7383626,2179.5955075078,2814017.7344082,27.733233323332,0,0
60.983093736361,-19.197512730453,22.537663766377,2635603.7383626,2179.5955075078,2814017.7344082,27.737663766377,0,0
60.983094015734,-19.201186868839,22.542094209421,2635603.7383626,2179.5955075078,2814017.7344082,27.742094209421,0,0
60.983094295107,-19.204861007226,22.546524652465,2635603.7383626,2179.5955075078,2814017.7344082,27.746524652465,0,0
60.983094574481,-19.208535145612,22.55095509551,2635603.7383626,2179.5955075078,2814017.7344082,27.75095509551,0,0
60.983094853854,-19.212209283999,22.555385538554,2635603.7383626,2179.5955075078,2814017.7344082,27.755385538554,0,0
60.983095133227,-19.215883422386,22.559815981598,2635603.7383626,2179.5955075078,2814017.7344082,27.759815981598,0,0
60.983095412601,-19.219557560772,22.564246424642,2635603.7383626,2179.5955075078,2814017.7344082,27.764246424642,0,0
60.983095692377,-19.223231698674,22.568676867687,2643922.4832317,4646.4658048763,2811431.0769028,27.768676867687,0,0
60.983095972484,-19.226905836179,22.573107310731,2643922.4832317,4646.4658048763,2811431.0769028,27.773107310731,0,0
60.98309625259,-19.230579973684,22.577537753775,2643922.4832317,4646.4658048763,2811431.0769028,27.777537753775,0,0
60.983096532697,-19.234254111189,22.58196819682,2643922.4832317,4646.4658048763,2811431.0769028,27.78196819682,0,0
60.983096812804,-19.237928248694,22.586398639864,2643922.4832317,4646.4658048763,2811431.0769028,27.786398639864,0,0
60.98309709291,-19.241602386199,22.590829082908,2643922.4832317,4646.4658048763,2811431.0769028,27.790829082908,0,0
60.983097373017,-19.245276523704,22.595259525953,2643922.4832317,4646.4658048763,2811431.0769028,27.795259525953,0,0
60.983097653124,-19.248950661209,22.599689968997,2643922.4832317,4646.4658048763,2811431.0769028,27.799689968997,0,0
60.98309793323,-19.252624798714,22.604120412041,2643922.4832317,4646.4658048763,2811431.0769028,27.804120412041,0,0
60.983098213337,-19.256298936219,22.608550855086,2643922.4832317,4646.4658048763,2811431.0769028,27.808550855086,0,0
60.983098493444,-19.259973073724,22.61298129813,2643922.4832317,4646.4658048763,2811431.0769028,27.81298129813,0,0
60.983098773551,-19.263647211229,22.617411741174,2643922.4832317,4646.4658048763,2811431.0769028,27.817411741174,0,0
60.983099053657,-19.267321348734,22.621842184218,2643922.4832317,4646.4658048763,2811431.0769028,27.821842184218,0,0
60.983099333764,-19.270995486239,22.626272627263,2643922.4832317,4646.4658048763,2811431.0769028,27.826272627263,0,0
60.983099613871,-19.274669623744,22.630703070307,2643922.4832317,4646.4658048763,2811431.0769028,27.830703070307,0,0
60.983099893977,-19.278343761249,22.635133513351,2643922.4832317,4646.4658048763,2811431.0769028,27.835133513351,0,0
60.983100174084,-19.282017898754,22.639563956396,2643922.4832317,4646.4658048763,2811431.0769028,27.839563956396,0,0
60.983100454191,-19.285692036259,22.64399439944,2643922.4832317,4646.4658048763,2811431.0769028,27.84399439944,0,0
60.983100734297,-19.289366173764,22.648424842484,2643922.4832317,4646.4658048763,2811431.0769028,27.848424842484,0,0
60.983101014404,-19.293040311269,22.652855285529,2643922.4832317,4646.4658048763,2811431.0769028,27.852855285529,0,0
60.983101294511,-19.296714448774,22.657285728573,2643922.4832317,4646.4658048763,2811431.0769028,27.857285728573,0,0
60.983101574617,-19.300388586279,22.661716171617,2643922.4832317,4646.4658048763,2811431.0769028,27.861716171617,0,0
60.983101854724,-19.304062723784,22.666146614661,2643922.4832317,4646.4658048763,2811431.0769028,27.866146614661,0,0
60.983102134831,-19.307736861289,22.670577057706,2643922.4832317,4646.4658048763,2811431.0769028,27.870577057706,0,0
60.983102414937,-19.311410998794,22.67500750075,2643922.4832317,4646.4658048763,2811431.0769028,27.87500750075,0,0
60.983102695044,-19.315085136299,22.679437943794,2643922.4832317,4646.4658048763,2811431.0769028,27.879437943794,0,0
60.983102975151,-19.318759273804,22.683868386839,2643922.4832317,4646.4658048763,2811431.0769028,27.883868386839,0,0
60.983103255257,-19.322433411309,22.688298829883,2643922.4832317,4646.4658048763,2811431.0769028,27.888298829883,0,0
60.983103535364,-19.326107548814,22.692729272927,2643922.4832317,4646.4658048763,2811431.0769028,27.892729272927,0,0
60.983103815471,-19.329781686319,22.697159715972,2643922.4832317,4646.4658048763,2811431.0769028,27.897159715972,0,0
60.983104095577,-19.333455823824,22.701590159016,2643922.4832317,4646.4658048763,2811431.0769028,27.901590159016,0,0
60.983104375684,-19.337129961329,22.70602060206,2643922.4832317,4646.4658048763,2811431.0769028,27.90602060206,0,0
60.983104655791,-19.340804098834,22.710451045105,2643922.4832317,4646.4658048763,2811431.0769028,27.910451045105,0,0
60.983104935897,-19.344478236339,22.714881488149,2643922.4832317,4646.4658048763,2811431.0769028,27.914881488149,0,0
60.983105216004,-19.348152373844,22.719311931193,2643922.4832317,4646.4658048763,2811431.0769028,27.919311931193,0,0
60.983105496111,-19.351826511349,22.723742374237,2643922.4832317,4646.4658048763,2811431.0769028,27.923742374237,0,0
60.983105776217,-19.355500648854,22.728172817282,2643922.4832317,4646.4658048763,2811431.0769028,27.928172817282,0,0
60.983106056324,-19.359174786359,22.732603260326,2643922.4832317,4646.4658048763,2811431.0769028,27.932603260326,0,0
60.983106336431,-19.362848923864,22.73703370337,2643922.4832317,4646.4658048763,2811431.0769028,27.93703370337,0,0
60.983106616537,-19.366523061369,22.741464146415,2643922.4832317,4646.4658048763,2811431.0769028,27.941464146415,0,0
60.983106896644,-19.370197198874,22.745894589459,2643922.4832317,4646.4658048763,2811431.0769028,27.945894589459,0,0
60.983107176751,-19.373871336379,22.750325032503,2643922.4832317,4646.4658048763,2811431.0769028,27.950325032503,0,0
60.983107456858,-19.377545473884,22.754755475548,2643922.4832317,4646.4658048763,2811431.0769028,27.954755475548,0,0
60.983107736964,-19.381219611389,22.759185918592,2643922.4832317,4646.4658048763,2811431.0769028,27.959185918592,0,0
60.983108017071,-19.384893748894,22.763616361636,2643922.4832317,4646.4658048763,2811431.0769028,27.963616361636,0,0
60.983108297178,-19.388567886399,22.76804680468,2643922.4832317,4646.4658048763,2811431.0769028,27.96804680468,0,0
60.983108577284,-19.392242023904,22.772477247725,2643922.4832317,4646.4658048763,2811431.0769028,27.972477247725,0,0
60.983108857391,-19.395916161409,22.776907690769,2643922.4832317,4646.4658048763,2811431.0769028,27.976907690769,0,0
60.983109137498,-19.399590298914,22.781338133813,2643922.4832317,4646.4658048763,2811431.0769028,27.981338133813,0,0
60.983109417604,-19.403264436419,22.785768576858,2643922.4832317,4646.4658048763,2811431.0769028,27.985768576858,0,0
60.983109697711,-19.406938573924,22.790199019902,2643922.4832317,4646.4658048763,2811431.0769028,27.990199019902,0,0
60.983109977818,-19.410612711429,22.794629462946,2643922.4832317,4646.4658048763,2811431.0769028,27.994629462946,0,0
60.983110257924,-19.414286848934,22.799059905991,2643922.4832317,4646.4658048763,2811431.0769028,27.999059905991,0,0
60.983110538031,-19.417960986439,22.803490349035,2643922.4832317,4646.4658048763,2811431.0769028,28.003490349035,0,0
60.983110818138,-19.421635123944,22.807920792079,2643922.4832317,4646.4658048763,2811431.0769028,28.007920792079,0,0
60.983111098244,-19.425309261449,22.812351235124,2643922.4832317,4646.4658048763,2811431.0769028,28.012351235124,0,0
60.983111378351,-19.428983398954,22.816781678168,2643922.4832317,4646.4658048763,2811431.0769028,28.016781678168,0,0
60.983111658458,-19.432657536459,22.821212121212,2643922.4832317,4646.4658048763,2811431.0769028,28.021212121212,0,0
60.983111938564,-19.436331673964,22.825642564256,2643922.4832317,4646.4658048763,2811431.0769028,28.025642564256,0,0
60.983112218859,-19.440005812007,22.830073007301,2645769.4865472,994.31556113815,2803685.0444196,28.030073007301,0,0
60.983112499319,-19.443679950523,22.834503450345,2645769.4865472,994.31556113815,2803685.0444196,28.034503450345,0,0
60.98311277978,-19.44735408904,22.838933893389,2645769.4865472,994.31556113815,2803685.0444196,28.038933893389,0,0
60.98311306024,-19.451028227556,22.843364336434,2645769.4865472,994.31556113815,2803685.0444196,28.043364336434,0,0
60.983113340701,-19.454702366073,22.847794779478,2645769.4865472,994.31556113815,2803685.0444196,28.047794779478,0,0
60.983113621161,-19.458376504589,22.852225222522,2645769.4865472,994.31556113815,2803685.0444196,28.052225222522,0,0
60.983113901622,-19.462050643106,22.856655665567,2645769.4865472,994.31556113815,2803685.0444196,28.056655665567,0,0
60.983114182082,-19.465724781622,22.861086108611,2645769.4865472,994.31556113815,2803685.0444196,28.061086108611,0,0
60.983114462543,-19.469398920139,22.865516551655,2645769.4865472,994.31556113815,2803685.0444196,28.065516551655,0,0
60.983114743003,-19.473073058655,22.869946994699,2645769.4865472,994.31556113815,2803685.0444196,28.069946994699,0,0
60.983115023463,-19.476747197172,22.874377437744,2645769.4865472,994.31556113815,2803685.0444196,28.074377437744,0,0
60.983115303924,-19.480421335688,22.878807880788,2645769.4865472,994.31556113815,2803685.0444196,28.078807880788,0,0
60.983115584384,-19.484095474205,22.883238323832,2645769.4865472,994.31556113815,2803685.0444196,28.083238323832,0,0
60.983115864845,-19.487769612721,22.887668766877,2645769.4865472,994.31556113815,2803685.0444196,28.087668766877,0,0
60.983116145305,-19.491443751238,22.892099209921,2645769.4865472,994.31556113815,2803685.0444196,28.092099209921,0,0
60.983116425766,-19.495117889754,22.896529652965,2645769.4865472,994.31556113815,2803685.0444196,28.096529652965,0,0
60.983116706226,-19.498792028271,22.90096009601,2645769.4865472,994.31556113815,2803685.0444196,28.10096009601,0,0
60.983116986687,-19.502466166787,22.905390539054,2645769.4865472,994.31556113815,2803685.0444196,28.105390539054,0,0
60.983117267147,-19.506140305304,22.909820982098,2645769.4865472,994.31556113815,2803685.0444196,28.109820982098,0,0
60.983117547607,-19.50981444382,22.914251425143,2645769.4865472,994.31556113815,2803685.0444196,28.114251425143,0,0
60.983117828068,-19.513488582337,22.918681868187,2645769.4865472,994.31556113815,2803685.0444196,28.118681868187,0,0
60.983118108528,-19.517162720854,22.923112311231,2645769.4865472,994.31556113815,2803685.0444196,28.123112311231,0,0
60.983118388989,-19.52083685937,22.927542754275,2645769.4865472,994.31556113815,2803685.0444196,28.127542754275,0,0
60.983118669449,-19.524510997887,22.93197319732,2645769.4865472,994.31556113815,2803685.0444196,28.13197319732,0,0
60.98311894991,-19.528185136403,22.936403640364,2645769.4865472,994.31556113815,2803685.0444196,28.136403640364,0,0
60.98311923037,-19.53185927492,22.940834083408,2645769.4865472,994.31556113815,2803685.0444196,28.140834083408,0,0
60.983119510831,-19.535533413436,22.945264526453,2645769.4865472,994.31556113815,2803685.0444196,28.145264526453,0,0
60.983119791291,-19.539207551953,22.949694969497,2645769.4865472,994.31556113815,2803685.0444196,28.149694969497,0,0
60.983120071751,-19.542881690469,22.954125412541,2645769.4865472,994.31556113815,2803685.0444196,28.154125412541,0,0
60.983120352212,-19.546555828986,22.958555855586,2645769.4865472,994.31556113815,2803685.0444196,28.158555855586,0,0
60.983120632672,-19.550229967502,22.96298629863,2645769.4865472,994.31556113815,2803685.0444196,28.16298629863,0,0
60.983120913133,-19.553904106019,22.967416741674,2645769.4865472,994.31556113815,2803685.0444196,28.167416741674,0,0
60.983121193593,-19.557578244535,22.971847184718,2645769.4865472,994.31556113815,2803685.0444196,28.171847184718,0,0
60.983121474054,-19.561252383052,22.976277627763,2645769.4865472,994.31556113815,2803685.0444196,28.176277627763,0,0
60.983121754514,-19.564926521568,22.980708070807,2645769.4865472,994.31556113815,2803685.0444196,28.180708070807,0,0
60.983122034975,-19.568600660085,22.985138513851,2645769.4865472,994.31556113815,2803685.0444196,28.185138513851,0,0
60.983122315435,-19.572274798601,22.989568956896,2645769.4865472,994.31556113815,2803685.0444196,28.189568956896,0,0
60.983122595896,-19.575948937118,22.99399939994,2645769.4865472,994.31556113815,2803685.0444196,28.19399939994,0,0
60.983122876356,-19.579623075634,22.998429842984,2645769.4865472,994.31556113815,2803685.0444196,28.198429842984,0,0
60.983123156816,-19.583297214151,23.002860286029,2645769.4865472,994.31556113815,2803685.0444196,28.202860286029,0,0
60.983123437277,-19.586971352667,23.007290729073,2645769.4865472,994.31556113815,2803685.0444196,28.207290729073,0,0
60.983123717737,-19.590645491184,23.011721172117,2645769.4865472,994.31556113815,2803685.0444196,28.211721172117,0,0
60.983123998198,-19.5943196297,23.016151615162,2645769.4865472,994.31556113815,2803685.0444196,28.216151615162,0,0
60.983124278658,-19.597993768217,23.020582058206,2645769.4865472,994.31556113815,2803685.0444196,28.220582058206,0,0
60.983124559119,-19.601667906733,23.02501250125,2645769.4865472,994.31556113815,2803685.0444196,28.22501250125,0,0
60.983124839579,-19.60534204525,23.029442944294,2645769.4865472,994.31556113815,2803685.0444196,28.229442944294,0,0
60.98312512004,-19.609016183766,23.033873387339,2645769.4865472,994.31556113815,2803685.0444196,28.233873387339,0,0
60.9831254005,-19.612690322283,23.038303830383,2645769.4865472,994.31556113815,2803685.0444196,28.238303830383,0,0
60.98312568096,-19.616364460799,23.042734273427,2645769.4865472,994.31556113815,2803685.0444196,28.242734273427,0,0
60.983125961421,-19.620038599316,23.047164716472,2645769.4865472,994.31556113815,2803685.0444196,28.247164716472,0,0
60.983126241881,-19.623712737832,23.051595159516,2645769.4865472,994.31556113815,2803685.0444196,28.251595159516,0,0
60.983126522342,-19.627386876349,23.05602560256,2645769.4865472,994.31556113815,2803685.0444196,28.25602560256,0,0
60.983126802802,-19.631061014865,23.060456045605,2645769.4865472,994.31556113815,2803685.0444196,28.260456045605,0,0
60.983127083263,-19.634735153382,23.064886488649,2645769.4865472,994.31556113815,2803685.0444196,28.264886488649,0,0
60.983127363723,-19.638409291898,23.069316931693,2645769.4865472,994.31556113815,2803685.0444196,28.269316931693,0,0
60.983127644184,-19.642083430415,23.073747374737,2645769.4865472,994.31556113815,2803685.0444196,28.273747374737,0,0
60.983127924644,-19.645757568932,23.078177817782,2645769.4865472,994.31556113815,2803685.0444196,28.278177817782,0,0
60.983128205104,-19.649431707448,23.082608260826,2645769.4865472,994.31556113815,2803685.0444196,28.282608260826,0,0
60.983128485565,-19.653105845965,23.08703870387,2645769.4865472,994.31556113815,2803685.0444196,28.28703870387,0,0
60.983128766025,-19.656779984481,23.091469146915,2645769.4865472,994.31556113815,2803685.0444196,28.291469146915,0,0
60.983129046486,-19.660454122998,23.095899589959,2645769.4865472,994.31556113815,2803685.0444196,28.295899589959,0,0
60.983129326946,-19.664128261514,23.100330033003,2645769.4865472,994.31556113815,2803685.0444196,28.300330033003,0,0
60.983129607407,-19.667802400031,23.104760476048,2645769.4865472,994.31556113815,2803685.0444196,28.304760476048,0,0
60.983129887867,-19.671476538547,23.109190919092,2645769.4865472,994.31556113815,2803685.0444196,28.309190919092,0,0
60.983130168328,-19.675150677064,23.113621362136,2645769.4865472,994.31556113815,2803685.0444196,28.313621362136,0,0
60.983130448788,-19.67882481558,23.118051805181,2645769.4865472,994.31556113815,2803685.0444196,28.318051805181,0,0
60.983130729249,-19.682498954097,23.122482248225,2645769.4865472,994.31556113815,2803685.0444196,28.322482248225,0,0
60.983131009709,-19.686173092613,23.126912691269,2645769.4865472,994.31556113815,2803685.0444196,28.326912691269,0,0
60.983131290169,-19.68984723113,23.131343134313,2645769.4865472,994.31556113815,2803685.0444196,28.331343134313,0,0
60.98313157063,-19.693521369646,23.135773577358,2645769.4865472,994.31556113815,2803685.0444196,28.335773577358,0,0
60.98313185109,-19.697195508163,23.140204020402,2645769.4865472,994.31556113815,2803685.0444196,28.340204020402,0,0
60.983132131551,-19.700869646679,23.144634463446,2645769.4865472,994.31556113815,2803685.0444196,28.344634463446,0,0
60.983132412011,-19.704543785196,23.149064906491,2645769.4865472,994.31556113815,2803685.0444196,28.349064906491,0,0
60.983132692472,-19.708217923712,23.153495349535,2645769.4865472,994.31556113815,2803685.0444196,28.353495349535,0,0
60.983132972932,-19.711892062229,23.157925792579,2645769.4865472,994.31556113815,2803685.0444196,28.357925792579,0,0
60.983133253393,-19.715566200745,23.162356235624,2645769.4865472,994.31556113815,2803685.0444196,28.362356235624,0,0
60.983133533853,-19.719240339262,23.166786678668,2645769.4865472,994.31556113815,2803685.0444196,28.366786678668,0,0
60.983133814313,-19.722914477778,23.171217121712,2645769.4865472,994.31556113815,2803685.0444196,28.371217121712,0,0
60.983134094774,-19.726588616295,23.175647564756,2645769.4865472,994.31556113815,2803685.0444196,28.375647564756,0,0
60.983134375234,-19.730262754811,23.180078007801,2645769.4865472,994.31556113815,2803685.0444196,28.380078007801,0,0
60.983134655695,-19.733936893328,23.184508450845,2645769.4865472,994.31556113815,2803685.0444196,28.384508450845,0,0
60.983134936155,-19.737611031844,23.188938893889,2645769.4865472,994.31556113815,2803685.0444196,28.388938893889,0,0
60.983135216616,-19.741285170361,23.193369336934,2645769.4865472,994.31556113815,2803685.0444196,28.393369336934,0,0
60.983135497076,-19.744959308877,23.197799779978,2645769.4865472,994.31556113815,2803685.0444196,28.397799779978,0,0
60.983135777537,-19.748633447394,23.202230223022,2645769.4865472,994.31556113815,2803685.0444196,28.402230223022,0,0
60.983136057997,-19.75230758591,23.206660666067,2645769.4865472,994.31556113815,2803685.0444196,28.406660666067,0,0
60.983136338457,-19.755981724427,23.211091109111,2645769.4865472,994.31556113815,2803685.0444196,28.411091109111,0,0
60.983136618918,-19.759655862943,23.215521552155,2645769.4865472,994.31556113815,2803685.0444196,28.415521552155,0,0
60.983136899378,-19.76333000146,23.2199519952,2645769.4865472,994.31556113815,2803685.0444196,28.4199519952,0,0
60.983137179839,-19.767004139976,23.224382438244,2645769.4865472,994.31556113815,2803685.0444196,28.424382438244,0,0
60.983137460299,-19.770678278493,23.228812881288,2645769.4865472,994.31556113815,2803685.0444196,28.428812881288,0,0
60.98313774076,-19.774352417009,23.233243324332,2645769.4865472,994.31556113815,2803685.0444196,28.433243324332,0,0
60.98313802122,-19.778026555526,23.237673767377,2645769.4865472,994.31556113815,2803685.0444196,28.437673767377,0,0
60.983138301681,-19.781700694043,23.242104210421,2645769.4865472,994.31556113815,2803685.0444196,28.442104210421,0,0
60.983138582141,-19.785374832559,23.246534653465,2645769.4865472,994.31556113815,2803685.0444196,28.446534653465,0,0
60.983138862602,-19.789048971076,23.25096509651,2645769.4865472,994.31556113815,2803685.0444196,28.45096509651,0,0
60.983139143062,-19.792723109592,23.255395539554,2645769.4865472,994.31556113815,2803685.0444196,28.455395539554,0,0
60.983139423522,-19.796397248109,23.259825982598,2645769.4865472,994.31556113815,2803685.0444196,28.459825982598,0,0
60.983139703983,-19.800071386625,23.264256425643,2645769.4865472,994.31556113815,2803685.0444196,28.464256425643,0,0
60.983139984443,-19.803745525142,23.268686868687,2645769.4865472,994.31556113815,2803685.0444196,28.468686868687,0,0
60.983140264904,-19.807419663658,23.273117311731,2645769.4865472,994.31556113815,2803685.0444196,28.473117311731,0,0
60.983140545364,-19.811093802175,23.277547754775,2645769.4865472,994.31556113815,2803685.0444196,28.477547754775,0,0
60.983140825825,-19.814767940691,23.28197819782,2645769.4865472,994.31556113815,2803685.0444196,28.48197819782,0,0
60.983141106285,-19.818442079208,23.286408640864,2645769.4865472,994.31556113815,2803685.0444196,28.486408640864,0,0
60.983141386746,-19.822116217724,23.290839083908,2645769.4865472,994.31556113815,2803685.0444196,28.490839083908,0,0
60.983141667206,-19.825790356241,23.295269526953,2645769.4865472,994.31556113815,2803685.0444196,28.495269526953,0,0
60.983141947666,-19.829464494757,23.299699969997,2645769.4865472,994.31556113815,2803685.0444196,28.499699969997,0,0
60.983142228127,-19.833138633274,23.304130413041,2645769.4865472,994.31556113815,2803685.0444196,28.504130413041,0,0
60.983142508587,-19.83681277179,23.308560856086,2645769.4865472,994.31556113815,2803685.0444196,28.508560856086,0,0
60.983142789048,-19.840486910307,23.31299129913,2645769.4865472,994.31556113815,2803685.0444196,28.51299129913,0,0
60.983143069508,-19.844161048823,23.317421742174,2645769.4865472,994.31556113815,2803685.0444196,28.517421742174,0,0
60.983143349969,-19.84783518734,23.321852185219,2645769.4865472,994.31556113815,2803685.0444196,28.521852185219,0,0
60.983143630429,-19.851509325856,23.326282628263,2645769.4865472,994.31556113815,2803685.0444196,28.526282628263,0,0
60.98314391089,-19.855183464373,23.330713071307,2645769.4865472,994.31556113815,2803685.0444196,28.530713071307,0,0
60.98314419135,-19.858857602889,23.335143514351,2645769.4865472,994.31556113815,2803685.0444196,28.535143514351,0,0
60.98314447181,-19.862531741406,23.339573957396,2645769.4865472,994.31556113815,2803685.0444196,28.539573957396,0,0
60.983144752271,-19.866205879922,23.34400440044,2645769.4865472,994.31556113815,2803685.0444196,28.54400440044,0,0
60.983145032731,-19.869880018439,23.348434843484,2645769.4865472,994.31556113815,2803685.0444196,28.548434843484,0,0
60.983145313192,-19.873554156955,23.352865286529,2645769.4865472,994.31556113815,2803685.0444196,28.552865286529,0,0
60.983145593652,-19.877228295472,23.357295729573,2645769.4865472,994.31556113815,2803685.0444196,28.557295729573,0,0
60.983145874113,-19.880902433988,23.361726172617,2645769.4865472,994.31556113815,2803685.0444196,28.561726172617,0,0
60.983146154573,-19.884576572505,23.366156615662,2645769.4865472,994.31556113815,2803685.0444196,28.566156615662,0,0
60.983146435034,-19.888250711021,23.370587058706,2645769.4865472,994.31556113815,2803685.0444196,28.570587058706,0,0
60.983146715494,-19.891924849538,23.37501750175,2645769.4865472,994.31556113815,2803685.0444196,28.57501750175,0,0
60.983146995955,-19.895598988054,23.379447944794,2645769.4865472,994.31556113815,2803685.0444196,28.579447944794,0,0
60.983147276415,-19.899273126571,23.383878387839,2645769.4865472,994.31556113815,2803685.0444196,28.583878387839,0,0
60.983147556875,-19.902947265087,23.388308830883,2645769.4865472,994.31556113815,2803685.0444196,28.588308830883,0,0
60.983147837336,-19.906621403604,23.392739273927,2645769.4865472,994.31556113815,2803685.0444196,28.592739273927,0,0
60.983148117796,-19.910295542121,23.397169716972,2645769.4865472,994.31556113815,2803685.0444196,28.597169716972,0,0
60.983148398257,-19.913969680637,23.401600160016,2645769.4865472,994.31556113815,2803685.0444196,28.601600160016,0,0
60.983148678717,-19.917643819154,23.40603060306,2645769.4865472,994.31556113815,2803685.0444196,28.60603060306,0,0
60.983148959178,-19.92131795767,23.410461046105,2645769.4865472,994.31556113815,2803685.0444196,28.610461046105,0,0
60.983149239638,-19.924992096187,23.414891489149,2645769.4865472,994.31556113815,2803685.0444196,28.614891489149,0,0
60.983149520099,-19.928666234703,23.419321932193,2645769.4865472,994.31556113815,2803685.0444196,28.619321932193,0,0
60.983149800559,-19.93234037322,23.423752375238,2645769.4865472,994.31556113815,2803685.0444196,28.623752375238,0,0
60.983150081019,-19.936014511736,23.428182818282,2645769.4865472,994.31556113815,2803685.0444196,28.628182818282,0,0
60.98315036148,-19.939688650253,23.432613261326,2645769.4865472,994.31556113815,2803685.0444196,28.632613261326,0,0
60.98315064194,-19.943362788769,23.43704370437,2645769.4865472,994.31556113815,2803685.0444196,28.63704370437,0,0
60.983150922401,-19.947036927286,23.441474147415,2645769.4865472,994.31556113815,2803685.0444196,28.641474147415,0,0
60.983151202861,-19.950711065802,23.445904590459,2645769.4865472,994.31556113815,2803685.0444196,28.645904590459,0,0
60.983151483322,-19.954385204319,23.450335033503,2645769.4865472,994.31556113815,2803685.0444196,28.650335033503,0,0
60.983151763782,-19.958059342835,23.454765476548,2645769.4865472,994.31556113815,2803685.0444196,28.654765476548,0,0
60.983152044243,-19.961733481352,23.459195919592,2645769.4865472,994.31556113815,2803685.0444196,28.659195919592,0,0
60.983152324703,-19.965407619868,23.463626362636,2645769.4865472,994.31556113815,2803685.0444196,28.663626362636,0,0
60.983152605163,-19.969081758385,23.468056805681,2645769.4865472,994.31556113815,2803685.0444196,28.668056805681,0,0
60.983152885624,-19.972755896901,23.472487248725,2645769.4865472,994.31556113815,2803685.0444196,28.672487248725,0,0
60.983153166084,-19.976430035418,23.476917691769,2645769.4865472,994.31556113815,2803685.0444196,28.676917691769,0,0
60.983153446545,-19.980104173934,23.481348134813,2645769.4865472,994.31556113815,2803685.0444196,28.681348134813,0,0
60.983153727005,-19.983778312451,23.485778577858,2645769.4865472,994.31556113815,2803685.0444196,28.685778577858,0,0
60.983154007466,-19.987452450967,23.490209020902,2645769.4865472,994.31556113815,2803685.0444196,28.690209020902,0,0
60.983154287926,-19.991126589484,23.494639463946,2645769.4865472,994.31556113815,2803685.0444196,28.694639463946,0,0
60.983154568387,-19.994800728,23.499069906991,2645769.4865472,994.31556113815,2803685.0444196,28.699069906991,0,0
60.983154848847,-19.998474866517,23.503500350035,2645769.4865472,994.31556113815,2803685.0444196,28.703500350035,0,0
60.983155129308,-20.002149005033,23.507930793079,2645769.4865472,994.31556113815,2803685.0444196,28.707930793079,0,0
60.983155409768,-20.00582314355,23.512361236124,2645769.4865472,994.31556113815,2803685.0444196,28.712361236124,0,0
60.983155690228,-20.009497282066,23.516791679168,2645769.4865472,994.31556113815,2803685.0444196,28.716791679168,0,0
60.983155970689,-20.013171420583,23.521222122212,2645769.4865472,994.31556113815,2803685.0444196,28.721222122212,0,0
60.983156251149,-20.016845559099,23.525652565257,2645769.4865472,994.31556113815,2803685.0444196,28.725652565257,0,0
60.98315653161,-20.020519697616,23.530083008301,2645769.4865472,994.31556113815,2803685.0444196,28.730083008301,0,0
60.98315681207,-20.024193836132,23.534513451345,2645769.4865472,994.31556113815,2803685.0444196,28.734513451345,0,0
60.983157092531,-20.027867974649,23.538943894389,2645769.4865472,994.31556113815,2803685.0444196,28.738943894389,0,0
60.983157372991,-20.031542113165,23.543374337434,2645769.4865472,994.31556113815,2803685.0444196,28.743374337434,0,0
60.983157653452,-20.035216251682,23.547804780478,2645769.4865472,994.31556113815,2803685.0444196,28.747804780478,0,0
60.983157933912,-20.038890390199,23.552235223522,2645769.4865472,994.31556113815,2803685.0444196,28.752235223522,0,0
60.983158214372,-20.042564528715,23.556665666567,2645769.4865472,994.31556113815,2803685.0444196,28.756665666567,0,0
60.983158494833,-20.046238667232,23.561096109611,2645769.4865472,994.31556113815,2803685.0444196,28.761096109611,0,0
60.983158775293,-20.049912805748,23.565526552655,2645769.4865472,994.31556113815,2803685.0444196,28.765526552655,0,0
60.983159055754,-20.053586944265,23.5699569957,2645769.4865472,994.31556113815,2803685.0444196,28.7699569957,0,0
60.983159336214,-20.057261082781,23.574387438744,2645769.4865472,994.31556113815,2803685.0444196,28.774387438744,0,0
60.983159616675,-20.060935221298,23.578817881788,2645769.4865472,994.31556113815,2803685.0444196,28.778817881788,0,0
60.983159897135,-20.064609359814,23.583248324832,2645769.4865472,994.31556113815,2803685.0444196,28.783248324832,0,0
60.983160177596,-20.068283498331,23.587678767877,2645769.4865472,994.31556113815,2803685.0444196,28.787678767877,0,0
60.983160458056,-20.071957636847,23.592109210921,2645769.4865472,994.31556113815,2803685.0444196,28.792109210921,0,0
60.983160738516,-20.075631775364,23.596539653965,2645769.4865472,994.31556113815,2803685.0444196,28.796539653965,0,0
60.983161018977,-20.07930591388,23.60097009701,2645769.4865472,994.31556113815,2803685.0444196,28.80097009701,0,0
60.983161299437,-20.082980052397,23.605400540054,2645769.4865472,994.31556113815,2803685.0444196,28.805400540054,0,0
60.983161579898,-20.086654190913,23.609830983098,2645769.4865472,994.31556113815,2803685.0444196,28.809830983098,0,0
60.983161860358,-20.09032832943,23.614261426143,2645769.4865472,994.31556113815,2803685.0444196,28.814261426143,0,0
60.983162140819,-20.094002467946,23.618691869187,2645769.4865472,994.31556113815,2803685.0444196,28.818691869187,0,0
60.983162421279,-20.097676606463,23.623122312231,2645769.4865472,994.31556113815,2803685.0444196,28.823122312231,0,0
60.98316270174,-20.101350744979,23.627552755276,2645769.4865472,994.31556113815,2803685.0444196,28.827552755276,0,0
60.9831629822,-20.105024883496,23.63198319832,2645769.4865472,994.31556113815,2803685.0444196,28.83198319832,0,0
60.983163262661,-20.108699022012,23.636413641364,2645769.4865472,994.31556113815,2803685.0444196,28.836413641364,0,0
60.983163543121,-20.112373160529,23.640844084408,2645769.4865472,994.31556113815,2803685.0444196,28.840844084408,0,0
60.983163823581,-20.116047299045,23.645274527453,2645769.4865472,994.31556113815,2803685.0444196,28.845274527453,0,0
60.983164104042,-20.119721437562,23.649704970497,2645769.4865472,994.31556113815,2803685.0444196,28.849704970497,0,0
60.983164384502,-20.123395576078,23.654135413541,2645769.4865472,994.31556113815,2803685.0444196,28.854135413541,0,0
60.983164664963,-20.127069714595,23.658565856586,2645769.4865472,994.31556113815,2803685.0444196,28.858565856586,0,0
60.983164945423,-20.130743853111,23.66299629963,2645769.4865472,994.31556113815,2803685.0444196,28.86299629963,0,0
60.983165225884,-20.134417991628,23.667426742674,2645769.4865472,994.31556113815,2803685.0444196,28.867426742674,0,0
60.983165506344,-20.138092130144,23.671857185719,2645769.4865472,994.31556113815,2803685.0444196,28.871857185719,0,0
60.983165786805,-20.141766268661,23.676287628763,2645769.4865472,994.31556113815,2803685.0444196,28.876287628763,0,0
60.983166067265,-20.145440407177,23.680718071807,2645769.4865472,994.31556113815,2803685.0444196,28.880718071807,0,0
60.983166347725,-20.149114545694,23.685148514851,2645769.4865472,994.31556113815,2803685.0444196,28.885148514851,0,0
60.983166628186,-20.15278868421,23.689578957896,2645769.4865472,994.31556113815,2803685.0444196,28.889578957896,0,0
60.983166908646,-20.156462822727,23.69400940094,2645769.4865472,994.31556113815,2803685.0444196,28.89400940094,0,0
60.983167189107,-20.160136961243,23.698439843984,2645769.4865472,994.31556113815,2803685.0444196,28.898439843984,0,0
60.983167469567,-20.16381109976,23.702870287029,2645769.4865472,994.31556113815,2803685.0444196,28.902870287029,0,0
60.983167750028,-20.167485238277,23.707300730073,2645769.4865472,994.31556113815,2803685.0444196,28.907300730073,0,0
60.983168030488,-20.171159376793,23.711731173117,2645769.4865472,994.31556113815,2803685.0444196,28.911731173117,0,0
60.983168310949,-20.17483351531,23.716161616162,2645769.4865472,994.31556113815,2803685.0444196,28.916161616162,0,0
60.983168591409,-20.178507653826,23.720592059206,2645769.4865472,994.31556113815,2803685.0444196,28.920592059206,0,0
60.983168871869,-20.182181792343,23.72502250225,2645769.4865472,994.31556113815,2803685.0444196,28.92502250225,0,0
60.98316915233,-20.185855930859,23.729452945295,2645769.4865472,994.31556113815,2803685.0444196,28.929452945295,0,0
60.98316943279,-20.189530069376,23.733883388339,2645769.4865472,994.31556113815,2803685.0444196,28.933883388339,0,0
60.983169713251,-20.193204207892,23.738313831383,2645769.4865472,994.31556113815,2803685.0444196,28.938313831383,0,0
60.983169993711,-20.196878346409,23.742744274427,2645769.4865472,994.31556113815,2803685.0444196,28.942744274427,0,0
60.983170274172,-20.200552484925,23.747174717472,2645769.4865472,994.31556113815,2803685.0444196,28.947174717472,0,0
60.983170554632,-20.204226623442,23.751605160516,2645769.4865472,994.31556113815,2803685.0444196,28.951605160516,0,0
60.983170835093,-20.207900761958,23.75603560356,2645769.4865472,994.31556113815,2803685.0444196,28.95603560356,0,0
60.983171115553,-20.211574900475,23.760466046605,2645769.4865472,994.31556113815,2803685.0444196,28.960466046605,0,0
60.983171396014,-20.215249038991,23.764896489649,2645769.4865472,994.31556113815,2803685.0444196,28.964896489649,0,0
60.983171676474,-20.218923177508,23.769326932693,2645769.4865472,994.31556113815,2803685.0444196,28.969326932693,0,0
60.983171956934,-20.222597316024,23.773757375738,2645769.4865472,994.31556113815,2803685.0444196,28.973757375738,0,0
60.983172237395,-20.226271454541,23.778187818782,2645769.4865472,994.31556113815,2803685.0444196,28.978187818782,0,0
60.983172517855,-20.229945593057,23.782618261826,2645769.4865472,994.31556113815,2803685.0444196,28.982618261826,0,0
60.983172798316,-20.233619731574,23.78704870487,2645769.4865472,994.31556113815,2803685.0444196,28.98704870487,0,0
60.983173078776,-20.23729387009,23.791479147915,2645769.4865472,994.31556113815,2803685.0444196,28.991479147915,0,0
60.983173359237,-20.240968008607,23.795909590959,2645769.4865472,994.31556113815,2803685.0444196,28.995909590959,0,0
60.983173639697,-20.244642147123,23.800340034003,2645769.4865472,994.31556113815,2803685.0444196,29.000340034003,0,0
60.983173920158,-20.24831628564,23.804770477048,2645769.4865472,994.31556113815,2803685.0444196,29.004770477048,0,0
60.983174200618,-20.251990424156,23.809200920092,2645769.4865472,994.31556113815,2803685.0444196,29.009200920092,0,0
60.983174481078,-20.255664562673,23.813631363136,2645769.4865472,994.31556113815,2803685.0444196,29.013631363136,0,0
60.983174761539,-20.259338701189,23.818061806181,2645769.4865472,994.31556113815,2803685.0444196,29.018061806181,0,0
60.983175041999,-20.263012839706,23.822492249225,2645769.4865472,994.31556113815,2803685.0444196,29.022492249225,0,0
60.98317532246,-20.266686978222,23.826922692269,2645769.4865472,994.31556113815,2803685.0444196,29.026922692269,0,0
60.98317560292,-20.270361116739,23.831353135314,2645769.4865472,994.31556113815,2803685.0444196,29.031353135314,0,0
60.983175883381,-20.274035255255,23.835783578358,2645769.4865472,994.31556113815,2803685.0444196,29.035783578358,0,0
60.983176163841,-20.277709393772,23.840214021402,2645769.4865472,994.31556113815,2803685.0444196,29.040214021402,0,0
60.983176444302,-20.281383532288,23.844644464446,2645769.4865472,994.31556113815,2803685.0444196,29.044644464446,0,0
60.983176724762,-20.285057670805,23.849074907491,2645769.4865472,994.31556113815,2803685.0444196,29.049074907491,0,0
60.983177005222,-20.288731809321,23.853505350535,2645769.4865472,994.31556113815,2803685.0444196,29.053505350535,0,0
60.983177285683,-20.292405947838,23.857935793579,2645769.4865472,994.31556113815,2803685.0444196,29.057935793579,0,0
60.983177566143,-20.296080086355,23.862366236624,2645769.4865472,994.31556113815,2803685.0444196,29.062366236624,0,0
60.983177846604,-20.299754224871,23.866796679668,2645769.4865472,994.31556113815,2803685.0444196,29.066796679668,0,0
60.983178127064,-20.303428363388,23.871227122712,2645769.4865472,994.31556113815,2803685.0444196,29.071227122712,0,0
60.983178407525,-20.307102501904,23.875657565757,2645769.4865472,994.31556113815,2803685.0444196,29.075657565757,0,0
60.983178687985,-20.310776640421,23.880088008801,2645769.4865472,994.31556113815,2803685.0444196,29.080088008801,0,0
60.983178968446,-20.314450778937,23.884518451845,2645769.4865472,994.31556113815,2803685.0444196,29.084518451845,0,0
60.983179248906,-20.318124917454,23.888948894889,2645769.4865472,994.31556113815,2803685.0444196,29.088948894889,0,0
60.983179529367,-20.32179905597,23.893379337934,2645769.4865472,994.31556113815,2803685.0444196,29.093379337934,0,0
60.983179809827,-20.325473194487,23.897809780978,2645769.4865472,994.31556113815,2803685.0444196,29.097809780978,0,0
60.983180090287,-20.329147333003,23.902240224022,2645769.4865472,994.31556113815,2803685.0444196,29.102240224022,0,0
60.983180370748,-20.33282147152,23.906670667067,2645769.4865472,994.31556113815,2803685.0444196,29.106670667067,0,0
60.983180651208,-20.336495610036,23.911101110111,2645769.4865472,994.31556113815,2803685.0444196,29.111101110111,0,0
60.983180931669,-20.340169748553,23.915531553155,2645769.4865472,994.31556113815,2803685.0444196,29.115531553155,0,0
60.983181212129,-20.343843887069,23.9199619962,2645769.4865472,994.31556113815,2803685.0444196,29.1199619962,0,0
60.98318149259,-20.347518025586,23.924392439244,2645769.4865472,994.31556113815,2803685.0444196,29.124392439244,0,0
60.98318177305,-20.351192164102,23.928822882288,2645769.4865472,994.31556113815,2803685.0444196,29.128822882288,0,0
60.983182053511,-20.354866302619,23.933253325333,2645769.4865472,994.31556113815,2803685.0444196,29.133253325333,0,0
60.983182333971,-20.358540441135,23.937683768377,2645769.4865472,994.31556113815,2803685.0444196,29.137683768377,0,0
60.983182614431,-20.362214579652,23.942114211421,2645769.4865472,994.31556113815,2803685.0444196,29.142114211421,0,0
60.983182894892,-20.365888718168,23.946544654465,2645769.4865472,994.31556113815,2803685.0444196,29.146544654465,0,0
60.983183175352,-20.369562856685,23.95097509751,2645769.4865472,994.31556113815,2803685.0444196,29.15097509751,0,0
60.983183455813,-20.373236995201,23.955405540554,2645769.4865472,994.31556113815,2803685.0444196,29.155405540554,0,0
60.983183736273,-20.376911133718,23.959835983598,2645769.4865472,994.31556113815,2803685.0444196,29.159835983598,0,0
60.983184016734,-20.380585272234,23.964266426643,2645769.4865472,994.31556113815,2803685.0444196,29.164266426643,0,0
60.983184297194,-20.384259410751,23.968696869687,2645769.4865472,994.31556113815,2803685.0444196,29.168696869687,0,0
60.983184577655,-20.387933549267,23.973127312731,2645769.4865472,994.31556113815,2803685.0444196,29.173127312731,0,0
60.983184858115,-20.391607687784,23.977557755776,2645769.4865472,994.31556113815,2803685.0444196,29.177557755776,0,0
60.983185138575,-20.3952818263,23.98198819882,2645769.4865472,994.31556113815,2803685.0444196,29.18198819882,0,0
60.983185419036,-20.398955964817,23.986418641864,2645769.4865472,994.31556113815,2803685.0444196,29.186418641864,0,0
60.983185699496,-20.402630103333,23.990849084908,2645769.4865472,994.31556113815,2803685.0444196,29.190849084908,0,0
60.983185979957,-20.40630424185,23.995279527953,2645769.4865472,994.31556113815,2803685.0444196,29.195279527953,0,0
60.983186260417,-20.409978380366,23.999709970997,2645769.4865472,994.31556113815,2803685.0444196,29.199709970997,0,0
60.983186540878,-20.413652518883,24.004140414041,2645769.4865472,994.31556113815,2803685.0444196,29.204140414041,0,0
60.983186821338,-20.417326657399,24.008570857086,2645769.4865472,994.31556113815,2803685.0444196,29.208570857086,0,0
60.983187101799,-20.421000795916,24.01300130013,2645769.4865472,994.31556113815,2803685.0444196,29.21300130013,0,0
60.983187382259,-20.424674934432,24.017431743174,2645769.4865472,994.31556113815,2803685.0444196,29.217431743174,0,0
60.98318766272,-20.428349072949,24.021862186219,2645769.4865472,994.31556113815,2803685.0444196,29.221862186219,0,0
60.98318794318,-20.432023211466,24.026292629263,2645769.4865472,994.31556113815,2803685.0444196,29.226292629263,0,0
60.98318822364,-20.435697349982,24.030723072307,2645769.4865472,994.31556113815,2803685.0444196,29.230723072307,0,0
60.983188504101,-20.439371488499,24.035153515352,2645769.4865472,994.31556113815,2803685.0444196,29.235153515352,0,0
60.983188784561,-20.443045627015,24.039583958396,2645769.4865472,994.31556113815,2803685.0444196,29.239583958396,0,0
60.983189065022,-20.446719765532,24.04401440144,2645769.4865472,994.31556113815,2803685.0444196,29.24401440144,0,0
60.983189345482,-20.450393904048,24.048444844484,2645769.4865472,994.31556113815,2803685.0444196,29.248444844484,0,0
60.983189625943,-20.454068042565,24.052875287529,2645769.4865472,994.31556113815,2803685.0444196,29.252875287529,0,0
60.983189906403,-20.457742181081,24.057305730573,2645769.4865472,994.31556113815,2803685.0444196,29.257305730573,0,0
60.983190186864,-20.461416319598,24.061736173617,2645769.4865472,994.31556113815,2803685.0444196,29.261736173617,0,0
60.983190467324,-20.465090458114,24.066166616662,2645769.4865472,994.31556113815,2803685.0444196,29.266166616662,0,0
60.983190747784,-20.468764596631,24.070597059706,2645769.4865472,994.31556113815,2803685.0444196,29.270597059706,0,0
60.983191028245,-20.472438735147,24.07502750275,2645769.4865472,994.31556113815,2803685.0444196,29.27502750275,0,0
60.983191308705,-20.476112873664,24.079457945795,2645769.4865472,994.31556113815,2803685.0444196,29.279457945795,0,0
60.983191589166,-20.47978701218,24.083888388839,2645769.4865472,994.31556113815,2803685.0444196,29.283888388839,0,0
60.983191869626,-20.483461150697,24.088318831883,2645769.4865472,994.31556113815,2803685.0444196,29.288318831883,0,0
60.983192150087,-20.487135289213,24.092749274927,2645769.4865472,994.31556113815,2803685.0444196,29.292749274927,0,0
60.983192430547,-20.49080942773,24.097179717972,2645769.4865472,994.31556113815,2803685.0444196,29.297179717972,0,0
60.983192711008,-20.494483566246,24.101610161016,2645769.4865472,994.31556113815,2803685.0444196,29.301610161016,0,0
60.983192991468,-20.498157704763,24.10604060406,2645769.4865472,994.31556113815,2803685.0444196,29.30604060406,0,0
60.983193271928,-20.501831843279,24.110471047105,2645769.4865472,994.31556113815,2803685.0444196,29.310471047105,0,0
60.983193552389,-20.505505981796,24.114901490149,2645769.4865472,994.31556113815,2803685.0444196,29.314901490149,0,0
60.983193832849,-20.509180120312,24.119331933193,2645769.4865472,994.31556113815,2803685.0444196,29.319331933193,0,0
60.98319411331,-20.512854258829,24.123762376238,2645769.4865472,994.31556113815,2803685.0444196,29.323762376238,0,0
60.98319439377,-20.516528397345,24.128192819282,2645769.4865472,994.31556113815,2803685.0444196,29.328192819282,0,0
60.983194674231,-20.520202535862,24.132623262326,2645769.4865472,994.31556113815,2803685.0444196,29.332623262326,0,0
60.983194954691,-20.523876674378,24.137053705371,2645769.4865472,994.31556113815,2803685.0444196,29.337053705371,0,0
60.983195235152,-20.527550812895,24.141484148415,2645769.4865472,994.31556113815,2803685.0444196,29.341484148415,0,0
60.983195515612,-20.531224951411,24.145914591459,2645769.4865472,994.31556113815,2803685.0444196,29.345914591459,0,0
60.983195796073,-20.534899089928,24.150345034503,2645769.4865472,994.31556113815,2803685.0444196,29.350345034503,0,0
60.983196076533,-20.538573228444,24.154775477548,2645769.4865472,994.31556113815,2803685.0444196,29.354775477548,0,0
60.983196356993,-20.542247366961,24.159205920592,2645769.4865472,994.31556113815,2803685.0444196,29.359205920592,0,0
60.983196637454,-20.545921505477,24.163636363636,2645769.4865472,994.31556113815,2803685.0444196,29.363636363636,0,0
60.983196917914,-20.549595643994,24.168066806681,2645769.4865472,994.31556113815,2803685.0444196,29.368066806681,0,0
60.983197198375,-20.55326978251,24.172497249725,2645769.4865472,994.31556113815,2803685.0444196,29.372497249725,0,0
60.983197478835,-20.556943921027,24.176927692769,2645769.4865472,994.31556113815,2803685.0444196,29.376927692769,0,0
60.983197759296,-20.560618059544,24.181358135814,2645769.4865472,994.31556113815,2803685.0444196,29.381358135814,0,0
60.983198039756,-20.56429219806,24.185788578858,2645769.4865472,994.31556113815,2803685.0444196,29.385788578858,0,0
60.983198320217,-20.567966336577,24.190219021902,2645769.4865472,994.31556113815,2803685.0444196,29.390219021902,0,0
60.983198600677,-20.571640475093,24.194649464946,2645769.4865472,994.31556113815,2803685.0444196,29.394649464946,0,0
60.983198881137,-20.57531461361,24.199079907991,2645769.4865472,994.31556113815,2803685.0444196,29.399079907991,0,0
60.983199161598,-20.578988752126,24.203510351035,2645769.4865472,994.31556113815,2803685.0444196,29.403510351035,0,0
60.983199442058,-20.582662890643,24.207940794079,2645769.4865472,994.31556113815,2803685.0444196,29.407940794079,0,0
60.983199722519,-20.586337029159,24.212371237124,2645769.4865472,994.31556113815,2803685.0444196,29.412371237124,0,0
60.983200002979,-20.590011167676,24.216801680168,2645769.4865472,994.31556113815,2803685.0444196,29.416801680168,0,0
60.98320028344,-20.593685306192,24.221232123212,2645769.4865472,994.31556113815,2803685.0444196,29.421232123212,0,0
60.9832005639,-20.597359444709,24.225662566257,2645769.4865472,994.31556113815,2803685.0444196,29.425662566257,0,0
60.983200844361,-20.601033583225,24.230093009301,2645769.4865472,994.31556113815,2803685.0444196,29.430093009301,0,0
60.983201124821,-20.604707721742,24.234523452345,2645769.4865472,994.31556113815,2803685.0444196,29.434523452345,0,0
60.983201405281,-20.608381860258,24.23895389539,2645769.4865472,994.31556113815,2803685.0444196,29.43895389539,0,0
60.983201685742,-20.612055998775,24.243384338434,2645769.4865472,994.31556113815,2803685.0444196,29.443384338434,0,0
60.983201966202,-20.615730137291,24.247814781478,2645769.4865472,994.31556113815,2803685.0444196,29.447814781478,0,0
60.983202246663,-20.619404275808,24.252245224522,2645769.4865472,994.31556113815,2803685.0444196,29.452245224522,0,0
60.983202527123,-20.623078414324,24.256675667567,2645769.4865472,994.31556113815,2803685.0444196,29.456675667567,0,0
60.983202807584,-20.626752552841,24.261106110611,2645769.4865472,994.31556113815,2803685.0444196,29.461106110611,0,0
60.983203088044,-20.630426691357,24.265536553655,2645769.4865472,994.31556113815,2803685.0444196,29.465536553655,0,0
60.983203368505,-20.634100829874,24.2699669967,2645769.4865472,994.31556113815,2803685.0444196,29.4699669967,0,0
60.983203648965,-20.63777496839,24.274397439744,2645769.4865472,994.31556113815,2803685.0444196,29.474397439744,0,0
60.983203929426,-20.641449106907,24.278827882788,2645769.4865472,994.31556113815,2803685.0444196,29.478827882788,0,0
60.983204209886,-20.645123245423,24.283258325833,2645769.4865472,994.31556113815,2803685.0444196,29.483258325833,0,0
60.983204490346,-20.64879738394,24.287688768877,2645769.4865472,994.31556113815,2803685.0444196,29.487688768877,0,0
60.983204770807,-20.652471522456,24.292119211921,2645769.4865472,994.31556113815,2803685.0444196,29.492119211921,0,0
60.983205051267,-20.656145660973,24.296549654965,2645769.4865472,994.31556113815,2803685.0444196,29.496549654965,0,0
60.983205331728,-20.659819799489,24.30098009801,2645769.4865472,994.31556113815,2803685.0444196,29.50098009801,0,0
60.983205612188,-20.663493938006,24.305410541054,2645769.4865472,994.31556113815,2803685.0444196,29.505410541054,0,0
60.983205892649,-20.667168076522,24.309840984098,2645769.4865472,994.31556113815,2803685.0444196,29.509840984098,0,0
60.983206173109,-20.670842215039,24.314271427143,2645769.4865472,994.31556113815,2803685.0444196,29.514271427143,0,0
60.98320645357,-20.674516353555,24.318701870187,2645769.4865472,994.31556113815,2803685.0444196,29.518701870187,0,0
60.983206734239,-20.678190491817,24.323132313231,2654123.6551965,3383.7557275774,2800002.2916076,29.523132313231,0,0
60.983207015465,-20.681864629401,24.327562756276,2654123.6551965,3383.7557275774,2800002.2916076,29.527562756276,0,0
60.983207296691,-20.685538766984,24.33199319932,2654123.6551965,3383.7557275774,2800002.2916076,29.53199319932,0,0
60.983207577917,-20.689212904568,24.336423642364,2654123.6551965,3383.7557275774,2800002.2916076,29.536423642364,0,0
60.983207859142,-20.692887042152,24.340854085409,2654123.6551965,3383.7557275774,2800002.2916076,29.540854085409,0,0
60.983208140368,-20.696561179735,24.345284528453,2654123.6551965,3383.7557275774,2800002.2916076,29.545284528453,0,0
60.983208421594,-20.700235317319,24.349714971497,2654123.6551965,3383.7557275774,2800002.2916076,29.549714971497,0,0
60.98320870282,-20.703909454903,24.354145414541,2654123.6551965,3383.7557275774,2800002.2916076,29.554145414541,0,0
60.983208984046,-20.707583592487,24.358575857586,2654123.6551965,3383.7557275774,2800002.2916076,29.558575857586,0,0
60.983209265271,-20.71125773007,24.36300630063,2654123.6551965,3383.7557275774,2800002.2916076,29.56300630063,0,0
60.983209546497,-20.714931867654,24.367436743674,2654123.6551965,3383.7557275774,2800002.2916076,29.567436743674,0,0
60.983209827723,-20.718606005238,24.371867186719,2654123.6551965,3383.7557275774,2800002.2916076,29.571867186719,0,0
60.983210108949,-20.722280142821,24.376297629763,2654123.6551965,3383.7557275774,2800002.2916076,29.576297629763,0,0
60.983210390175,-20.725954280405,24.380728072807,2654123.6551965,3383.7557275774,2800002.2916076,29.580728072807,0,0
60.9832106714,-20.729628417989,24.385158515852,2654123.6551965,3383.7557275774,2800002.2916076,29.585158515852,0,0
60.983210952626,-20.733302555572,24.389588958896,2654123.6551965,3383.7557275774,2800002.2916076,29.589588958896,0,0
60.983211233852,-20.736976693156,24.39401940194,2654123.6551965,3383.7557275774,2800002.2916076,29.59401940194,0,0
60.983211515078,-20.74065083074,24.398449844984,2654123.6551965,3383.7557275774,2800002.2916076,29.598449844984,0,0
60.983211796304,-20.744324968324,24.402880288029,2654123.6551965,3383.7557275774,2800002.2916076,29.602880288029,0,0
60.983212077529,-20.747999105907,24.407310731073,2654123.6551965,3383.7557275774,2800002.2916076,29.607310731073,0,0
60.983212358755,-20.751673243491,24.411741174117,2654123.6551965,3383.7557275774,2800002.2916076,29.611741174117,0,0
60.983212639981,-20.755347381075,24.416171617162,2654123.6551965,3383.7557275774,2800002.2916076,29.616171617162,0,0
60.983212921207,-20.759021518658,24.420602060206,2654123.6551965,3383.7557275774,2800002.2916076,29.620602060206,0,0
60.983213202433,-20.762695656242,24.42503250325,2654123.6551965,3383.7557275774,2800002.2916076,29.62503250325,0,0
60.983213483658,-20.766369793826,24.429462946295,2654123.6551965,3383.7557275774,2800002.2916076,29.629462946295,0,0
60.983213764884,-20.77004393141,24.433893389339,2654123.6551965,3383.7557275774,2800002.2916076,29.633893389339,0,0
60.98321404611,-20.773718068993,24.438323832383,2654123.6551965,3383.7557275774,2800002.2916076,29.638323832383,0,0
60.983214327336,-20.777392206577,24.442754275428,2654123.6551965,3383.7557275774,2800002.2916076,29.642754275428,0,0
60.983214608562,-20.781066344161,24.447184718472,2654123.6551965,3383.7557275774,2800002.2916076,29.647184718472,0,0
60.983214889787,-20.784740481744,24.451615161516,2654123.6551965,3383.7557275774,2800002.2916076,29.651615161516,0,0
60.983215171013,-20.788414619328,24.45604560456,2654123.6551965,3383.7557275774,2800002.2916076,29.65604560456,0,0
60.983215452239,-20.792088756912,24.460476047605,2654123.6551965,3383.7557275774,2800002.2916076,29.660476047605,0,0
60.983215733465,-20.795762894495,24.464906490649,2654123.6551965,3383.7557275774,2800002.2916076,29.664906490649,0,0
60.983216014691,-20.799437032079,24.469336933693,2654123.6551965,3383.7557275774,2800002.2916076,29.669336933693,0,0
60.983216295916,-20.803111169663,24.473767376738,2654123.6551965,3383.7557275774,2800002.2916076,29.673767376738,0,0
60.983216577142,-20.806785307247,24.478197819782,2654123.6551965,3383.7557275774,2800002.2916076,29.678197819782,0,0
60.983216858368,-20.81045944483,24.482628262826,2654123.6551965,3383.7557275774,2800002.2916076,29.682628262826,0,0
60.983217139594,-20.814133582414,24.487058705871,2654123.6551965,3383.7557275774,2800002.2916076,29.687058705871,0,0
60.98321742082,-20.817807719998,24.491489148915,2654123.6551965,3383.7557275774,2800002.2916076,29.691489148915,0,0
60.983217702045,-20.821481857581,24.495919591959,2654123.6551965,3383.7557275774,2800002.2916076,29.695919591959,0,0
60.983217983271,-20.825155995165,24.500350035003,2654123.6551965,3383.7557275774,2800002.2916076,29.700350035003,0,0
60.983218264497,-20.828830132749,24.504780478048,2654123.6551965,3383.7557275774,2800002.2916076,29.704780478048,0,0
60.983218545723,-20.832504270332,24.509210921092,2654123.6551965,3383.7557275774,2800002.2916076,29.709210921092,0,0
60.983218826949,-20.836178407916,24.513641364136,2654123.6551965,3383.7557275774,2800002.2916076,29.713641364136,0,0
60.983219108174,-20.8398525455,24.518071807181,2654123.6551965,3383.7557275774,2800002.2916076,29.718071807181,0,0
60.9832193894,-20.843526683084,24.522502250225,2654123.6551965,3383.7557275774,2800002.2916076,29.722502250225,0,0
60.983219670626,-20.847200820667,24.526932693269,2654123.6551965,3383.7557275774,2800002.2916076,29.726932693269,0,0
60.983219951852,-20.850874958251,24.531363136314,2654123.6551965,3383.7557275774,2800002.2916076,29.731363136314,0,0
60.983220233078,-20.854549095835,24.535793579358,2654123.6551965,3383.7557275774,2800002.2916076,29.735793579358,0,0
60.983220514303,-20.858223233418,24.540224022402,2654123.6551965,3383.7557275774,2800002.2916076,29.740224022402,0,0
60.983220795529,-20.861897371002,24.544654465447,2654123.6551965,3383.7557275774,2800002.2916076,29.744654465447,0,0
60.983221076755,-20.865571508586,24.549084908491,2654123.6551965,3383.7557275774,2800002.2916076,29.749084908491,0,0
60.983221357981,-20.86924564617,24.553515351535,2654123.6551965,3383.7557275774,2800002.2916076,29.753515351535,0,0
60.983221639207,-20.872919783753,24.557945794579,2654123.6551965,3383.7557275774,2800002.2916076,29.757945794579,0,0
60.983221920432,-20.876593921337,24.562376237624,2654123.6551965,3383.7557275774,2800002.2916076,29.762376237624,0,0
60.983222201658,-20.880268058921,24.566806680668,2654123.6551965,3383.7557275774,2800002.2916076,29.766806680668,0,0
60.983222482884,-20.883942196504,24.571237123712,2654123.6551965,3383.7557275774,2800002.2916076,29.771237123712,0,0
60.98322276411,-20.887616334088,24.575667566757,2654123.6551965,3383.7557275774,2800002.2916076,29.775667566757,0,0
60.983223045336,-20.891290471672,24.580098009801,2654123.6551965,3383.7557275774,2800002.2916076,29.780098009801,0,0
60.983223326561,-20.894964609255,24.584528452845,2654123.6551965,3383.7557275774,2800002.2916076,29.784528452845,0,0
60.983223607787,-20.898638746839,24.58895889589,2654123.6551965,3383.7557275774,2800002.2916076,29.78895889589,0,0
60.983223889013,-20.902312884423,24.593389338934,2654123.6551965,3383.7557275774,2800002.2916076,29.793389338934,0,0
60.983224170239,-20.905987022007,24.597819781978,2654123.6551965,3383.7557275774,2800002.2916076,29.797819781978,0,0
60.983224451465,-20.90966115959,24.602250225022,2654123.6551965,3383.7557275774,2800002.2916076,29.802250225022,0,0
60.98322473269,-20.913335297174,24.606680668067,2654123.6551965,3383.7557275774,2800002.2916076,29.806680668067,0,0
60.983225013916,-20.917009434758,24.611111111111,2654123.6551965,3383.7557275774,2800002.2916076,29.811111111111,0,0
60.983225295142,-20.920683572341,24.615541554155,2654123.6551965,3383.7557275774,2800002.2916076,29.815541554155,0,0
60.983225576368,-20.924357709925,24.6199719972,2654123.6551965,3383.7557275774,2800002.2916076,29.8199719972,0,0
60.983225857594,-20.928031847509,24.624402440244,2654123.6551965,3383.7557275774,2800002.2916076,29.824402440244,0,0
60.983226138819,-20.931705985093,24.628832883288,2654123.6551965,3383.7557275774,2800002.2916076,29.828832883288,0,0
60.983226420045,-20.935380122676,24.633263326333,2654123.6551965,3383.7557275774,2800002.2916076,29.833263326333,0,0
60.983226701271,-20.93905426026,24.637693769377,2654123.6551965,3383.7557275774,2800002.2916076,29.837693769377,0,0
60.983226982497,-20.942728397844,24.642124212421,2654123.6551965,3383.7557275774,2800002.2916076,29.842124212421,0,0
60.983227263723,-20.946402535427,24.646554655466,2654123.6551965,3383.7557275774,2800002.2916076,29.846554655466,0,0
60.983227544948,-20.950076673011,24.65098509851,2654123.6551965,3383.7557275774,2800002.2916076,29.85098509851,0,0
60.983227826174,-20.953750810595,24.655415541554,2654123.6551965,3383.7557275774,2800002.2916076,29.855415541554,0,0
60.9832281074,-20.957424948178,24.659845984598,2654123.6551965,3383.7557275774,2800002.2916076,29.859845984598,0,0
60.983228388626,-20.961099085762,24.664276427643,2654123.6551965,3383.7557275774,2800002.2916076,29.864276427643,0,0
60.983228669852,-20.964773223346,24.668706870687,2654123.6551965,3383.7557275774,2800002.2916076,29.868706870687,0,0
60.983228951077,-20.96844736093,24.673137313731,2654123.6551965,3383.7557275774,2800002.2916076,29.873137313731,0,0
60.983229232303,-20.972121498513,24.677567756776,2654123.6551965,3383.7557275774,2800002.2916076,29.877567756776,0,0
60.983229513529,-20.975795636097,24.68199819982,2654123.6551965,3383.7557275774,2800002.2916076,29.88199819982,0,0
60.983229794755,-20.979469773681,24.686428642864,2654123.6551965,3383.7557275774,2800002.2916076,29.886428642864,0,0
60.983230075981,-20.983143911264,24.690859085909,2654123.6551965,3383.7557275774,2800002.2916076,29.890859085909,0,0
60.983230357206,-20.986818048848,24.695289528953,2654123.6551965,3383.7557275774,2800002.2916076,29.895289528953,0,0
60.983230638432,-20.990492186432,24.699719971997,2654123.6551965,3383.7557275774,2800002.2916076,29.899719971997,0,0
60.983230919658,-20.994166324015,24.704150415042,2654123.6551965,3383.7557275774,2800002.2916076,29.904150415041,0,0
60.983231200884,-20.997840461599,24.708580858086,2654123.6551965,3383.7557275774,2800002.2916076,29.908580858086,0,0
60.983231482109,-21.001514599183,24.71301130113,2654123.6551965,3383.7557275774,2800002.2916076,29.91301130113,0,0
60.983231763335,-21.005188736767,24.717441744174,2654123.6551965,3383.7557275774,2800002.2916076,29.917441744174,0,0
60.983232044561,-21.00886287435,24.721872187219,2654123.6551965,3383.7557275774,2800002.2916076,29.921872187219,0,0
60.983232325787,-21.012537011934,24.726302630263,2654123.6551965,3383.7557275774,2800002.2916076,29.926302630263,0,0
60.983232607013,-21.016211149518,24.730733073307,2654123.6551965,3383.7557275774,2800002.2916076,29.930733073307,0,0
60.983232888238,-21.019885287101,24.735163516352,2654123.6551965,3383.7557275774,2800002.2916076,29.935163516352,0,0
60.983233169464,-21.023559424685,24.739593959396,2654123.6551965,3383.7557275774,2800002.2916076,29.939593959396,0,0
60.98323345069,-21.027233562269,24.74402440244,2654123.6551965,3383.7557275774,2800002.2916076,29.94402440244,0,0
60.983233731916,-21.030907699853,24.748454845485,2654123.6551965,3383.7557275774,2800002.2916076,29.948454845485,0,0
60.983234013142,-21.034581837436,24.752885288529,2654123.6551965,3383.7557275774,2800002.2916076,29.952885288529,0,0
60.983234294367,-21.03825597502,24.757315731573,2654123.6551965,3383.7557275774,2800002.2916076,29.957315731573,0,0
60.983234575593,-21.041930112604,24.761746174617,2654123.6551965,3383.7557275774,2800002.2916076,29.961746174617,0,0
60.983234856819,-21.045604250187,24.766176617662,2654123.6551965,3383.7557275774,2800002.2916076,29.966176617662,0,0
60.983235138045,-21.049278387771,24.770607060706,2654123.6551965,3383.7557275774,2800002.2916076,29.970607060706,0,0
60.983235419271,-21.052952525355,24.77503750375,2654123.6551965,3383.7557275774,2800002.2916076,29.97503750375,0,0
60.983235700496,-21.056626662938,24.779467946795,2654123.6551965,3383.7557275774,2800002.2916076,29.979467946795,0,0
60.983235981722,-21.060300800522,24.783898389839,2654123.6551965,3383.7557275774,2800002.2916076,29.983898389839,0,0
60.983236262948,-21.063974938106,24.788328832883,2654123.6551965,3383.7557275774,2800002.2916076,29.988328832883,0,0
60.983236544174,-21.06764907569,24.792759275928,2654123.6551965,3383.7557275774,2800002.2916076,29.992759275928,0,0
60.9832368254,-21.071323213273,24.797189718972,2654123.6551965,3383.7557275774,2800002.2916076,29.997189718972,0,0
60.983237106625,-21.074997350857,24.801620162016,2654123.6551965,3383.7557275774,2800002.2916076,30.001620162016,0,0
60.983237388262,-21.078671489146,24.806050605061,2658803.4593702,726.42713112147,2795795.0391611,30.006050605061,0,0
60.983237669973,-21.082345627563,24.810481048105,2658803.4593702,726.42713112147,2795795.0391611,30.010481048105,0,0
60.983237951685,-21.086019765981,24.814911491149,2658803.4593702,726.42713112147,2795795.0391611,30.014911491149,0,0
60.983238233397,-21.089693904399,24.819341934193,2658803.4593702,726.42713112147,2795795.0391611,30.019341934193,0,0
60.983238515108,-21.093368042817,24.823772377238,2658803.4593702,726.42713112147,2795795.0391611,30.023772377238,0,0
60.98323879682,-21.097042181235,24.828202820282,2658803.4593702,726.42713112147,2795795.0391611,30.028202820282,0,0
60.983239078531,-21.100716319653,24.832633263326,2658803.4593702,726.42713112147,2795795.0391611,30.032633263326,0,0
60.983239360243,-21.104390458071,24.837063706371,2658803.4593702,726.42713112147,2795795.0391611,30.037063706371,0,0
60.983239641955,-21.108064596489,24.841494149415,2658803.4593702,726.42713112147,2795795.0391611,30.041494149415,0,0
60.983239923666,-21.111738734907,24.845924592459,2658803.4593702,726.42713112147,2795795.0391611,30.045924592459,0,0
60.983240205378,-21.115412873325,24.850355035504,2658803.4593702,726.42713112147,2795795.0391611,30.050355035504,0,0
60.98324048709,-21.119087011743,24.854785478548,2658803.4593702,726.42713112147,2795795.0391611,30.054785478548,0,0
60.983240768801,-21.122761150161,24.859215921592,2658803.4593702,726.42713112147,2795795.0391611,30.059215921592,0,0
60.983241050513,-21.126435288579,24.863646364636,2658803.4593702,726.42713112147,2795795.0391611,30.063646364636,0,0
60.983241332224,-21.130109426997,24.868076807681,2658803.4593702,726.42713112147,2795795.0391611,30.068076807681,0,0
60.983241613936,-21.133783565415,24.872507250725,2658803.4593702,726.42713112147,2795795.0391611,30.072507250725,0,0
60.983241895648,-21.137457703833,24.876937693769,2658803.4593702,726.42713112147,2795795.0391611,30.076937693769,0,0
60.983242177359,-21.141131842251,24.881368136814,2658803.4593702,726.42713112147,2795795.0391611,30.081368136814,0,0
60.983242459071,-21.144805980669,24.885798579858,2658803.4593702,726.42713112147,2795795.0391611,30.085798579858,0,0
60.983242740782,-21.148480119087,24.890229022902,2658803.4593702,726.42713112147,2795795.0391611,30.090229022902,0,0
60.983243022494,-21.152154257505,24.894659465947,2658803.4593702,726.42713112147,2795795.0391611,30.094659465947,0,0
60.983243304206,-21.155828395923,24.899089908991,2658803.4593702,726.42713112147,2795795.0391611,30.099089908991,0,0
60.983243585917,-21.159502534341,24.903520352035,2658803.4593702,726.42713112147,2795795.0391611,30.103520352035,0,0
60.983243867629,-21.163176672759,24.90795079508,2658803.4593702,726.42713112147,2795795.0391611,30.10795079508,0,0
60.983244149341,-21.166850811177,24.912381238124,2658803.4593702,726.42713112147,2795795.0391611,30.112381238124,0,0
60.983244431052,-21.170524949595,24.916811681168,2658803.4593702,726.42713112147,2795795.0391611,30.116811681168,0,0
60.983244712764,-21.174199088013,24.921242124212,2658803.4593702,726.42713112147,2795795.0391611,30.121242124212,0,0
60.983244994475,-21.177873226431,24.925672567257,2658803.4593702,726.42713112147,2795795.0391611,30.125672567257,0,0
60.983245276187,-21.181547364849,24.930103010301,2658803.4593702,726.42713112147,2795795.0391611,30.130103010301,0,0
60.983245557899,-21.185221503267,24.934533453345,2658803.4593702,726.42713112147,2795795.0391611,30.134533453345,0,0
60.98324583961,-21.188895641685,24.93896389639,2658803.4593702,726.42713112147,2795795.0391611,30.13896389639,0,0
60.983246121322,-21.192569780103,24.943394339434,2658803.4593702,726.42713112147,2795795.0391611,30.143394339434,0,0
60.983246403034,-21.196243918521,24.947824782478,2658803.4593702,726.42713112147,2795795.0391611,30.147824782478,0,0
60.983246684745,-21.199918056939,24.952255225523,2658803.4593702,726.42713112147,2795795.0391611,30.152255225523,0,0
60.983246966457,-21.203592195357,24.956685668567,2658803.4593702,726.42713112147,2795795.0391611,30.156685668567,0,0
60.983247248168,-21.207266333775,24.961116111611,2658803.4593702,726.42713112147,2795795.0391611,30.161116111611,0,0
60.98324752988,-21.210940472193,24.965546554655,2658803.4593702,726.42713112147,2795795.0391611,30.165546554655,0,0
60.983247811592,-21.214614610611,24.9699769977,2658803.4593702,726.42713112147,2795795.0391611,30.1699769977,0,0
60.983248093303,-21.218288749029,24.974407440744,2658803.4593702,726.42713112147,2795795.0391611,30.174407440744,0,0
60.983248375015,-21.221962887447,24.978837883788,2658803.4593702,726.42713112147,2795795.0391611,30.178837883788,0,0
60.983248656727,-21.225637025865,24.983268326833,2658803.4593702,726.42713112147,2795795.0391611,30.183268326833,0,0
60.983248938438,-21.229311164283,24.987698769877,2658803.4593702,726.42713112147,2795795.0391611,30.187698769877,0,0
60.98324922015,-21.232985302701,24.992129212921,2658803.4593702,726.42713112147,2795795.0391611,30.192129212921,0,0
60.983249501861,-21.236659441118,24.996559655966,2658803.4593702,726.42713112147,2795795.0391611,30.196559655966,0,0
60.983249783573,-21.240333579536,25.00099009901,2658803.4593702,726.42713112147,2795795.0391611,30.20099009901,0,0
60.983250065285,-21.244007717954,25.005420542054,2658803.4593702,726.42713112147,2795795.0391611,30.205420542054,0,0
60.983250346996,-21.247681856372,25.009850985099,2658803.4593702,726.42713112147,2795795.0391611,30.209850985099,0,0
60.983250628708,-21.25135599479,25.014281428143,2658803.4593702,726.42713112147,2795795.0391611,30.214281428143,0,0
60.983250910419,-21.255030133208,25.018711871187,2658803.4593702,726.42713112147,2795795.0391611,30.218711871187,0,0
60.983251192131,-21.258704271626,25.023142314231,2658803.4593702,726.42713112147,2795795.0391611,30.223142314231,0,0
60.983251473843,-21.262378410044,25.027572757276,2658803.4593702,726.42713112147,2795795.0391611,30.227572757276,0,0
60.983251755554,-21.266052548462,25.03200320032,2658803.4593702,726.42713112147,2795795.0391611,30.23200320032,0,0
60.983252037266,-21.26972668688,25.036433643364,2658803.4593702,726.42713112147,2795795.0391611,30.236433643364,0,0
60.983252318978,-21.273400825298,25.040864086409,2658803.4593702,726.42713112147,2795795.0391611,30.240864086409,0,0
60.983252600689,-21.277074963716,25.045294529453,2658803.4593702,726.42713112147,2795795.0391611,30.245294529453,0,0
60.983252882401,-21.280749102134,25.049724972497,2658803.4593702,726.42713112147,2795795.0391611,30.249724972497,0,0
60.983253164112,-21.284423240552,25.054155415542,2658803.4593702,726.42713112147,2795795.0391611,30.254155415542,0,0
60.983253445824,-21.28809737897,25.058585858586,2658803.4593702,726.42713112147,2795795.0391611,30.258585858586,0,0
60.983253727536,-21.291771517388,25.06301630163,2658803.4593702,726.42713112147,2795795.0391611,30.26301630163,0,0
60.983254009247,-21.295445655806,25.067446744674,2658803.4593702,726.42713112147,2795795.0391611,30.267446744674,0,0
60.983254290959,-21.299119794224,25.071877187719,2658803.4593702,726.42713112147,2795795.0391611,30.271877187719,0,0
60.983254572671,-21.302793932642,25.076307630763,2658803.4593702,726.42713112147,2795795.0391611,30.276307630763,0,0
60.983254854382,-21.30646807106,25.080738073807,2658803.4593702,726.42713112147,2795795.0391611,30.280738073807,0,0
60.983255136094,-21.310142209478,25.085168516852,2658803.4593702,726.42713112147,2795795.0391611,30.285168516852,0,0
60.983255417805,-21.313816347896,25.089598959896,2658803.4593702,726.42713112147,2795795.0391611,30.289598959896,0,0
60.983255699517,-21.317490486314,25.09402940294,2658803.4593702,726.42713112147,2795795.0391611,30.29402940294,0,0
60.983255981229,-21.321164624732,25.098459845985,2658803.4593702,726.42713112147,2795795.0391611,30.298459845985,0,0
60.98325626294,-21.32483876315,25.102890289029,2658803.4593702,726.42713112147,2795795.0391611,30.302890289029,0,0
60.983256544652,-21.328512901568,25.107320732073,2658803.4593702,726.42713112147,2795795.0391611,30.307320732073,0,0
60.983256826364,-21.332187039986,25.111751175118,2658803.4593702,726.42713112147,2795795.0391611,30.311751175118,0,0
60.983257108075,-21.335861178404,25.116181618162,2658803.4593702,726.42713112147,2795795.0391611,30.316181618162,0,0
60.983257389787,-21.339535316822,25.120612061206,2658803.4593702,726.42713112147,2795795.0391611,30.320612061206,0,0
60.983257671498,-21.34320945524,25.12504250425,2658803.4593702,726.42713112147,2795795.0391611,30.32504250425,0,0
60.98325795321,-21.346883593658,25.129472947295,2658803.4593702,726.42713112147,2795795.0391611,30.329472947295,0,0
60.983258234922,-21.350557732076,25.133903390339,2658803.4593702,726.42713112147,2795795.0391611,30.333903390339,0,0
60.983258516633,-21.354231870494,25.138333833383,2658803.4593702,726.42713112147,2795795.0391611,30.338333833383,0,0
60.983258798345,-21.357906008912,25.142764276428,2658803.4593702,726.42713112147,2795795.0391611,30.342764276428,0,0
60.983259080056,-21.36158014733,25.147194719472,2658803.4593702,726.42713112147,2795795.0391611,30.347194719472,0,0
60.983259361768,-21.365254285748,25.151625162516,2658803.4593702,726.42713112147,2795795.0391611,30.351625162516,0,0
60.98325964348,-21.368928424166,25.156055605561,2658803.4593702,726.42713112147,2795795.0391611,30.356055605561,0,0
60.983259925191,-21.372602562584,25.160486048605,2658803.4593702,726.42713112147,2795795.0391611,30.360486048605,0,0
60.983260206903,-21.376276701002,25.164916491649,2658803.4593702,726.42713112147,2795795.0391611,30.364916491649,0,0
60.983260488615,-21.37995083942,25.169346934693,2658803.4593702,726.42713112147,2795795.0391611,30.369346934693,0,0
60.983260770326,-21.383624977838,25.173777377738,2658803.4593702,726.42713112147,2795795.0391611,30.373777377738,0,0
60.983261052038,-21.387299116255,25.178207820782,2658803.4593702,726.42713112147,2795795.0391611,30.378207820782,0,0
60.983261333749,-21.390973254673,25.182638263826,2658803.4593702,726.42713112147,2795795.0391611,30.382638263826,0,0
60.983261615461,-21.394647393091,25.187068706871,2658803.4593702,726.42713112147,2795795.0391611,30.387068706871,0,0
60.983261897173,-21.398321531509,25.191499149915,2658803.4593702,726.42713112147,2795795.0391611,30.391499149915,0,0
60.983262178884,-21.401995669927,25.195929592959,2658803.4593702,726.42713112147,2795795.0391611,30.395929592959,0,0
60.983262460596,-21.405669808345,25.200360036004,2658803.4593702,726.42713112147,2795795.0391611,30.400360036004,0,0
60.983262742308,-21.409343946763,25.204790479048,2658803.4593702,726.42713112147,2795795.0391611,30.404790479048,0,0
60.983263024019,-21.413018085181,25.209220922092,2658803.4593702,726.42713112147,2795795.0391611,30.409220922092,0,0
60.983263305731,-21.416692223599,25.213651365137,2658803.4593702,726.42713112147,2795795.0391611,30.413651365137,0,0
60.983263587442,-21.420366362017,25.218081808181,2658803.4593702,726.42713112147,2795795.0391611,30.418081808181,0,0
60.983263869154,-21.424040500435,25.222512251225,2658803.4593702,726.42713112147,2795795.0391611,30.422512251225,0,0
60.983264150866,-21.427714638853,25.226942694269,2658803.4593702,726.42713112147,2795795.0391611,30.426942694269,0,0
60.983264432577,-21.431388777271,25.231373137314,2658803.4593702,726.42713112147,2795795.0391611,30.431373137314,0,0
60.983264714289,-21.435062915689,25.235803580358,2658803.4593702,726.42713112147,2795795.0391611,30.435803580358,0,0
60.983264996001,-21.438737054107,25.240234023402,2658803.4593702,726.42713112147,2795795.0391611,30.440234023402,0,0
60.983265277712,-21.442411192525,25.244664466447,2658803.4593702,726.42713112147,2795795.0391611,30.444664466447,0,0
60.983265559424,-21.446085330943,25.249094909491,2658803.4593702,726.42713112147,2795795.0391611,30.449094909491,0,0
60.983265841135,-21.449759469361,25.253525352535,2658803.4593702,726.42713112147,2795795.0391611,30.453525352535,0,0
60.983266122847,-21.453433607779,25.25795579558,2658803.4593702,726.42713112147,2795795.0391611,30.45795579558,0,0
60.983266404559,-21.457107746197,25.262386238624,2658803.4593702,726.42713112147,2795795.0391611,30.462386238624,0,0
60.98326668627,-21.460781884615,25.266816681668,2658803.4593702,726.42713112147,2795795.0391611,30.466816681668,0,0
60.983266967982,-21.464456023033,25.271247124712,2658803.4593702,726.42713112147,2795795.0391611,30.471247124712,0,0
60.983267249693,-21.468130161451,25.275677567757,2658803.4593702,726.42713112147,2795795.0391611,30.475677567757,0,0
60.983267531405,-21.471804299869,25.280108010801,2658803.4593702,726.42713112147,2795795.0391611,30.480108010801,0,0
60.983267813117,-21.475478438287,25.284538453845,2658803.4593702,726.42713112147,2795795.0391611,30.484538453845,0,0
60.983268094828,-21.479152576705,25.28896889689,2658803.4593702,726.42713112147,2795795.0391611,30.48896889689,0,0
60.98326837654,-21.482826715123,25.293399339934,2658803.4593702,726.42713112147,2795795.0391611,30.493399339934,0,0
60.983268658252,-21.486500853541,25.297829782978,2658803.4593702,726.42713112147,2795795.0391611,30.497829782978,0,0
60.983268939963,-21.490174991959,25.302260226023,2658803.4593702,726.42713112147,2795795.0391611,30.502260226023,0,0
60.983269221675,-21.493849130377,25.306690669067,2658803.4593702,726.42713112147,2795795.0391611,30.506690669067,0,0
60.983269503386,-21.497523268795,25.311121112111,2658803.4593702,726.42713112147,2795795.0391611,30.511121112111,0,0
60.983269785098,-21.501197407213,25.315551555156,2658803.4593702,726.42713112147,2795795.0391611,30.515551555156,0,0
60.98327006681,-21.504871545631,25.3199819982,2658803.4593702,726.42713112147,2795795.0391611,30.5199819982,0,0
60.983270348521,-21.508545684049,25.324412441244,2658803.4593702,726.42713112147,2795795.0391611,30.524412441244,0,0
60.983270630233,-21.512219822467,25.328842884288,2658803.4593702,726.42713112147,2795795.0391611,30.528842884288,0,0
60.983270911945,-21.515893960885,25.333273327333,2658803.4593702,726.42713112147,2795795.0391611,30.533273327333,0,0
60.983271193656,-21.519568099303,25.337703770377,2658803.4593702,726.42713112147,2795795.0391611,30.537703770377,0,0
60.983271475368,-21.523242237721,25.342134213421,2658803.4593702,726.42713112147,2795795.0391611,30.542134213421,0,0
60.983271757079,-21.526916376139,25.346564656466,2658803.4593702,726.42713112147,2795795.0391611,30.546564656466,0,0
60.983272038791,-21.530590514557,25.35099509951,2658803.4593702,726.42713112147,2795795.0391611,30.55099509951,0,0
60.983272320503,-21.534264652975,25.355425542554,2658803.4593702,726.42713112147,2795795.0391611,30.555425542554,0,0
60.983272602214,-21.537938791393,25.359855985599,2658803.4593702,726.42713112147,2795795.0391611,30.559855985599,0,0
60.983272883926,-21.54161292981,25.364286428643,2658803.4593702,726.42713112147,2795795.0391611,30.564286428643,0,0
60.983273165637,-21.545287068228,25.368716871687,2658803.4593702,726.42713112147,2795795.0391611,30.568716871687,0,0
60.983273447349,-21.548961206646,25.373147314731,2658803.4593702,726.42713112147,2795795.0391611,30.573147314731,0,0
60.983273729061,-21.552635345064,25.377577757776,2658803.4593702,726.42713112147,2795795.0391611,30.577577757776,0,0
60.983274010772,-21.556309483482,25.38200820082,2658803.4593702,726.42713112147,2795795.0391611,30.58200820082,0,0
60.983274292484,-21.5599836219,25.386438643864,2658803.4593702,726.42713112147,2795795.0391611,30.586438643864,0,0
60.983274574196,-21.563657760318,25.390869086909,2658803.4593702,726.42713112147,2795795.0391611,30.590869086909,0,0
60.983274855907,-21.567331898736,25.395299529953,2658803.4593702,726.42713112147,2795795.0391611,30.595299529953,0,0
60.983275137619,-21.571006037154,25.399729972997,2658803.4593702,726.42713112147,2795795.0391611,30.599729972997,0,0
60.98327541933,-21.574680175572,25.404160416042,2658803.4593702,726.42713112147,2795795.0391611,30.604160416042,0,0
60.983275701042,-21.57835431399,25.408590859086,2658803.4593702,726.42713112147,2795795.0391611,30.608590859086,0,0
60.983275982754,-21.582028452408,25.41302130213,2658803.4593702,726.42713112147,2795795.0391611,30.61302130213,0,0
60.983276264465,-21.585702590826,25.417451745175,2658803.4593702,726.42713112147,2795795.0391611,30.617451745175,0,0
60.983276546177,-21.589376729244,25.421882188219,2658803.4593702,726.42713112147,2795795.0391611,30.621882188219,0,0
60.983276827889,-21.593050867662,25.426312631263,2658803.4593702,726.42713112147,2795795.0391611,30.626312631263,0,0
60.9832771096,-21.59672500608,25.430743074307,2658803.4593702,726.42713112147,2795795.0391611,30.630743074307,0,0
60.983277391312,-21.600399144498,25.435173517352,2658803.4593702,726.42713112147,2795795.0391611,30.635173517352,0,0
60.983277673023,-21.604073282916,25.439603960396,2658803.4593702,726.42713112147,2795795.0391611,30.639603960396,0,0
60.983277954735,-21.607747421334,25.44403440344,2658803.4593702,726.42713112147,2795795.0391611,30.64403440344,0,0
60.983278236447,-21.611421559752,25.448464846485,2658803.4593702,726.42713112147,2795795.0391611,30.648464846485,0,0
60.983278518158,-21.61509569817,25.452895289529,2658803.4593702,726.42713112147,2795795.0391611,30.652895289529,0,0
60.98327879987,-21.618769836588,25.457325732573,2658803.4593702,726.42713112147,2795795.0391611,30.657325732573,0,0
60.983279081582,-21.622443975006,25.461756175618,2658803.4593702,726.42713112147,2795795.0391611,30.661756175618,0,0
60.983279363293,-21.626118113424,25.466186618662,2658803.4593702,726.42713112147,2795795.0391611,30.666186618662,0,0
60.983279645005,-21.629792251842,25.470617061706,2658803.4593702,726.42713112147,2795795.0391611,30.670617061706,0,0
60.983279926716,-21.63346639026,25.47504750475,2658803.4593702,726.42713112147,2795795.0391611,30.67504750475,0,0
60.983280208428,-21.637140528678,25.479477947795,2658803.4593702,726.42713112147,2795795.0391611,30.679477947795,0,0
60.98328049014,-21.640814667096,25.483908390839,2658803.4593702,726.42713112147,2795795.0391611,30.683908390839,0,0
60.983280771851,-21.644488805514,25.488338833883,2658803.4593702,726.42713112147,2795795.0391611,30.688338833883,0,0
60.983281053563,-21.648162943932,25.492769276928,2658803.4593702,726.42713112147,2795795.0391611,30.692769276928,0,0
60.983281335274,-21.65183708235,25.497199719972,2658803.4593702,726.42713112147,2795795.0391611,30.697199719972,0,0
60.983281616986,-21.655511220768,25.501630163016,2658803.4593702,726.42713112147,2795795.0391611,30.701630163016,0,0
60.983281898698,-21.659185359186,25.506060606061,2658803.4593702,726.42713112147,2795795.0391611,30.706060606061,0,0
60.983282180409,-21.662859497604,25.510491049105,2658803.4593702,726.42713112147,2795795.0391611,30.710491049105,0,0
60.983282462121,-21.666533636022,25.514921492149,2658803.4593702,726.42713112147,2795795.0391611,30.714921492149,0,0
60.983282743833,-21.67020777444,25.519351935194,2658803.4593702,726.42713112147,2795795.0391611,30.719351935194,0,0
60.983283025544,-21.673881912858,25.523782378238,2658803.4593702,726.42713112147,2795795.0391611,30.723782378238,0,0
60.983283307256,-21.677556051276,25.528212821282,2658803.4593702,726.42713112147,2795795.0391611,30.728212821282,0,0
60.983283588967,-21.681230189694,25.532643264326,2658803.4593702,726.42713112147,2795795.0391611,30.732643264326,0,0
60.983283870679,-21.684904328112,25.537073707371,2658803.4593702,726.42713112147,2795795.0391611,30.737073707371,0,0
60.983284152391,-21.68857846653,25.541504150415,2658803.4593702,726.42713112147,2795795.0391611,30.741504150415,0,0
60.983284434102,-21.692252604948,25.545934593459,2658803.4593702,726.42713112147,2795795.0391611,30.745934593459,0,0
60.983284715814,-21.695926743365,25.550365036504,2658803.4593702,726.42713112147,2795795.0391611,30.750365036504,0,0
60.983284997526,-21.699600881783,25.554795479548,2658803.4593702,726.42713112147,2795795.0391611,30.754795479548,0,0
60.983285279237,-21.703275020201,25.559225922592,2658803.4593702,726.42713112147,2795795.0391611,30.759225922592,0,0
60.983285560949,-21.706949158619,25.563656365637,2658803.4593702,726.42713112147,2795795.0391611,30.763656365637,0,0
60.98328584266,-21.710623297037,25.568086808681,2658803.4593702,726.42713112147,2795795.0391611,30.768086808681,0,0
60.983286124372,-21.714297435455,25.572517251725,2658803.4593702,726.42713112147,2795795.0391611,30.772517251725,0,0
60.983286406084,-21.717971573873,25.576947694769,2658803.4593702,726.42713112147,2795795.0391611,30.776947694769,0,0
60.983286687795,-21.721645712291,25.581378137814,2658803.4593702,726.42713112147,2795795.0391611,30.781378137814,0,0
60.983286969507,-21.725319850709,25.585808580858,2658803.4593702,726.42713112147,2795795.0391611,30.785808580858,0,0
60.983287251219,-21.728993989127,25.590239023902,2658803.4593702,726.42713112147,2795795.0391611,30.790239023902,0,0
60.98328753293,-21.732668127545,25.594669466947,2658803.4593702,726.42713112147,2795795.0391611,30.794669466947,0,0
60.983287814642,-21.736342265963,25.599099909991,2658803.4593702,726.42713112147,2795795.0391611,30.799099909991,0,0
60.983288096353,-21.740016404381,25.603530353035,2658803.4593702,726.42713112147,2795795.0391611,30.803530353035,0,0
60.983288378065,-21.743690542799,25.60796079608,2658803.4593702,726.42713112147,2795795.0391611,30.80796079608,0,0
60.983288659777,-21.747364681217,25.612391239124,2658803.4593702,726.42713112147,2795795.0391611,30.812391239124,0,0
60.983288941488,-21.751038819635,25.616821682168,2658803.4593702,726.42713112147,2795795.0391611,30.816821682168,0,0
60.9832892232,-21.754712958053,25.621252125213,2658803.4593702,726.42713112147,2795795.0391611,30.821252125213,0,0
60.983289504911,-21.758387096471,25.625682568257,2658803.4593702,726.42713112147,2795795.0391611,30.825682568257,0,0
60.983289786623,-21.762061234889,25.630113011301,2658803.4593702,726.42713112147,2795795.0391611,30.830113011301,0,0
60.983290068335,-21.765735373307,25.634543454345,2658803.4593702,726.42713112147,2795795.0391611,30.834543454345,0,0
60.983290350046,-21.769409511725,25.63897389739,2658803.4593702,726.42713112147,2795795.0391611,30.83897389739,0,0
60.983290631758,-21.773083650143,25.643404340434,2658803.4593702,726.42713112147,2795795.0391611,30.843404340434,0,0
60.98329091347,-21.776757788561,25.647834783478,2658803.4593702,726.42713112147,2795795.0391611,30.847834783478,0,0
60.983291195181,-21.780431926979,25.652265226523,2658803.4593702,726.42713112147,2795795.0391611,30.852265226523,0,0
60.983291476893,-21.784106065397,25.656695669567,2658803.4593702,726.42713112147,2795795.0391611,30.856695669567,0,0
60.983291758604,-21.787780203815,25.661126112611,2658803.4593702,726.42713112147,2795795.0391611,30.861126112611,0,0
60.983292040316,-21.791454342233,25.665556555656,2658803.4593702,726.42713112147,2795795.0391611,30.865556555656,0,0
60.983292322028,-21.795128480651,25.6699869987,2658803.4593702,726.42713112147,2795795.0391611,30.8699869987,0,0
60.983292603739,-21.798802619069,25.674417441744,2658803.4593702,726.42713112147,2795795.0391611,30.874417441744,0,0
60.983292885451,-21.802476757487,25.678847884788,2658803.4593702,726.42713112147,2795795.0391611,30.878847884788,0,0
60.983293167163,-21.806150895905,25.683278327833,2658803.4593702,726.42713112147,2795795.0391611,30.883278327833,0,0
60.983293448874,-21.809825034323,25.687708770877,2658803.4593702,726.42713112147,2795795.0391611,30.887708770877,0,0
60.983293730586,-21.813499172741,25.692139213921,2658803.4593702,726.42713112147,2795795.0391611,30.892139213921,0,0
60.983294012297,-21.817173311159,25.696569656966,2658803.4593702,726.42713112147,2795795.0391611,30.896569656966,0,0
60.983294294009,-21.820847449577,25.70100010001,2658803.4593702,726.42713112147,2795795.0391611,30.90100010001,0,0
60.983294575721,-21.824521587995,25.705430543054,2658803.4593702,726.42713112147,2795795.0391611,30.905430543054,0,0
60.983294857432,-21.828195726413,25.709860986099,2658803.4593702,726.42713112147,2795795.0391611,30.909860986099,0,0
60.983295139144,-21.831869864831,25.714291429143,2658803.4593702,726.42713112147,2795795.0391611,30.914291429143,0,0
60.983295420856,-21.835544003249,25.718721872187,2658803.4593702,726.42713112147,2795795.0391611,30.918721872187,0,0
60.983295702567,-21.839218141667,25.723152315232,2658803.4593702,726.42713112147,2795795.0391611,30.923152315232,0,0
60.983295984279,-21.842892280085,25.727582758276,2658803.4593702,726.42713112147,2795795.0391611,30.927582758276,0,0
60.98329626599,-21.846566418503,25.73201320132,2658803.4593702,726.42713112147,2795795.0391611,30.93201320132,0,0
60.983296547702,-21.85024055692,25.736443644364,2658803.4593702,726.42713112147,2795795.0391611,30.936443644364,0,0
60.983296829414,-21.853914695338,25.740874087409,2658803.4593702,726.42713112147,2795795.0391611,30.940874087409,0,0
60.983297111125,-21.857588833756,25.745304530453,2658803.4593702,726.42713112147,2795795.0391611,30.945304530453,0,0
60.983297392837,-21.861262972174,25.749734973497,2658803.4593702,726.42713112147,2795795.0391611,30.949734973497,0,0
60.983297674548,-21.864937110592,25.754165416542,2658803.4593702,726.42713112147,2795795.0391611,30.954165416542,0,0
60.98329795626,-21.86861124901,25.758595859586,2658803.4593702,726.42713112147,2795795.0391611,30.958595859586,0,0
60.983298237972,-21.872285387428,25.76302630263,2658803.4593702,726.42713112147,2795795.0391611,30.96302630263,0,0
60.983298519683,-21.875959525846,25.767456745675,2658803.4593702,726.42713112147,2795795.0391611,30.967456745675,0,0
60.983298801395,-21.879633664264,25.771887188719,2658803.4593702,726.42713112147,2795795.0391611,30.971887188719,0,0
60.983299083107,-21.883307802682,25.776317631763,2658803.4593702,726.42713112147,2795795.0391611,30.976317631763,0,0
60.983299364818,-21.8869819411,25.780748074807,2658803.4593702,726.42713112147,2795795.0391611,30.980748074807,0,0
60.98329964653,-21.890656079518,25.785178517852,2658803.4593702,726.42713112147,2795795.0391611,30.985178517852,0,0
60.983299928241,-21.894330217936,25.789608960896,2658803.4593702,726.42713112147,2795795.0391611,30.989608960896,0,0
60.983300209953,-21.898004356354,25.79403940394,2658803.4593702,726.42713112147,2795795.0391611,30.99403940394,0,0
60.983300491665,-21.901678494772,25.798469846985,2658803.4593702,726.42713112147,2795795.0391611,30.998469846985,0,0
60.983300773376,-21.90535263319,25.802900290029,2658803.4593702,726.42713112147,2795795.0391611,31.002900290029,0,0
60.983301055088,-21.909026771608,25.807330733073,2658803.4593702,726.42713112147,2795795.0391611,31.007330733073,0,0
60.9833013368,-21.912700910026,25.811761176118,2658803.4593702,726.42713112147,2795795.0391611,31.011761176118,0,0
60.983301618511,-21.916375048444,25.816191619162,2658803.4593702,726.42713112147,2795795.0391611,31.016191619162,0,0
60.983301900223,-21.920049186862,25.820622062206,2658803.4593702,726.42713112147,2795795.0391611,31.020622062206,0,0
60.983302181934,-21.92372332528,25.825052505251,2658803.4593702,726.42713112147,2795795.0391611,31.025052505251,0,0
60.983302463646,-21.927397463698,25.829482948295,2658803.4593702,726.42713112147,2795795.0391611,31.029482948295,0,0
60.983302745358,-21.931071602116,25.833913391339,2658803.4593702,726.42713112147,2795795.0391611,31.033913391339,0,0
60.983303027069,-21.934745740534,25.838343834383,2658803.4593702,726.42713112147,2795795.0391611,31.038343834383,0,0
60.983303308781,-21.938419878952,25.842774277428,2658803.4593702,726.42713112147,2795795.0391611,31.042774277428,0,0
60.983303590493,-21.94209401737,25.847204720472,2658803.4593702,726.42713112147,2795795.0391611,31.047204720472,0,0
60.983303872204,-21.945768155788,25.851635163516,2658803.4593702,726.42713112147,2795795.0391611,31.051635163516,0,0
60.983304153916,-21.949442294206,25.856065606561,2658803.4593702,726.42713112147,2795795.0391611,31.056065606561,0,0
60.983304435627,-21.953116432624,25.860496049605,2658803.4593702,726.42713112147,2795795.0391611,31.060496049605,0,0
60.983304717339,-21.956790571042,25.864926492649,2658803.4593702,726.42713112147,2795795.0391611,31.064926492649,0,0
60.983304999051,-21.96046470946,25.869356935694,2658803.4593702,726.42713112147,2795795.0391611,31.069356935694,0,0
60.983305280762,-21.964138847878,25.873787378738,2658803.4593702,726.42713112147,2795795.0391611,31.073787378738,0,0
60.983305562474,-21.967812986296,25.878217821782,2658803.4593702,726.42713112147,2795795.0391611,31.078217821782,0,0
60.983305844185,-21.971487124714,25.882648264826,2658803.4593702,726.42713112147,2795795.0391611,31.082648264826,0,0
60.983306125897,-21.975161263132,25.887078707871,2658803.4593702,726.42713112147,2795795.0391611,31.087078707871,0,0
60.983306407609,-21.97883540155,25.891509150915,2658803.4593702,726.42713112147,2795795.0391611,31.091509150915,0,0
60.98330668932,-21.982509539968,25.895939593959,2658803.4593702,726.42713112147,2795795.0391611,31.095939593959,0,0
60.983306971032,-21.986183678386,25.900370037004,2658803.4593702,726.42713112147,2795795.0391611,31.100370037004,0,0
60.983307252744,-21.989857816804,25.904800480048,2658803.4593702,726.42713112147,2795795.0391611,31.104800480048,0,0
60.983307534455,-21.993531955222,25.909230923092,2658803.4593702,726.42713112147,2795795.0391611,31.109230923092,0,0
60.983307816167,-21.99720609364,25.913661366137,2658803.4593702,726.42713112147,2795795.0391611,31.113661366137,0,0
60.983308097878,-22.000880232057,25.918091809181,2658803.4593702,726.42713112147,2795795.0391611,31.118091809181,0,0
60.98330837959,-22.004554370475,25.922522252225,2658803.4593702,726.42713112147,2795795.0391611,31.122522252225,0,0
60.983308661302,-22.008228508893,25.92695269527,2658803.4593702,726.42713112147,2795795.0391611,31.12695269527,0,0
60.983308943013,-22.011902647311,25.931383138314,2658803.4593702,726.42713112147,2795795.0391611,31.131383138314,0,0
60.983309224725,-22.015576785729,25.935813581358,2658803.4593702,726.42713112147,2795795.0391611,31.135813581358,0,0
60.983309506437,-22.019250924147,25.940244024402,2658803.4593702,726.42713112147,2795795.0391611,31.140244024402,0,0
60.983309788148,-22.022925062565,25.944674467447,2658803.4593702,726.42713112147,2795795.0391611,31.144674467447,0,0
60.98331006986,-22.026599200983,25.949104910491,2658803.4593702,726.42713112147,2795795.0391611,31.149104910491,0,0
60.983310351571,-22.030273339401,25.953535353535,2658803.4593702,726.42713112147,2795795.0391611,31.153535353535,0,0
60.983310633283,-22.033947477819,25.95796579658,2658803.4593702,726.42713112147,2795795.0391611,31.15796579658,0,0
60.983310914995,-22.037621616237,25.962396239624,2658803.4593702,726.42713112147,2795795.0391611,31.162396239624,0,0
60.983311196706,-22.041295754655,25.966826682668,2658803.4593702,726.42713112147,2795795.0391611,31.166826682668,0,0
60.983311478418,-22.044969893073,25.971257125713,2658803.4593702,726.42713112147,2795795.0391611,31.171257125713,0,0
60.98331176013,-22.048644031491,25.975687568757,2658803.4593702,726.42713112147,2795795.0391611,31.175687568757,0,0
60.983312041841,-22.052318169909,25.980118011801,2658803.4593702,726.42713112147,2795795.0391611,31.180118011801,0,0
60.983312323553,-22.055992308327,25.984548454845,2658803.4593702,726.42713112147,2795795.0391611,31.184548454845,0,0
60.983312605264,-22.059666446745,25.98897889789,2658803.4593702,726.42713112147,2795795.0391611,31.18897889789,0,0
60.983312886976,-22.063340585163,25.993409340934,2658803.4593702,726.42713112147,2795795.0391611,31.193409340934,0,0
60.983313168688,-22.067014723581,25.997839783978,2658803.4593702,726.42713112147,2795795.0391611,31.197839783978,0,0
60.983313450399,-22.070688861999,26.002270227023,2658803.4593702,726.42713112147,2795795.0391611,31.202270227023,0,0
60.983313732111,-22.074363000417,26.006700670067,2658803.4593702,726.42713112147,2795795.0391611,31.206700670067,0,0
60.983314013822,-22.078037138835,26.011131113111,2658803.4593702,726.42713112147,2795795.0391611,31.211131113111,0,0
60.983314295534,-22.081711277253,26.015561556156,2658803.4593702,726.42713112147,2795795.0391611,31.215561556156,0,0
60.983314577246,-22.085385415671,26.0199919992,2658803.4593702,726.42713112147,2795795.0391611,31.2199919992,0,0
60.983314858957,-22.089059554089,26.024422442244,2658803.4593702,726.42713112147,2795795.0391611,31.224422442244,0,0
60.983315141032,-22.092733692139,26.028852885289,2664783.1464701,1928.063912311,2794447.4160465,31.228852885289,0,0
60.983315423257,-22.096407830038,26.033283328333,2664783.1464701,1928.063912311,2794447.4160465,31.233283328333,0,0
60.983315705482,-22.100081967936,26.037713771377,2664783.1464701,1928.063912311,2794447.4160465,31.237713771377,0,0
60.983315987707,-22.103756105834,26.042144214421,2664783.1464701,1928.063912311,2794447.4160465,31.242144214421,0,0
60.983316269933,-22.107430243733,26.046574657466,2664783.1464701,1928.063912311,2794447.4160465,31.246574657466,0,0
60.983316552158,-22.111104381631,26.05100510051,2664783.1464701,1928.063912311,2794447.4160465,31.25100510051,0,0
60.983316834383,-22.114778519529,26.055435543554,2664783.1464701,1928.063912311,2794447.4160465,31.255435543554,0,0
60.983317116608,-22.118452657428,26.059865986599,2664783.1464701,1928.063912311,2794447.4160465,31.259865986599,0,0
60.983317398833,-22.122126795326,26.064296429643,2664783.1464701,1928.063912311,2794447.4160465,31.264296429643,0,0
60.983317681058,-22.125800933224,26.068726872687,2664783.1464701,1928.063912311,2794447.4160465,31.268726872687,0,0
60.983317963283,-22.129475071123,26.073157315732,2664783.1464701,1928.063912311,2794447.4160465,31.273157315732,0,0
60.983318245509,-22.133149209021,26.077587758776,2664783.1464701,1928.063912311,2794447.4160465,31.277587758776,0,0
60.983318527734,-22.136823346919,26.08201820182,2664783.1464701,1928.063912311,2794447.4160465,31.28201820182,0,0
60.983318809959,-22.140497484818,26.086448644864,2664783.1464701,1928.063912311,2794447.4160465,31.286448644864,0,0
60.983319092184,-22.144171622716,26.090879087909,2664783.1464701,1928.063912311,2794447.4160465,31.290879087909,0,0
60.983319374409,-22.147845760614,26.095309530953,2664783.1464701,1928.063912311,2794447.4160465,31.295309530953,0,0
60.983319656634,-22.151519898513,26.099739973997,2664783.1464701,1928.063912311,2794447.4160465,31.299739973997,0,0
60.983319938859,-22.155194036411,26.104170417042,2664783.1464701,1928.063912311,2794447.4160465,31.304170417042,0,0
60.983320221084,-22.158868174309,26.108600860086,2664783.1464701,1928.063912311,2794447.4160465,31.308600860086,0,0
60.98332050331,-22.162542312208,26.11303130313,2664783.1464701,1928.063912311,2794447.4160465,31.31303130313,0,0
60.983320785535,-22.166216450106,26.117461746175,2664783.1464701,1928.063912311,2794447.4160465,31.317461746175,0,0
60.98332106776,-22.169890588004,26.121892189219,2664783.1464701,1928.063912311,2794447.4160465,31.321892189219,0,0
60.983321349985,-22.173564725903,26.126322632263,2664783.1464701,1928.063912311,2794447.4160465,31.326322632263,0,0
60.98332163221,-22.177238863801,26.130753075308,2664783.1464701,1928.063912311,2794447.4160465,31.330753075308,0,0
60.983321914435,-22.180913001699,26.135183518352,2664783.1464701,1928.063912311,2794447.4160465,31.335183518352,0,0
60.98332219666,-22.184587139598,26.139613961396,2664783.1464701,1928.063912311,2794447.4160465,31.339613961396,0,0
60.983322478886,-22.188261277496,26.14404440444,2664783.1464701,1928.063912311,2794447.4160465,31.34404440444,0,0
60.983322761111,-22.191935415394,26.148474847485,2664783.1464701,1928.063912311,2794447.4160465,31.348474847485,0,0
60.983323043336,-22.195609553292,26.152905290529,2664783.1464701,1928.063912311,2794447.4160465,31.352905290529,0,0
60.983323325561,-22.199283691191,26.157335733573,2664783.1464701,1928.063912311,2794447.4160465,31.357335733573,0,0
60.983323607786,-22.202957829089,26.161766176618,2664783.1464701,1928.063912311,2794447.4160465,31.361766176618,0,0
60.983323890011,-22.206631966987,26.166196619662,2664783.1464701,1928.063912311,2794447.4160465,31.366196619662,0,0
60.983324172236,-22.210306104886,26.170627062706,2664783.1464701,1928.063912311,2794447.4160465,31.370627062706,0,0
60.983324454461,-22.213980242784,26.175057505751,2664783.1464701,1928.063912311,2794447.4160465,31.375057505751,0,0
60.983324736687,-22.217654380682,26.179487948795,2664783.1464701,1928.063912311,2794447.4160465,31.379487948795,0,0
60.983325018912,-22.221328518581,26.183918391839,2664783.1464701,1928.063912311,2794447.4160465,31.383918391839,0,0
60.983325301137,-22.225002656479,26.188348834883,2664783.1464701,1928.063912311,2794447.4160465,31.388348834883,0,0
60.983325583362,-22.228676794377,26.192779277928,2664783.1464701,1928.063912311,2794447.4160465,31.392779277928,0,0
60.983325865587,-22.232350932276,26.197209720972,2664783.1464701,1928.063912311,2794447.4160465,31.397209720972,0,0
60.983326147812,-22.236025070174,26.201640164016,2664783.1464701,1928.063912311,2794447.4160465,31.401640164016,0,0
60.983326430037,-22.239699208072,26.206070607061,2664783.1464701,1928.063912311,2794447.4160465,31.406070607061,0,0
60.983326712263,-22.243373345971,26.210501050105,2664783.1464701,1928.063912311,2794447.4160465,31.410501050105,0,0
60.983326994488,-22.247047483869,26.214931493149,2664783.1464701,1928.063912311,2794447.4160465,31.414931493149,0,0
60.983327276713,-22.250721621767,26.219361936194,2664783.1464701,1928.063912311,2794447.4160465,31.419361936194,0,0
60.983327558938,-22.254395759666,26.223792379238,2664783.1464701,1928.063912311,2794447.4160465,31.423792379238,0,0
60.983327841163,-22.258069897564,26.228222822282,2664783.1464701,1928.063912311,2794447.4160465,31.428222822282,0,0
60.983328123388,-22.261744035462,26.232653265327,2664783.1464701,1928.063912311,2794447.4160465,31.432653265327,0,0
60.983328405613,-22.265418173361,26.237083708371,2664783.1464701,1928.063912311,2794447.4160465,31.437083708371,0,0
60.983328687838,-22.269092311259,26.241514151415,2664783.1464701,1928.063912311,2794447.4160465,31.441514151415,0,0
60.983328970064,-22.272766449157,26.245944594459,2664783.1464701,1928.063912311,2794447.4160465,31.445944594459,0,0
60.983329252287,-22.276440587199,26.250375037504,2661855.4496268,-580.8981831933,2785864.8884476,31.450375037504,0,0
60.983329534507,-22.280114725625,26.254805480548,2661855.4496268,-580.8981831933,2785864.8884476,31.454805480548,0,0
60.983329816727,-22.283788864052,26.259235923592,2661855.4496268,-580.8981831933,2785864.8884476,31.459235923592,0,0
60.983330098947,-22.287463002478,26.263666366637,2661855.4496268,-580.8981831933,2785864.8884476,31.463666366637,0,0
60.983330381166,-22.291137140905,26.268096809681,2661855.4496268,-580.8981831933,2785864.8884476,31.468096809681,0,0
60.983330663386,-22.294811279332,26.272527252725,2661855.4496268,-580.8981831933,2785864.8884476,31.472527252725,0,0
60.983330945606,-22.298485417758,26.27695769577,2661855.4496268,-580.8981831933,2785864.8884476,31.47695769577,0,0
60.983331227826,-22.302159556185,26.281388138814,2661855.4496268,-580.8981831933,2785864.8884476,31.481388138814,0,0
60.983331510046,-22.305833694611,26.285818581858,2661855.4496268,-580.8981831933,2785864.8884476,31.485818581858,0,0
60.983331792265,-22.309507833038,26.290249024902,2661855.4496268,-580.8981831933,2785864.8884476,31.490249024902,0,0
60.983332074485,-22.313181971464,26.294679467947,2661855.4496268,-580.8981831933,2785864.8884476,31.494679467947,0,0
60.983332356705,-22.316856109891,26.299109910991,2661855.4496268,-580.8981831933,2785864.8884476,31.499109910991,0,0
60.983332638925,-22.320530248318,26.303540354035,2661855.4496268,-580.8981831933,2785864.8884476,31.503540354035,0,0
60.983332921145,-22.324204386744,26.30797079708,2661855.4496268,-580.8981831933,2785864.8884476,31.50797079708,0,0
60.983333203364,-22.327878525171,26.312401240124,2661855.4496268,-580.8981831933,2785864.8884476,31.512401240124,0,0
60.983333485584,-22.331552663597,26.316831683168,2661855.4496268,-580.8981831933,2785864.8884476,31.516831683168,0,0
60.983333767804,-22.335226802024,26.321262126213,2661855.4496268,-580.8981831933,2785864.8884476,31.521262126213,0,0
60.983334050024,-22.338900940451,26.325692569257,2661855.4496268,-580.8981831933,2785864.8884476,31.525692569257,0,0
60.983334332244,-22.342575078877,26.330123012301,2661855.4496268,-580.8981831933,2785864.8884476,31.530123012301,0,0
60.983334614463,-22.346249217304,26.334553455346,2661855.4496268,-580.8981831933,2785864.8884476,31.534553455346,0,0
60.983334896683,-22.34992335573,26.33898389839,2661855.4496268,-580.8981831933,2785864.8884476,31.53898389839,0,0
60.983335178903,-22.353597494157,26.343414341434,2661855.4496268,-580.8981831933,2785864.8884476,31.543414341434,0,0
60.983335461123,-22.357271632584,26.347844784478,2661855.4496268,-580.8981831933,2785864.8884476,31.547844784478,0,0
60.983335743343,-22.36094577101,26.352275227523,2661855.4496268,-580.8981831933,2785864.8884476,31.552275227523,0,0
60.983336025562,-22.364619909437,26.356705670567,2661855.4496268,-580.8981831933,2785864.8884476,31.556705670567,0,0
60.983336307782,-22.368294047863,26.361136113611,2661855.4496268,-580.8981831933,2785864.8884476,31.561136113611,0,0
60.983336590002,-22.37196818629,26.365566556656,2661855.4496268,-580.8981831933,2785864.8884476,31.565566556656,0,0
60.983336872222,-22.375642324717,26.3699969997,2661855.4496268,-580.8981831933,2785864.8884476,31.5699969997,0,0
60.983337154442,-22.379316463143,26.374427442744,2661855.4496268,-580.8981831933,2785864.8884476,31.574427442744,0,0
60.983337436661,-22.38299060157,26.378857885789,2661855.4496268,-580.8981831933,2785864.8884476,31.578857885789,0,0
60.983337718881,-22.386664739996,26.383288328833,2661855.4496268,-580.8981831933,2785864.8884476,31.583288328833,0,0
60.983338001101,-22.390338878423,26.387718771877,2661855.4496268,-580.8981831933,2785864.8884476,31.587718771877,0,0
60.983338283321,-22.39401301685,26.392149214921,2661855.4496268,-580.8981831933,2785864.8884476,31.592149214921,0,0
60.98333856554,-22.397687155276,26.396579657966,2661855.4496268,-580.8981831933,2785864.8884476,31.596579657966,0,0
60.98333884776,-22.401361293703,26.40101010101,2661855.4496268,-580.8981831933,2785864.8884476,31.60101010101,0,0
60.98333912998,-22.405035432129,26.405440544054,2661855.4496268,-580.8981831933,2785864.8884476,31.605440544054,0,0
60.9833394122,-22.408709570556,26.409870987099,2661855.4496268,-580.8981831933,2785864.8884476,31.609870987099,0,0
60.98333969442,-22.412383708983,26.414301430143,2661855.4496268,-580.8981831933,2785864.8884476,31.614301430143,0,0
60.983339976639,-22.416057847409,26.418731873187,2661855.4496268,-580.8981831933,2785864.8884476,31.618731873187,0,0
60.983340258859,-22.419731985836,26.423162316232,2661855.4496268,-580.8981831933,2785864.8884476,31.623162316232,0,0
60.983340541079,-22.423406124262,26.427592759276,2661855.4496268,-580.8981831933,2785864.8884476,31.627592759276,0,0
60.983340823299,-22.427080262689,26.43202320232,2661855.4496268,-580.8981831933,2785864.8884476,31.63202320232,0,0
60.983341105519,-22.430754401116,26.436453645365,2661855.4496268,-580.8981831933,2785864.8884476,31.636453645365,0,0
60.983341387738,-22.434428539542,26.440884088409,2661855.4496268,-580.8981831933,2785864.8884476,31.640884088409,0,0
60.983341669958,-22.438102677969,26.445314531453,2661855.4496268,-580.8981831933,2785864.8884476,31.645314531453,0,0
60.983341952178,-22.441776816395,26.449744974497,2661855.4496268,-580.8981831933,2785864.8884476,31.649744974497,0,0
60.983342234398,-22.445450954822,26.454175417542,2661855.4496268,-580.8981831933,2785864.8884476,31.654175417542,0,0
60.983342516618,-22.449125093249,26.458605860586,2661855.4496268,-580.8981831933,2785864.8884476,31.658605860586,0,0
60.983342798837,-22.452799231675,26.46303630363,2661855.4496268,-580.8981831933,2785864.8884476,31.66303630363,0,0
60.983343081057,-22.456473370102,26.467466746675,2661855.4496268,-580.8981831933,2785864.8884476,31.667466746675,0,0
60.983343363277,-22.460147508528,26.471897189719,2661855.4496268,-580.8981831933,2785864.8884476,31.671897189719,0,0
60.983343645497,-22.463821646955,26.476327632763,2661855.4496268,-580.8981831933,2785864.8884476,31.676327632763,0,0
60.983343927717,-22.467495785382,26.480758075808,2661855.4496268,-580.8981831933,2785864.8884476,31.680758075808,0,0
60.983344209936,-22.471169923808,26.485188518852,2661855.4496268,-580.8981831933,2785864.8884476,31.685188518852,0,0
60.983344492156,-22.474844062235,26.489618961896,2661855.4496268,-580.8981831933,2785864.8884476,31.689618961896,0,0
60.983344774376,-22.478518200661,26.49404940494,2661855.4496268,-580.8981831933,2785864.8884476,31.69404940494,0,0
60.983345056596,-22.482192339088,26.498479847985,2661855.4496268,-580.8981831933,2785864.8884476,31.698479847985,0,0
60.983345338816,-22.485866477515,26.502910291029,2661855.4496268,-580.8981831933,2785864.8884476,31.702910291029,0,0
60.983345621035,-22.489540615941,26.507340734073,2661855.4496268,-580.8981831933,2785864.8884476,31.707340734073,0,0
60.983345903255,-22.493214754368,26.511771177118,2661855.4496268,-580.8981831933,2785864.8884476,31.711771177118,0,0
60.983346185475,-22.496888892794,26.516201620162,2661855.4496268,-580.8981831933,2785864.8884476,31.716201620162,0,0
60.983346467695,-22.500563031221,26.520632063206,2661855.4496268,-580.8981831933,2785864.8884476,31.720632063206,0,0
60.983346749914,-22.504237169648,26.525062506251,2661855.4496268,-580.8981831933,2785864.8884476,31.725062506251,0,0
60.983347032134,-22.507911308074,26.529492949295,2661855.4496268,-580.8981831933,2785864.8884476,31.729492949295,0,0
60.983347314354,-22.511585446501,26.533923392339,2661855.4496268,-580.8981831933,2785864.8884476,31.733923392339,0,0
60.983347596574,-22.515259584927,26.538353835384,2661855.4496268,-580.8981831933,2785864.8884476,31.738353835384,0,0
60.983347878794,-22.518933723354,26.542784278428,2661855.4496268,-580.8981831933,2785864.8884476,31.742784278428,0,0
60.983348161013,-22.52260786178,26.547214721472,2661855.4496268,-580.8981831933,2785864.8884476,31.747214721472,0,0
60.983348443233,-22.526282000207,26.551645164516,2661855.4496268,-580.8981831933,2785864.8884476,31.751645164516,0,0
60.983348725453,-22.529956138634,26.556075607561,2661855.4496268,-580.8981831933,2785864.8884476,31.756075607561,0,0
60.983349007673,-22.53363027706,26.560506050605,2661855.4496268,-580.8981831933,2785864.8884476,31.760506050605,0,0
60.983349289893,-22.537304415487,26.564936493649,2661855.4496268,-580.8981831933,2785864.8884476,31.764936493649,0,0
60.983349572112,-22.540978553913,26.569366936694,2661855.4496268,-580.8981831933,2785864.8884476,31.769366936694,0,0
60.983349854332,-22.54465269234,26.573797379738,2661855.4496268,-580.8981831933,2785864.8884476,31.773797379738,0,0
60.983350136552,-22.548326830767,26.578227822782,2661855.4496268,-580.8981831933,2785864.8884476,31.778227822782,0,0
60.983350418772,-22.552000969193,26.582658265827,2661855.4496268,-580.8981831933,2785864.8884476,31.782658265827,0,0
60.983350700992,-22.55567510762,26.587088708871,2661855.4496268,-580.8981831933,2785864.8884476,31.787088708871,0,0
60.983350983211,-22.559349246046,26.591519151915,2661855.4496268,-580.8981831933,2785864.8884476,31.791519151915,0,0
60.983351265431,-22.563023384473,26.595949594959,2661855.4496268,-580.8981831933,2785864.8884476,31.795949594959,0,0
60.983351547651,-22.5666975229,26.600380038004,2661855.4496268,-580.8981831933,2785864.8884476,31.800380038004,0,0
60.983351829871,-22.570371661326,26.604810481048,2661855.4496268,-580.8981831933,2785864.8884476,31.804810481048,0,0
60.983352112091,-22.574045799753,26.609240924092,2661855.4496268,-580.8981831933,2785864.8884476,31.809240924092,0,0
60.98335239431,-22.577719938179,26.613671367137,2661855.4496268,-580.8981831933,2785864.8884476,31.813671367137,0,0
60.98335267653,-22.581394076606,26.618101810181,2661855.4496268,-580.8981831933,2785864.8884476,31.818101810181,0,0
60.98335295875,-22.585068215033,26.622532253225,2661855.4496268,-580.8981831933,2785864.8884476,31.822532253225,0,0
60.98335324097,-22.588742353459,26.62696269627,2661855.4496268,-580.8981831933,2785864.8884476,31.82696269627,0,0
60.98335352319,-22.592416491886,26.631393139314,2661855.4496268,-580.8981831933,2785864.8884476,31.831393139314,0,0
60.983353805409,-22.596090630312,26.635823582358,2661855.4496268,-580.8981831933,2785864.8884476,31.835823582358,0,0
60.983354087629,-22.599764768739,26.640254025403,2661855.4496268,-580.8981831933,2785864.8884476,31.840254025403,0,0
60.983354369849,-22.603438907166,26.644684468447,2661855.4496268,-580.8981831933,2785864.8884476,31.844684468447,0,0
60.983354652069,-22.607113045592,26.649114911491,2661855.4496268,-580.8981831933,2785864.8884476,31.849114911491,0,0
60.983354934288,-22.610787184019,26.653545354535,2661855.4496268,-580.8981831933,2785864.8884476,31.853545354535,0,0
60.983355216508,-22.614461322445,26.65797579758,2661855.4496268,-580.8981831933,2785864.8884476,31.85797579758,0,0
60.983355498728,-22.618135460872,26.662406240624,2661855.4496268,-580.8981831933,2785864.8884476,31.862406240624,0,0
60.983355780948,-22.621809599299,26.666836683668,2661855.4496268,-580.8981831933,2785864.8884476,31.866836683668,0,0
60.983356063168,-22.625483737725,26.671267126713,2661855.4496268,-580.8981831933,2785864.8884476,31.871267126713,0,0
60.983356345387,-22.629157876152,26.675697569757,2661855.4496268,-580.8981831933,2785864.8884476,31.875697569757,0,0
60.983356627607,-22.632832014578,26.680128012801,2661855.4496268,-580.8981831933,2785864.8884476,31.880128012801,0,0
60.983356909827,-22.636506153005,26.684558455846,2661855.4496268,-580.8981831933,2785864.8884476,31.884558455846,0,0
60.983357192047,-22.640180291432,26.68898889889,2661855.4496268,-580.8981831933,2785864.8884476,31.88898889889,0,0
60.983357474267,-22.643854429858,26.693419341934,2661855.4496268,-580.8981831933,2785864.8884476,31.893419341934,0,0
60.983357756486,-22.647528568285,26.697849784978,2661855.4496268,-580.8981831933,2785864.8884476,31.897849784978,0,0
60.983358038706,-22.651202706711,26.702280228023,2661855.4496268,-580.8981831933,2785864.8884476,31.902280228023,0,0
60.983358320926,-22.654876845138,26.706710671067,2661855.4496268,-580.8981831933,2785864.8884476,31.906710671067,0,0
60.983358603146,-22.658550983565,26.711141114111,2661855.4496268,-580.8981831933,2785864.8884476,31.911141114111,0,0
60.983358885366,-22.662225121991,26.715571557156,2661855.4496268,-580.8981831933,2785864.8884476,31.915571557156,0,0
60.983359167585,-22.665899260418,26.7200020002,2661855.4496268,-580.8981831933,2785864.8884476,31.9200020002,0,0
60.983359449805,-22.669573398844,26.724432443244,2661855.4496268,-580.8981831933,2785864.8884476,31.924432443244,0,0
60.983359732025,-22.673247537271,26.728862886289,2661855.4496268,-580.8981831933,2785864.8884476,31.928862886289,0,0
60.983360014245,-22.676921675698,26.733293329333,2661855.4496268,-580.8981831933,2785864.8884476,31.933293329333,0,0
60.983360296465,-22.680595814124,26.737723772377,2661855.4496268,-580.8981831933,2785864.8884476,31.937723772377,0,0
60.983360578684,-22.684269952551,26.742154215422,2661855.4496268,-580.8981831933,2785864.8884476,31.942154215422,0,0
60.983360860904,-22.687944090977,26.746584658466,2661855.4496268,-580.8981831933,2785864.8884476,31.946584658466,0,0
60.983361143124,-22.691618229404,26.75101510151,2661855.4496268,-580.8981831933,2785864.8884476,31.95101510151,0,0
60.983361425344,-22.695292367831,26.755445544554,2661855.4496268,-580.8981831933,2785864.8884476,31.955445544554,0,0
60.983361707564,-22.698966506257,26.759875987599,2661855.4496268,-580.8981831933,2785864.8884476,31.959875987599,0,0
60.983361989783,-22.702640644684,26.764306430643,2661855.4496268,-580.8981831933,2785864.8884476,31.964306430643,0,0
60.983362272003,-22.70631478311,26.768736873687,2661855.4496268,-580.8981831933,2785864.8884476,31.968736873687,0,0
60.983362554223,-22.709988921537,26.773167316732,2661855.4496268,-580.8981831933,2785864.8884476,31.973167316732,0,0
60.983362836443,-22.713663059964,26.777597759776,2661855.4496268,-580.8981831933,2785864.8884476,31.977597759776,0,0
60.983363118663,-22.71733719839,26.78202820282,2661855.4496268,-580.8981831933,2785864.8884476,31.98202820282,0,0
60.983363400882,-22.721011336817,26.786458645865,2661855.4496268,-580.8981831933,2785864.8884476,31.986458645865,0,0
60.983363683102,-22.724685475243,26.790889088909,2661855.4496268,-580.8981831933,2785864.8884476,31.990889088909,0,0
60.983363965322,-22.72835961367,26.795319531953,2661855.4496268,-580.8981831933,2785864.8884476,31.995319531953,0,0
60.983364247542,-22.732033752096,26.799749974997,2661855.4496268,-580.8981831933,2785864.8884476,31.999749974997,0,0
60.983364529761,-22.735707890523,26.804180418042,2661855.4496268,-580.8981831933,2785864.8884476,32.004180418042,0,0
60.983364811981,-22.73938202895,26.808610861086,2661855.4496268,-580.8981831933,2785864.8884476,32.008610861086,0,0
60.983365094201,-22.743056167376,26.81304130413,2661855.4496268,-580.8981831933,2785864.8884476,32.01304130413,0,0
60.983365376421,-22.746730305803,26.817471747175,2661855.4496268,-580.8981831933,2785864.8884476,32.017471747175,0,0
60.983365658641,-22.750404444229,26.821902190219,2661855.4496268,-580.8981831933,2785864.8884476,32.021902190219,0,0
60.98336594086,-22.754078582656,26.826332633263,2661855.4496268,-580.8981831933,2785864.8884476,32.026332633263,0,0
60.98336622308,-22.757752721083,26.830763076308,2661855.4496268,-580.8981831933,2785864.8884476,32.030763076308,0,0
60.9833665053,-22.761426859509,26.835193519352,2661855.4496268,-580.8981831933,2785864.8884476,32.035193519352,0,0
60.98336678752,-22.765100997936,26.839623962396,2661855.4496268,-580.8981831933,2785864.8884476,32.039623962396,0,0
60.98336706974,-22.768775136362,26.844054405441,2661855.4496268,-580.8981831933,2785864.8884476,32.044054405441,0,0
60.983367351959,-22.772449274789,26.848484848485,2661855.4496268,-580.8981831933,2785864.8884476,32.048484848485,0,0
60.983367634179,-22.776123413216,26.852915291529,2661855.4496268,-580.8981831933,2785864.8884476,32.052915291529,0,0
60.983367916399,-22.779797551642,26.857345734573,2661855.4496268,-580.8981831933,2785864.8884476,32.057345734573,0,0
60.983368198619,-22.783471690069,26.861776177618,2661855.4496268,-580.8981831933,2785864.8884476,32.061776177618,0,0
60.983368480839,-22.787145828495,26.866206620662,2661855.4496268,-580.8981831933,2785864.8884476,32.066206620662,0,0
60.983368763058,-22.790819966922,26.870637063706,2661855.4496268,-580.8981831933,2785864.8884476,32.070637063706,0,0
60.983369045278,-22.794494105349,26.875067506751,2661855.4496268,-580.8981831933,2785864.8884476,32.075067506751,0,0
60.983369327498,-22.798168243775,26.879497949795,2661855.4496268,-580.8981831933,2785864.8884476,32.079497949795,0,0
60.983369609718,-22.801842382202,26.883928392839,2661855.4496268,-580.8981831933,2785864.8884476,32.083928392839,0,0
60.983369891938,-22.805516520628,26.888358835884,2661855.4496268,-580.8981831933,2785864.8884476,32.088358835884,0,0
60.983370174157,-22.809190659055,26.892789278928,2661855.4496268,-580.8981831933,2785864.8884476,32.092789278928,0,0
60.983370456377,-22.812864797482,26.897219721972,2661855.4496268,-580.8981831933,2785864.8884476,32.097219721972,0,0
60.983370738597,-22.816538935908,26.901650165017,2661855.4496268,-580.8981831933,2785864.8884476,32.101650165017,0,0
60.983371020817,-22.820213074335,26.906080608061,2661855.4496268,-580.8981831933,2785864.8884476,32.106080608061,0,0
60.983371303037,-22.823887212761,26.910511051105,2661855.4496268,-580.8981831933,2785864.8884476,32.110511051105,0,0
60.983371585256,-22.827561351188,26.914941494149,2661855.4496268,-580.8981831933,2785864.8884476,32.114941494149,0,0
60.983371867476,-22.831235489615,26.919371937194,2661855.4496268,-580.8981831933,2785864.8884476,32.119371937194,0,0
60.983372149696,-22.834909628041,26.923802380238,2661855.4496268,-580.8981831933,2785864.8884476,32.123802380238,0,0
60.983372431916,-22.838583766468,26.928232823282,2661855.4496268,-580.8981831933,2785864.8884476,32.128232823282,0,0
60.983372714135,-22.842257904894,26.932663266327,2661855.4496268,-580.8981831933,2785864.8884476,32.132663266327,0,0
60.983372996355,-22.845932043321,26.937093709371,2661855.4496268,-580.8981831933,2785864.8884476,32.137093709371,0,0
60.983373278575,-22.849606181748,26.941524152415,2661855.4496268,-580.8981831933,2785864.8884476,32.141524152415,0,0
60.983373560795,-22.853280320174,26.94595459546,2661855.4496268,-580.8981831933,2785864.8884476,32.14595459546,0,0
60.983373843015,-22.856954458601,26.950385038504,2661855.4496268,-580.8981831933,2785864.8884476,32.150385038504,0,0
60.983374125234,-22.860628597027,26.954815481548,2661855.4496268,-580.8981831933,2785864.8884476,32.154815481548,0,0
60.983374407454,-22.864302735454,26.959245924592,2661855.4496268,-580.8981831933,2785864.8884476,32.159245924592,0,0
60.983374689674,-22.867976873881,26.963676367637,2661855.4496268,-580.8981831933,2785864.8884476,32.163676367637,0,0
60.983374971894,-22.871651012307,26.968106810681,2661855.4496268,-580.8981831933,2785864.8884476,32.168106810681,0,0
60.983375254114,-22.875325150734,26.972537253725,2661855.4496268,-580.8981831933,2785864.8884476,32.172537253725,0,0
60.983375536333,-22.87899928916,26.97696769677,2661855.4496268,-580.8981831933,2785864.8884476,32.17696769677,0,0
60.983375818553,-22.882673427587,26.981398139814,2661855.4496268,-580.8981831933,2785864.8884476,32.181398139814,0,0
60.983376100773,-22.886347566014,26.985828582858,2661855.4496268,-580.8981831933,2785864.8884476,32.185828582858,0,0
60.983376382993,-22.89002170444,26.990259025903,2661855.4496268,-580.8981831933,2785864.8884476,32.190259025903,0,0
60.983376665213,-22.893695842867,26.994689468947,2661855.4496268,-580.8981831933,2785864.8884476,32.194689468947,0,0
60.983376947432,-22.897369981293,26.999119911991,2661855.4496268,-580.8981831933,2785864.8884476,32.199119911991,0,0
60.983377229652,-22.90104411972,27.003550355036,2661855.4496268,-580.8981831933,2785864.8884476,32.203550355036,0,0
60.983377511872,-22.904718258147,27.00798079808,2661855.4496268,-580.8981831933,2785864.8884476,32.20798079808,0,0
60.983377794092,-22.908392396573,27.012411241124,2661855.4496268,-580.8981831933,2785864.8884476,32.212411241124,0,0
60.983378076312,-22.912066535,27.016841684168,2661855.4496268,-580.8981831933,2785864.8884476,32.216841684168,0,0
60.983378358531,-22.915740673426,27.021272127213,2661855.4496268,-580.8981831933,2785864.8884476,32.221272127213,0,0
60.983378640751,-22.919414811853,27.025702570257,2661855.4496268,-580.8981831933,2785864.8884476,32.225702570257,0,0
60.983378922971,-22.92308895028,27.030133013301,2661855.4496268,-580.8981831933,2785864.8884476,32.230133013301,0,0
60.983379205191,-22.926763088706,27.034563456346,2661855.4496268,-580.8981831933,2785864.8884476,32.234563456346,0,0
60.983379487411,-22.930437227133,27.03899389939,2661855.4496268,-580.8981831933,2785864.8884476,32.23899389939,0,0
60.98337976963,-22.934111365559,27.043424342434,2661855.4496268,-580.8981831933,2785864.8884476,32.243424342434,0,0
60.98338005185,-22.937785503986,27.047854785479,2661855.4496268,-580.8981831933,2785864.8884476,32.247854785479,0,0
60.98338033407,-22.941459642413,27.052285228523,2661855.4496268,-580.8981831933,2785864.8884476,32.252285228523,0,0
60.98338061629,-22.945133780839,27.056715671567,2661855.4496268,-580.8981831933,2785864.8884476,32.256715671567,0,0
60.983380898509,-22.948807919266,27.061146114611,2661855.4496268,-580.8981831933,2785864.8884476,32.261146114611,0,0
60.983381180729,-22.952482057692,27.065576557656,2661855.4496268,-580.8981831933,2785864.8884476,32.265576557656,0,0
60.983381462949,-22.956156196119,27.0700070007,2661855.4496268,-580.8981831933,2785864.8884476,32.2700070007,0,0
60.983381745169,-22.959830334545,27.074437443744,2661855.4496268,-580.8981831933,2785864.8884476,32.274437443744,0,0
60.983382027389,-22.963504472972,27.078867886789,2661855.4496268,-580.8981831933,2785864.8884476,32.278867886789,0,0
60.983382309608,-22.967178611399,27.083298329833,2661855.4496268,-580.8981831933,2785864.8884476,32.283298329833,0,0
60.983382591828,-22.970852749825,27.087728772877,2661855.4496268,-580.8981831933,2785864.8884476,32.287728772877,0,0
60.983382874048,-22.974526888252,27.092159215922,2661855.4496268,-580.8981831933,2785864.8884476,32.292159215922,0,0
60.983383156268,-22.978201026678,27.096589658966,2661855.4496268,-580.8981831933,2785864.8884476,32.296589658966,0,0
60.983383438488,-22.981875165105,27.10102010201,2661855.4496268,-580.8981831933,2785864.8884476,32.30102010201,0,0
60.983383720707,-22.985549303532,27.105450545055,2661855.4496268,-580.8981831933,2785864.8884476,32.305450545055,0,0
60.983384002927,-22.989223441958,27.109880988099,2661855.4496268,-580.8981831933,2785864.8884476,32.309880988099,0,0
60.983384285147,-22.992897580385,27.114311431143,2661855.4496268,-580.8981831933,2785864.8884476,32.314311431143,0,0
60.983384567367,-22.996571718811,27.118741874187,2661855.4496268,-580.8981831933,2785864.8884476,32.318741874187,0,0
60.983384849587,-23.000245857238,27.123172317232,2661855.4496268,-580.8981831933,2785864.8884476,32.323172317232,0,0
60.983385131806,-23.003919995665,27.127602760276,2661855.4496268,-580.8981831933,2785864.8884476,32.327602760276,0,0
60.983385414026,-23.007594134091,27.13203320332,2661855.4496268,-580.8981831933,2785864.8884476,32.33203320332,0,0
60.983385696246,-23.011268272518,27.136463646365,2661855.4496268,-580.8981831933,2785864.8884476,32.336463646365,0,0
60.983385978466,-23.014942410944,27.140894089409,2661855.4496268,-580.8981831933,2785864.8884476,32.340894089409,0,0
60.983386260686,-23.018616549371,27.145324532453,2661855.4496268,-580.8981831933,2785864.8884476,32.345324532453,0,0
60.983386542905,-23.022290687798,27.149754975498,2661855.4496268,-580.8981831933,2785864.8884476,32.349754975498,0,0
60.983386825125,-23.025964826224,27.154185418542,2661855.4496268,-580.8981831933,2785864.8884476,32.354185418542,0,0
60.983387107345,-23.029638964651,27.158615861586,2661855.4496268,-580.8981831933,2785864.8884476,32.358615861586,0,0
60.983387389565,-23.033313103077,27.16304630463,2661855.4496268,-580.8981831933,2785864.8884476,32.36304630463,0,0
60.983387671785,-23.036987241504,27.167476747675,2661855.4496268,-580.8981831933,2785864.8884476,32.367476747675,0,0
60.983387954004,-23.040661379931,27.171907190719,2661855.4496268,-580.8981831933,2785864.8884476,32.371907190719,0,0
60.983388236224,-23.044335518357,27.176337633763,2661855.4496268,-580.8981831933,2785864.8884476,32.376337633763,0,0
60.983388518444,-23.048009656784,27.180768076808,2661855.4496268,-580.8981831933,2785864.8884476,32.380768076808,0,0
60.983388800664,-23.05168379521,27.185198519852,2661855.4496268,-580.8981831933,2785864.8884476,32.385198519852,0,0
60.983389082883,-23.055357933637,27.189628962896,2661855.4496268,-580.8981831933,2785864.8884476,32.389628962896,0,0
60.983389365103,-23.059032072064,27.194059405941,2661855.4496268,-580.8981831933,2785864.8884476,32.394059405941,0,0
60.983389647323,-23.06270621049,27.198489848985,2661855.4496268,-580.8981831933,2785864.8884476,32.398489848985,0,0
60.983389929543,-23.066380348917,27.202920292029,2661855.4496268,-580.8981831933,2785864.8884476,32.402920292029,0,0
60.983390211763,-23.070054487343,27.207350735074,2661855.4496268,-580.8981831933,2785864.8884476,32.407350735074,0,0
60.983390493982,-23.07372862577,27.211781178118,2661855.4496268,-580.8981831933,2785864.8884476,32.411781178118,0,0
60.983390776202,-23.077402764197,27.216211621162,2661855.4496268,-580.8981831933,2785864.8884476,32.416211621162,0,0
60.983391058422,-23.081076902623,27.220642064206,2661855.4496268,-580.8981831933,2785864.8884476,32.420642064206,0,0
60.983391340642,-23.08475104105,27.225072507251,2661855.4496268,-580.8981831933,2785864.8884476,32.425072507251,0,0
60.983391622862,-23.088425179476,27.229502950295,2661855.4496268,-580.8981831933,2785864.8884476,32.429502950295,0,0
60.983391905081,-23.092099317903,27.233933393339,2661855.4496268,-580.8981831933,2785864.8884476,32.433933393339,0,0
60.983392187301,-23.09577345633,27.238363836384,2661855.4496268,-580.8981831933,2785864.8884476,32.438363836384,0,0
60.983392469521,-23.099447594756,27.242794279428,2661855.4496268,-580.8981831933,2785864.8884476,32.442794279428,0,0
60.983392751741,-23.103121733183,27.247224722472,2661855.4496268,-580.8981831933,2785864.8884476,32.447224722472,0,0
60.983393033961,-23.106795871609,27.251655165517,2661855.4496268,-580.8981831933,2785864.8884476,32.451655165517,0,0
60.98339331618,-23.110470010036,27.256085608561,2661855.4496268,-580.8981831933,2785864.8884476,32.456085608561,0,0
60.9833935984,-23.114144148463,27.260516051605,2661855.4496268,-580.8981831933,2785864.8884476,32.460516051605,0,0
60.98339388062,-23.117818286889,27.264946494649,2661855.4496268,-580.8981831933,2785864.8884476,32.464946494649,0,0
60.98339416284,-23.121492425316,27.269376937694,2661855.4496268,-580.8981831933,2785864.8884476,32.469376937694,0,0
60.98339444506,-23.125166563742,27.273807380738,2661855.4496268,-580.8981831933,2785864.8884476,32.473807380738,0,0
60.983394727279,-23.128840702169,27.278237823782,2661855.4496268,-580.8981831933,2785864.8884476,32.478237823782,0,0
60.983395009499,-23.132514840596,27.282668266827,2661855.4496268,-580.8981831933,2785864.8884476,32.482668266827,0,0
60.983395291719,-23.136188979022,27.287098709871,2661855.4496268,-580.8981831933,2785864.8884476,32.487098709871,0,0
60.983395573939,-23.139863117449,27.291529152915,2661855.4496268,-580.8981831933,2785864.8884476,32.491529152915,0,0
60.983395856159,-23.143537255875,27.29595959596,2661855.4496268,-580.8981831933,2785864.8884476,32.49595959596,0,0
60.983396138378,-23.147211394302,27.300390039004,2661855.4496268,-580.8981831933,2785864.8884476,32.500390039004,0,0
60.983396420598,-23.150885532729,27.304820482048,2661855.4496268,-580.8981831933,2785864.8884476,32.504820482048,0,0
60.983396702818,-23.154559671155,27.309250925093,2661855.4496268,-580.8981831933,2785864.8884476,32.509250925093,0,0
60.983396985038,-23.158233809582,27.313681368137,2661855.4496268,-580.8981831933,2785864.8884476,32.513681368137,0,0
60.983397267258,-23.161907948008,27.318111811181,2661855.4496268,-580.8981831933,2785864.8884476,32.518111811181,0,0
60.983397549477,-23.165582086435,27.322542254225,2661855.4496268,-580.8981831933,2785864.8884476,32.522542254225,0,0
60.983397831697,-23.169256224861,27.32697269727,2661855.4496268,-580.8981831933,2785864.8884476,32.52697269727,0,0
60.983398113917,-23.172930363288,27.331403140314,2661855.4496268,-580.8981831933,2785864.8884476,32.531403140314,0,0
60.983398396137,-23.176604501715,27.335833583358,2661855.4496268,-580.8981831933,2785864.8884476,32.535833583358,0,0
60.983398678356,-23.180278640141,27.340264026403,2661855.4496268,-580.8981831933,2785864.8884476,32.540264026403,0,0
60.983398960576,-23.183952778568,27.344694469447,2661855.4496268,-580.8981831933,2785864.8884476,32.544694469447,0,0
60.983399242796,-23.187626916994,27.349124912491,2661855.4496268,-580.8981831933,2785864.8884476,32.549124912491,0,0
60.983399525016,-23.191301055421,27.353555355536,2661855.4496268,-580.8981831933,2785864.8884476,32.553555355536,0,0
60.983399807236,-23.194975193848,27.35798579858,2661855.4496268,-580.8981831933,2785864.8884476,32.55798579858,0,0
60.983400089455,-23.198649332274,27.362416241624,2661855.4496268,-580.8981831933,2785864.8884476,32.562416241624,0,0
60.983400371675,-23.202323470701,27.366846684668,2661855.4496268,-580.8981831933,2785864.8884476,32.566846684668,0,0
60.983400653895,-23.205997609127,27.371277127713,2661855.4496268,-580.8981831933,2785864.8884476,32.571277127713,0,0
60.983400936115,-23.209671747554,27.375707570757,2661855.4496268,-580.8981831933,2785864.8884476,32.575707570757,0,0
60.983401218335,-23.213345885981,27.380138013801,2661855.4496268,-580.8981831933,2785864.8884476,32.580138013801,0,0
60.983401500554,-23.217020024407,27.384568456846,2661855.4496268,-580.8981831933,2785864.8884476,32.584568456846,0,0
60.983401782774,-23.220694162834,27.38899889989,2661855.4496268,-580.8981831933,2785864.8884476,32.58899889989,0,0
60.983402064994,-23.22436830126,27.393429342934,2661855.4496268,-580.8981831933,2785864.8884476,32.593429342934,0,0
60.983402347214,-23.228042439687,27.397859785979,2661855.4496268,-580.8981831933,2785864.8884476,32.597859785979,0,0
60.983402629434,-23.231716578114,27.402290229023,2661855.4496268,-580.8981831933,2785864.8884476,32.602290229023,0,0
60.983402911653,-23.23539071654,27.406720672067,2661855.4496268,-580.8981831933,2785864.8884476,32.606720672067,0,0
60.983403193873,-23.239064854967,27.411151115112,2661855.4496268,-580.8981831933,2785864.8884476,32.611151115112,0,0
60.983403476093,-23.242738993393,27.415581558156,2661855.4496268,-580.8981831933,2785864.8884476,32.615581558156,0,0
60.983403758313,-23.24641313182,27.4200120012,2661855.4496268,-580.8981831933,2785864.8884476,32.6200120012,0,0
60.983404040533,-23.250087270247,27.424442444244,2661855.4496268,-580.8981831933,2785864.8884476,32.624442444244,0,0
60.983404322752,-23.253761408673,27.428872887289,2661855.4496268,-580.8981831933,2785864.8884476,32.628872887289,0,0
60.983404604972,-23.2574355471,27.433303330333,2661855.4496268,-580.8981831933,2785864.8884476,32.633303330333,0,0
60.983404887192,-23.261109685526,27.437733773377,2661855.4496268,-580.8981831933,2785864.8884476,32.637733773377,0,0
60.983405169412,-23.264783823953,27.442164216422,2661855.4496268,-580.8981831933,2785864.8884476,32.642164216422,0,0
60.983405451632,-23.26845796238,27.446594659466,2661855.4496268,-580.8981831933,2785864.8884476,32.646594659466,0,0
60.983405733851,-23.272132100806,27.45102510251,2661855.4496268,-580.8981831933,2785864.8884476,32.65102510251,0,0
60.983406016071,-23.275806239233,27.455455545555,2661855.4496268,-580.8981831933,2785864.8884476,32.655455545555,0,0
60.983406298291,-23.279480377659,27.459885988599,2661855.4496268,-580.8981831933,2785864.8884476,32.659885988599,0,0
60.983406580511,-23.283154516086,27.464316431643,2661855.4496268,-580.8981831933,2785864.8884476,32.664316431643,0,0
60.98340686273,-23.286828654513,27.468746874687,2661855.4496268,-580.8981831933,2785864.8884476,32.668746874687,0,0
60.98340714495,-23.290502792939,27.473177317732,2661855.4496268,-580.8981831933,2785864.8884476,32.673177317732,0,0
60.98340742717,-23.294176931366,27.477607760776,2661855.4496268,-580.8981831933,2785864.8884476,32.677607760776,0,0
60.98340770939,-23.297851069792,27.48203820382,2661855.4496268,-580.8981831933,2785864.8884476,32.68203820382,0,0
60.98340799161,-23.301525208219,27.486468646865,2661855.4496268,-580.8981831933,2785864.8884476,32.686468646865,0,0
60.983408273829,-23.305199346646,27.490899089909,2661855.4496268,-580.8981831933,2785864.8884476,32.690899089909,0,0
60.983408556049,-23.308873485072,27.495329532953,2661855.4496268,-580.8981831933,2785864.8884476,32.695329532953,0,0
60.983408838269,-23.312547623499,27.499759975998,2661855.4496268,-580.8981831933,2785864.8884476,32.699759975998,0,0
60.983409120489,-23.316221761925,27.504190419042,2661855.4496268,-580.8981831933,2785864.8884476,32.704190419042,0,0
60.983409402709,-23.319895900352,27.508620862086,2661855.4496268,-580.8981831933,2785864.8884476,32.708620862086,0,0
60.983409684928,-23.323570038779,27.513051305131,2661855.4496268,-580.8981831933,2785864.8884476,32.713051305131,0,0
60.983409967148,-23.327244177205,27.517481748175,2661855.4496268,-580.8981831933,2785864.8884476,32.717481748175,0,0
60.983410249368,-23.330918315632,27.521912191219,2661855.4496268,-580.8981831933,2785864.8884476,32.721912191219,0,0
60.983410531588,-23.334592454058,27.526342634263,2661855.4496268,-580.8981831933,2785864.8884476,32.726342634263,0,0
60.983410813808,-23.338266592485,27.530773077308,2661855.4496268,-580.8981831933,2785864.8884476,32.730773077308,0,0
60.983411096027,-23.341940730912,27.535203520352,2661855.4496268,-580.8981831933,2785864.8884476,32.735203520352,0,0
60.983411378247,-23.345614869338,27.539633963396,2661855.4496268,-580.8981831933,2785864.8884476,32.739633963396,0,0
60.983411660467,-23.349289007765,27.544064406441,2661855.4496268,-580.8981831933,2785864.8884476,32.744064406441,0,0
60.983411943056,-23.352963145998,27.548494849485,2671674.9318056,117.98978155186,2787576.9557469,32.748494849485,0,0
60.983412226015,-23.356637284038,27.552925292529,2671674.9318056,117.98978155186,2787576.9557469,32.752925292529,0,0
60.983412508973,-23.360311422077,27.557355735574,2671674.9318056,117.98978155186,2787576.9557469,32.757355735574,0,0
60.983412791932,-23.363985560117,27.561786178618,2671674.9318056,117.98978155186,2787576.9557469,32.761786178618,0,0
60.98341307489,-23.367659698157,27.566216621662,2671674.9318056,117.98978155186,2787576.9557469,32.766216621662,0,0
60.983413357849,-23.371333836196,27.570647064706,2671674.9318056,117.98978155186,2787576.9557469,32.770647064706,0,0
60.983413640807,-23.375007974236,27.575077507751,2671674.9318056,117.98978155186,2787576.9557469,32.775077507751,0,0
60.983413923766,-23.378682112276,27.579507950795,2671674.9318056,117.98978155186,2787576.9557469,32.779507950795,0,0
60.983414206724,-23.382356250315,27.583938393839,2671674.9318056,117.98978155186,2787576.9557469,32.783938393839,0,0
60.983414489683,-23.386030388355,27.588368836884,2671674.9318056,117.98978155186,2787576.9557469,32.788368836884,0,0
60.983414772642,-23.389704526395,27.592799279928,2671674.9318056,117.98978155186,2787576.9557469,32.792799279928,0,0
60.9834150556,-23.393378664434,27.597229722972,2671674.9318056,117.98978155186,2787576.9557469,32.797229722972,0,0
60.983415338559,-23.397052802474,27.601660166017,2671674.9318056,117.98978155186,2787576.9557469,32.801660166017,0,0
60.983415621517,-23.400726940514,27.606090609061,2671674.9318056,117.98978155186,2787576.9557469,32.806090609061,0,0
60.983415904476,-23.404401078553,27.610521052105,2671674.9318056,117.98978155186,2787576.9557469,32.810521052105,0,0
60.983416187434,-23.408075216593,27.61495149515,2671674.9318056,117.98978155186,2787576.9557469,32.81495149515,0,0
60.983416470393,-23.411749354632,27.619381938194,2671674.9318056,117.98978155186,2787576.9557469,32.819381938194,0,0
60.983416753351,-23.415423492672,27.623812381238,2671674.9318056,117.98978155186,2787576.9557469,32.823812381238,0,0
60.98341703631,-23.419097630712,27.628242824282,2671674.9318056,117.98978155186,2787576.9557469,32.828242824282,0,0
60.983417319268,-23.422771768751,27.632673267327,2671674.9318056,117.98978155186,2787576.9557469,32.832673267327,0,0
60.983417602227,-23.426445906791,27.637103710371,2671674.9318056,117.98978155186,2787576.9557469,32.837103710371,0,0
60.983417885186,-23.430120044831,27.641534153415,2671674.9318056,117.98978155186,2787576.9557469,32.841534153415,0,0
60.983418168144,-23.43379418287,27.64596459646,2671674.9318056,117.98978155186,2787576.9557469,32.84596459646,0,0
60.983418451103,-23.43746832091,27.650395039504,2671674.9318056,117.98978155186,2787576.9557469,32.850395039504,0,0
60.983418734061,-23.44114245895,27.654825482548,2671674.9318056,117.98978155186,2787576.9557469,32.854825482548,0,0
60.98341901702,-23.444816596989,27.659255925593,2671674.9318056,117.98978155186,2787576.9557469,32.859255925593,0,0
60.983419299978,-23.448490735029,27.663686368637,2671674.9318056,117.98978155186,2787576.9557469,32.863686368637,0,0
60.983419582937,-23.452164873069,27.668116811681,2671674.9318056,117.98978155186,2787576.9557469,32.868116811681,0,0
60.983419865895,-23.455839011108,27.672547254725,2671674.9318056,117.98978155186,2787576.9557469,32.872547254725,0,0
60.983420148854,-23.459513149148,27.67697769777,2671674.9318056,117.98978155186,2787576.9557469,32.87697769777,0,0
60.983420431812,-23.463187287188,27.681408140814,2671674.9318056,117.98978155186,2787576.9557469,32.881408140814,0,0
60.983420714771,-23.466861425227,27.685838583858,2671674.9318056,117.98978155186,2787576.9557469,32.885838583858,0,0
60.98342099773,-23.470535563267,27.690269026903,2671674.9318056,117.98978155186,2787576.9557469,32.890269026903,0,0
60.983421280688,-23.474209701307,27.694699469947,2671674.9318056,117.98978155186,2787576.9557469,32.894699469947,0,0
60.983421563647,-23.477883839346,27.699129912991,2671674.9318056,117.98978155186,2787576.9557469,32.899129912991,0,0
60.983421846605,-23.481557977386,27.703560356036,2671674.9318056,117.98978155186,2787576.9557469,32.903560356036,0,0
60.983422129564,-23.485232115426,27.70799079908,2671674.9318056,117.98978155186,2787576.9557469,32.90799079908,0,0
60.983422412522,-23.488906253465,27.712421242124,2671674.9318056,117.98978155186,2787576.9557469,32.912421242124,0,0
60.983422695481,-23.492580391505,27.716851685169,2671674.9318056,117.98978155186,2787576.9557469,32.916851685169,0,0
60.983422978439,-23.496254529545,27.721282128213,2671674.9318056,117.98978155186,2787576.9557469,32.921282128213,0,0
60.983423261398,-23.499928667584,27.725712571257,2671674.9318056,117.98978155186,2787576.9557469,32.925712571257,0,0
60.983423544356,-23.503602805624,27.730143014301,2671674.9318056,117.98978155186,2787576.9557469,32.930143014301,0,0
60.983423827315,-23.507276943664,27.734573457346,2671674.9318056,117.98978155186,2787576.9557469,32.934573457346,0,0
60.983424110274,-23.510951081703,27.73900390039,2671674.9318056,117.98978155186,2787576.9557469,32.93900390039,0,0
60.983424393232,-23.514625219743,27.743434343434,2671674.9318056,117.98978155186,2787576.9557469,32.943434343434,0,0
60.983424676191,-23.518299357783,27.747864786479,2671674.9318056,117.98978155186,2787576.9557469,32.947864786479,0,0
60.983424959149,-23.521973495822,27.752295229523,2671674.9318056,117.98978155186,2787576.9557469,32.952295229523,0,0
60.983425242108,-23.525647633862,27.756725672567,2671674.9318056,117.98978155186,2787576.9557469,32.956725672567,0,0
60.983425525066,-23.529321771902,27.761156115612,2671674.9318056,117.98978155186,2787576.9557469,32.961156115612,0,0
60.983425808025,-23.532995909941,27.765586558656,2671674.9318056,117.98978155186,2787576.9557469,32.965586558656,0,0
60.983426090983,-23.536670047981,27.7700170017,2671674.9318056,117.98978155186,2787576.9557469,32.9700170017,0,0
60.983426373942,-23.540344186021,27.774447444744,2671674.9318056,117.98978155186,2787576.9557469,32.974447444744,0,0
60.983426656901,-23.54401832406,27.778877887789,2671674.9318056,117.98978155186,2787576.9557469,32.978877887789,0,0
60.983426939859,-23.5476924621,27.783308330833,2671674.9318056,117.98978155186,2787576.9557469,32.983308330833,0,0
60.983427222818,-23.55136660014,27.787738773877,2671674.9318056,117.98978155186,2787576.9557469,32.987738773877,0,0
60.983427505776,-23.555040738179,27.792169216922,2671674.9318056,117.98978155186,2787576.9557469,32.992169216922,0,0
60.983427788735,-23.558714876219,27.796599659966,2671674.9318056,117.98978155186,2787576.9557469,32.996599659966,0,0
60.983428071693,-23.562389014259,27.80103010301,2671674.9318056,117.98978155186,2787576.9557469,33.00103010301,0,0
60.983428354652,-23.566063152298,27.805460546055,2671674.9318056,117.98978155186,2787576.9557469,33.005460546055,0,0
60.98342863761,-23.569737290338,27.809890989099,2671674.9318056,117.98978155186,2787576.9557469,33.009890989099,0,0
60.983428920569,-23.573411428378,27.814321432143,2671674.9318056,117.98978155186,2787576.9557469,33.014321432143,0,0
60.983429203527,-23.577085566417,27.818751875188,2671674.9318056,117.98978155186,2787576.9557469,33.018751875188,0,0
60.983429486486,-23.580759704457,27.823182318232,2671674.9318056,117.98978155186,2787576.9557469,33.023182318232,0,0
60.983429769445,-23.584433842497,27.827612761276,2671674.9318056,117.98978155186,2787576.9557469,33.027612761276,0,0
60.983430052403,-23.588107980536,27.83204320432,2671674.9318056,117.98978155186,2787576.9557469,33.03204320432,0,0
60.983430335362,-23.591782118576,27.836473647365,2671674.9318056,117.98978155186,2787576.9557469,33.036473647365,0,0
60.98343061832,-23.595456256616,27.840904090409,2671674.9318056,117.98978155186,2787576.9557469,33.040904090409,0,0
60.983430901279,-23.599130394655,27.845334533453,2671674.9318056,117.98978155186,2787576.9557469,33.045334533453,0,0
60.983431184237,-23.602804532695,27.849764976498,2671674.9318056,117.98978155186,2787576.9557469,33.049764976498,0,0
60.983431467196,-23.606478670735,27.854195419542,2671674.9318056,117.98978155186,2787576.9557469,33.054195419542,0,0
60.983431750154,-23.610152808774,27.858625862586,2671674.9318056,117.98978155186,2787576.9557469,33.058625862586,0,0
60.983432033113,-23.613826946814,27.863056305631,2671674.9318056,117.98978155186,2787576.9557469,33.063056305631,0,0
60.983432316071,-23.617501084854,27.867486748675,2671674.9318056,117.98978155186,2787576.9557469,33.067486748675,0,0
60.98343259903,-23.621175222893,27.871917191719,2671674.9318056,117.98978155186,2787576.9557469,33.071917191719,0,0
60.983432881989,-23.624849360933,27.876347634763,2671674.9318056,117.98978155186,2787576.9557469,33.076347634763,0,0
60.983433164947,-23.628523498973,27.880778077808,2671674.9318056,117.98978155186,2787576.9557469,33.080778077808,0,0
60.983433447906,-23.632197637012,27.885208520852,2671674.9318056,117.98978155186,2787576.9557469,33.085208520852,0,0
60.983433730864,-23.635871775052,27.889638963896,2671674.9318056,117.98978155186,2787576.9557469,33.089638963896,0,0
60.983434013823,-23.639545913091,27.894069406941,2671674.9318056,117.98978155186,2787576.9557469,33.094069406941,0,0
60.983434296781,-23.643220051131,27.898499849985,2671674.9318056,117.98978155186,2787576.9557469,33.098499849985,0,0
60.98343457974,-23.646894189171,27.902930293029,2671674.9318056,117.98978155186,2787576.9557469,33.102930293029,0,0
60.983434862698,-23.65056832721,27.907360736074,2671674.9318056,117.98978155186,2787576.9557469,33.107360736074,0,0
60.983435145657,-23.65424246525,27.911791179118,2671674.9318056,117.98978155186,2787576.9557469,33.111791179118,0,0
60.983435428615,-23.65791660329,27.916221622162,2671674.9318056,117.98978155186,2787576.9557469,33.116221622162,0,0
60.983435711574,-23.661590741329,27.920652065207,2671674.9318056,117.98978155186,2787576.9557469,33.120652065207,0,0
60.983435994533,-23.665264879369,27.925082508251,2671674.9318056,117.98978155186,2787576.9557469,33.125082508251,0,0
60.983436277491,-23.668939017409,27.929512951295,2671674.9318056,117.98978155186,2787576.9557469,33.129512951295,0,0
60.98343656045,-23.672613155448,27.933943394339,2671674.9318056,117.98978155186,2787576.9557469,33.133943394339,0,0
60.983436843408,-23.676287293488,27.938373837384,2671674.9318056,117.98978155186,2787576.9557469,33.138373837384,0,0
60.983437126367,-23.679961431528,27.942804280428,2671674.9318056,117.98978155186,2787576.9557469,33.142804280428,0,0
60.983437409325,-23.683635569567,27.947234723472,2671674.9318056,117.98978155186,2787576.9557469,33.147234723472,0,0
60.983437692284,-23.687309707607,27.951665166517,2671674.9318056,117.98978155186,2787576.9557469,33.151665166517,0,0
60.983437975242,-23.690983845647,27.956095609561,2671674.9318056,117.98978155186,2787576.9557469,33.156095609561,0,0
60.983438258201,-23.694657983686,27.960526052605,2671674.9318056,117.98978155186,2787576.9557469,33.160526052605,0,0
60.98343854116,-23.698332121726,27.96495649565,2671674.9318056,117.98978155186,2787576.9557469,33.16495649565,0,0
60.983438824118,-23.702006259766,27.969386938694,2671674.9318056,117.98978155186,2787576.9557469,33.169386938694,0,0
60.983439107077,-23.705680397805,27.973817381738,2671674.9318056,117.98978155186,2787576.9557469,33.173817381738,0,0
60.983439390035,-23.709354535845,27.978247824782,2671674.9318056,117.98978155186,2787576.9557469,33.178247824782,0,0
60.983439672994,-23.713028673885,27.982678267827,2671674.9318056,117.98978155186,2787576.9557469,33.182678267827,0,0
60.983439955952,-23.716702811924,27.987108710871,2671674.9318056,117.98978155186,2787576.9557469,33.187108710871,0,0
60.983440238911,-23.720376949964,27.991539153915,2671674.9318056,117.98978155186,2787576.9557469,33.191539153915,0,0
60.983440521869,-23.724051088004,27.99596959696,2671674.9318056,117.98978155186,2787576.9557469,33.19596959696,0,0
60.983440804828,-23.727725226043,28.000400040004,2671674.9318056,117.98978155186,2787576.9557469,33.200400040004,0,0
60.983441087786,-23.731399364083,28.004830483048,2671674.9318056,117.98978155186,2787576.9557469,33.204830483048,0,0
60.983441370745,-23.735073502123,28.009260926093,2671674.9318056,117.98978155186,2787576.9557469,33.209260926093,0,0
60.983441653704,-23.738747640162,28.013691369137,2671674.9318056,117.98978155186,2787576.9557469,33.213691369137,0,0
60.983441936662,-23.742421778202,28.018121812181,2671674.9318056,117.98978155186,2787576.9557469,33.218121812181,0,0
60.983442219621,-23.746095916242,28.022552255226,2671674.9318056,117.98978155186,2787576.9557469,33.222552255226,0,0
60.983442502579,-23.749770054281,28.02698269827,2671674.9318056,117.98978155186,2787576.9557469,33.22698269827,0,0
60.983442785538,-23.753444192321,28.031413141314,2671674.9318056,117.98978155186,2787576.9557469,33.231413141314,0,0
60.983443068496,-23.757118330361,28.035843584358,2671674.9318056,117.98978155186,2787576.9557469,33.235843584358,0,0
60.983443351455,-23.7607924684,28.040274027403,2671674.9318056,117.98978155186,2787576.9557469,33.240274027403,0,0
60.983443634413,-23.76446660644,28.044704470447,2671674.9318056,117.98978155186,2787576.9557469,33.244704470447,0,0
60.983443917372,-23.76814074448,28.049134913491,2671674.9318056,117.98978155186,2787576.9557469,33.249134913491,0,0
60.98344420033,-23.771814882519,28.053565356536,2671674.9318056,117.98978155186,2787576.9557469,33.253565356536,0,0
60.983444483289,-23.775489020559,28.05799579958,2671674.9318056,117.98978155186,2787576.9557469,33.25799579958,0,0
60.983444766248,-23.779163158599,28.062426242624,2671674.9318056,117.98978155186,2787576.9557469,33.262426242624,0,0
60.983445049206,-23.782837296638,28.066856685669,2671674.9318056,117.98978155186,2787576.9557469,33.266856685669,0,0
60.983445332165,-23.786511434678,28.071287128713,2671674.9318056,117.98978155186,2787576.9557469,33.271287128713,0,0
60.983445615123,-23.790185572718,28.075717571757,2671674.9318056,117.98978155186,2787576.9557469,33.275717571757,0,0
60.983445898082,-23.793859710757,28.080148014801,2671674.9318056,117.98978155186,2787576.9557469,33.280148014801,0,0
60.98344618104,-23.797533848797,28.084578457846,2671674.9318056,117.98978155186,2787576.9557469,33.284578457846,0,0
60.983446463999,-23.801207986837,28.08900890089,2671674.9318056,117.98978155186,2787576.9557469,33.28900890089,0,0
60.983446746957,-23.804882124876,28.093439343934,2671674.9318056,117.98978155186,2787576.9557469,33.293439343934,0,0
60.983447029916,-23.808556262916,28.097869786979,2671674.9318056,117.98978155186,2787576.9557469,33.297869786979,0,0
60.983447312875,-23.812230400956,28.102300230023,2671674.9318056,117.98978155186,2787576.9557469,33.302300230023,0,0
60.983447595833,-23.815904538995,28.106730673067,2671674.9318056,117.98978155186,2787576.9557469,33.306730673067,0,0
60.983447878792,-23.819578677035,28.111161116112,2671674.9318056,117.98978155186,2787576.9557469,33.311161116112,0,0
60.98344816175,-23.823252815075,28.115591559156,2671674.9318056,117.98978155186,2787576.9557469,33.315591559156,0,0
60.983448444709,-23.826926953114,28.1200220022,2671674.9318056,117.98978155186,2787576.9557469,33.3200220022,0,0
60.983448727667,-23.830601091154,28.124452445245,2671674.9318056,117.98978155186,2787576.9557469,33.324452445245,0,0
60.983449010626,-23.834275229194,28.128882888289,2671674.9318056,117.98978155186,2787576.9557469,33.328882888289,0,0
60.983449293584,-23.837949367233,28.133313331333,2671674.9318056,117.98978155186,2787576.9557469,33.333313331333,0,0
60.983449576543,-23.841623505273,28.137743774377,2671674.9318056,117.98978155186,2787576.9557469,33.337743774377,0,0
60.983449859501,-23.845297643313,28.142174217422,2671674.9318056,117.98978155186,2787576.9557469,33.342174217422,0,0
60.98345014246,-23.848971781352,28.146604660466,2671674.9318056,117.98978155186,2787576.9557469,33.346604660466,0,0
60.983450425419,-23.852645919392,28.15103510351,2671674.9318056,117.98978155186,2787576.9557469,33.35103510351,0,0
60.983450708377,-23.856320057432,28.155465546555,2671674.9318056,117.98978155186,2787576.9557469,33.355465546555,0,0
60.983450991336,-23.859994195471,28.159895989599,2671674.9318056,117.98978155186,2787576.9557469,33.359895989599,0,0
60.983451274294,-23.863668333511,28.164326432643,2671674.9318056,117.98978155186,2787576.9557469,33.364326432643,0,0
60.983451557253,-23.867342471551,28.168756875688,2671674.9318056,117.98978155186,2787576.9557469,33.368756875688,0,0
60.983451840211,-23.87101660959,28.173187318732,2671674.9318056,117.98978155186,2787576.9557469,33.373187318732,0,0
60.98345212317,-23.87469074763,28.177617761776,2671674.9318056,117.98978155186,2787576.9557469,33.377617761776,0,0
60.983452406128,-23.878364885669,28.18204820482,2671674.9318056,117.98978155186,2787576.9557469,33.38204820482,0,0
60.983452689087,-23.882039023709,28.186478647865,2671674.9318056,117.98978155186,2787576.9557469,33.386478647865,0,0
60.983452972045,-23.885713161749,28.190909090909,2671674.9318056,117.98978155186,2787576.9557469,33.390909090909,0,0
60.983453255004,-23.889387299788,28.195339533953,2671674.9318056,117.98978155186,2787576.9557469,33.395339533953,0,0
60.983453537963,-23.893061437828,28.199769976998,2671674.9318056,117.98978155186,2787576.9557469,33.399769976998,0,0
60.983453820921,-23.896735575868,28.204200420042,2671674.9318056,117.98978155186,2787576.9557469,33.404200420042,0,0
60.98345410388,-23.900409713907,28.208630863086,2671674.9318056,117.98978155186,2787576.9557469,33.408630863086,0,0
60.983454386838,-23.904083851947,28.213061306131,2671674.9318056,117.98978155186,2787576.9557469,33.413061306131,0,0
60.983454669797,-23.907757989987,28.217491749175,2671674.9318056,117.98978155186,2787576.9557469,33.417491749175,0,0
60.983454952755,-23.911432128026,28.221922192219,2671674.9318056,117.98978155186,2787576.9557469,33.421922192219,0,0
60.983455235714,-23.915106266066,28.226352635264,2671674.9318056,117.98978155186,2787576.9557469,33.426352635264,0,0
60.983455518672,-23.918780404106,28.230783078308,2671674.9318056,117.98978155186,2787576.9557469,33.430783078308,0,0
60.983455801631,-23.922454542145,28.235213521352,2671674.9318056,117.98978155186,2787576.9557469,33.435213521352,0,0
60.983456084589,-23.926128680185,28.239643964396,2671674.9318056,117.98978155186,2787576.9557469,33.439643964396,0,0
60.983456367548,-23.929802818225,28.244074407441,2671674.9318056,117.98978155186,2787576.9557469,33.444074407441,0,0
60.983456650507,-23.933476956264,28.248504850485,2671674.9318056,117.98978155186,2787576.9557469,33.448504850485,0,0
60.983456933465,-23.937151094304,28.252935293529,2671674.9318056,117.98978155186,2787576.9557469,33.452935293529,0,0
60.983457216424,-23.940825232344,28.257365736574,2671674.9318056,117.98978155186,2787576.9557469,33.457365736574,0,0
60.983457499382,-23.944499370383,28.261796179618,2671674.9318056,117.98978155186,2787576.9557469,33.461796179618,0,0
60.983457782341,-23.948173508423,28.266226622662,2671674.9318056,117.98978155186,2787576.9557469,33.466226622662,0,0
60.983458065299,-23.951847646463,28.270657065707,2671674.9318056,117.98978155186,2787576.9557469,33.470657065707,0,0
60.983458348258,-23.955521784502,28.275087508751,2671674.9318056,117.98978155186,2787576.9557469,33.475087508751,0,0
60.983458631216,-23.959195922542,28.279517951795,2671674.9318056,117.98978155186,2787576.9557469,33.479517951795,0,0
60.983458914175,-23.962870060582,28.283948394839,2671674.9318056,117.98978155186,2787576.9557469,33.483948394839,0,0
60.983459197134,-23.966544198621,28.288378837884,2671674.9318056,117.98978155186,2787576.9557469,33.488378837884,0,0
60.983459480092,-23.970218336661,28.292809280928,2671674.9318056,117.98978155186,2787576.9557469,33.492809280928,0,0
60.983459763051,-23.973892474701,28.297239723972,2671674.9318056,117.98978155186,2787576.9557469,33.497239723972,0,0
60.983460046009,-23.97756661274,28.301670167017,2671674.9318056,117.98978155186,2787576.9557469,33.501670167017,0,0
60.983460328968,-23.98124075078,28.306100610061,2671674.9318056,117.98978155186,2787576.9557469,33.506100610061,0,0
60.983460611926,-23.98491488882,28.310531053105,2671674.9318056,117.98978155186,2787576.9557469,33.510531053105,0,0
60.983460894885,-23.988589026859,28.31496149615,2671674.9318056,117.98978155186,2787576.9557469,33.51496149615,0,0
60.983461177843,-23.992263164899,28.319391939194,2671674.9318056,117.98978155186,2787576.9557469,33.519391939194,0,0
60.983461460802,-23.995937302939,28.323822382238,2671674.9318056,117.98978155186,2787576.9557469,33.523822382238,0,0
60.98346174376,-23.999611440978,28.328252825283,2671674.9318056,117.98978155186,2787576.9557469,33.528252825283,0,0
60.983462026719,-24.003285579018,28.332683268327,2671674.9318056,117.98978155186,2787576.9557469,33.532683268327,0,0
60.983462309678,-24.006959717058,28.337113711371,2671674.9318056,117.98978155186,2787576.9557469,33.537113711371,0,0
60.983462592636,-24.010633855097,28.341544154415,2671674.9318056,117.98978155186,2787576.9557469,33.541544154415,0,0
60.983462875595,-24.014307993137,28.34597459746,2671674.9318056,117.98978155186,2787576.9557469,33.54597459746,0,0
60.983463158553,-24.017982131177,28.350405040504,2671674.9318056,117.98978155186,2787576.9557469,33.550405040504,0,0
60.983463441512,-24.021656269216,28.354835483548,2671674.9318056,117.98978155186,2787576.9557469,33.554835483548,0,0
60.98346372447,-24.025330407256,28.359265926593,2671674.9318056,117.98978155186,2787576.9557469,33.559265926593,0,0
60.983464007429,-24.029004545296,28.363696369637,2671674.9318056,117.98978155186,2787576.9557469,33.563696369637,0,0
60.983464290387,-24.032678683335,28.368126812681,2671674.9318056,117.98978155186,2787576.9557469,33.568126812681,0,0
60.983464573346,-24.036352821375,28.372557255726,2671674.9318056,117.98978155186,2787576.9557469,33.572557255726,0,0
60.983464856304,-24.040026959415,28.37698769877,2671674.9318056,117.98978155186,2787576.9557469,33.57698769877,0,0
60.983465139263,-24.043701097454,28.381418141814,2671674.9318056,117.98978155186,2787576.9557469,33.581418141814,0,0
60.983465422222,-24.047375235494,28.385848584858,2671674.9318056,117.98978155186,2787576.9557469,33.585848584858,0,0
60.98346570518,-24.051049373534,28.390279027903,2671674.9318056,117.98978155186,2787576.9557469,33.590279027903,0,0
60.983465988139,-24.054723511573,28.394709470947,2671674.9318056,117.98978155186,2787576.9557469,33.594709470947,0,0
60.983466271097,-24.058397649613,28.399139913991,2671674.9318056,117.98978155186,2787576.9557469,33.599139913991,0,0
60.983466554056,-24.062071787653,28.403570357036,2671674.9318056,117.98978155186,2787576.9557469,33.603570357036,0,0
60.983466837014,-24.065745925692,28.40800080008,2671674.9318056,117.98978155186,2787576.9557469,33.60800080008,0,0
60.983467119973,-24.069420063732,28.412431243124,2671674.9318056,117.98978155186,2787576.9557469,33.612431243124,0,0
60.983467402931,-24.073094201772,28.416861686169,2671674.9318056,117.98978155186,2787576.9557469,33.616861686169,0,0
60.98346768589,-24.076768339811,28.421292129213,2671674.9318056,117.98978155186,2787576.9557469,33.621292129213,0,0
60.983467968849,-24.080442477851,28.425722572257,2671674.9318056,117.98978155186,2787576.9557469,33.625722572257,0,0
60.983468251807,-24.084116615891,28.430153015302,2671674.9318056,117.98978155186,2787576.9557469,33.630153015302,0,0
60.983468534766,-24.08779075393,28.434583458346,2671674.9318056,117.98978155186,2787576.9557469,33.634583458346,0,0
60.983468817724,-24.09146489197,28.43901390139,2671674.9318056,117.98978155186,2787576.9557469,33.63901390139,0,0
60.983469100683,-24.09513903001,28.443444344434,2671674.9318056,117.98978155186,2787576.9557469,33.643444344434,0,0
60.983469383641,-24.098813168049,28.447874787479,2671674.9318056,117.98978155186,2787576.9557469,33.647874787479,0,0
60.9834696666,-24.102487306089,28.452305230523,2671674.9318056,117.98978155186,2787576.9557469,33.652305230523,0,0
60.983469949558,-24.106161444128,28.456735673567,2671674.9318056,117.98978155186,2787576.9557469,33.656735673567,0,0
60.983470232517,-24.109835582168,28.461166116612,2671674.9318056,117.98978155186,2787576.9557469,33.661166116612,0,0
60.983470515475,-24.113509720208,28.465596559656,2671674.9318056,117.98978155186,2787576.9557469,33.665596559656,0,0
60.983470798434,-24.117183858247,28.4700270027,2671674.9318056,117.98978155186,2787576.9557469,33.6700270027,0,0
60.983471081393,-24.120857996287,28.474457445745,2671674.9318056,117.98978155186,2787576.9557469,33.674457445745,0,0
60.983471364351,-24.124532134327,28.478887888789,2671674.9318056,117.98978155186,2787576.9557469,33.678887888789,0,0
60.98347164731,-24.128206272366,28.483318331833,2671674.9318056,117.98978155186,2787576.9557469,33.683318331833,0,0
60.983471930268,-24.131880410406,28.487748774877,2671674.9318056,117.98978155186,2787576.9557469,33.687748774877,0,0
60.983472213227,-24.135554548446,28.492179217922,2671674.9318056,117.98978155186,2787576.9557469,33.692179217922,0,0
60.983472496185,-24.139228686485,28.496609660966,2671674.9318056,117.98978155186,2787576.9557469,33.696609660966,0,0
60.983472779144,-24.142902824525,28.50104010401,2671674.9318056,117.98978155186,2787576.9557469,33.70104010401,0,0
60.983473062102,-24.146576962565,28.505470547055,2671674.9318056,117.98978155186,2787576.9557469,33.705470547055,0,0
60.983473345061,-24.150251100604,28.509900990099,2671674.9318056,117.98978155186,2787576.9557469,33.709900990099,0,0
60.983473628019,-24.153925238644,28.514331433143,2671674.9318056,117.98978155186,2787576.9557469,33.714331433143,0,0
60.983473910978,-24.157599376684,28.518761876188,2671674.9318056,117.98978155186,2787576.9557469,33.718761876188,0,0
60.983474193937,-24.161273514723,28.523192319232,2671674.9318056,117.98978155186,2787576.9557469,33.723192319232,0,0
60.983474476895,-24.164947652763,28.527622762276,2671674.9318056,117.98978155186,2787576.9557469,33.727622762276,0,0
60.983474759854,-24.168621790803,28.532053205321,2671674.9318056,117.98978155186,2787576.9557469,33.732053205321,0,0
60.983475042812,-24.172295928842,28.536483648365,2671674.9318056,117.98978155186,2787576.9557469,33.736483648365,0,0
60.983475325771,-24.175970066882,28.540914091409,2671674.9318056,117.98978155186,2787576.9557469,33.740914091409,0,0
60.983475608729,-24.179644204922,28.545344534453,2671674.9318056,117.98978155186,2787576.9557469,33.745344534453,0,0
60.983475891688,-24.183318342961,28.549774977498,2671674.9318056,117.98978155186,2787576.9557469,33.749774977498,0,0
60.983476174646,-24.186992481001,28.554205420542,2671674.9318056,117.98978155186,2787576.9557469,33.754205420542,0,0
60.983476457605,-24.190666619041,28.558635863586,2671674.9318056,117.98978155186,2787576.9557469,33.758635863586,0,0
60.983476740563,-24.19434075708,28.563066306631,2671674.9318056,117.98978155186,2787576.9557469,33.763066306631,0,0
60.983477023522,-24.19801489512,28.567496749675,2671674.9318056,117.98978155186,2787576.9557469,33.767496749675,0,0
60.983477306481,-24.20168903316,28.571927192719,2671674.9318056,117.98978155186,2787576.9557469,33.771927192719,0,0
60.983477589439,-24.205363171199,28.576357635764,2671674.9318056,117.98978155186,2787576.9557469,33.776357635764,0,0
60.983477872398,-24.209037309239,28.580788078808,2671674.9318056,117.98978155186,2787576.9557469,33.780788078808,0,0
60.983478155356,-24.212711447279,28.585218521852,2671674.9318056,117.98978155186,2787576.9557469,33.785218521852,0,0
60.983478438315,-24.216385585318,28.589648964896,2671674.9318056,117.98978155186,2787576.9557469,33.789648964896,0,0
60.983478721273,-24.220059723358,28.594079407941,2671674.9318056,117.98978155186,2787576.9557469,33.794079407941,0,0
60.983479004232,-24.223733861398,28.598509850985,2671674.9318056,117.98978155186,2787576.9557469,33.798509850985,0,0
60.98347928719,-24.227407999437,28.602940294029,2671674.9318056,117.98978155186,2787576.9557469,33.802940294029,0,0
60.983479570149,-24.231082137477,28.607370737074,2671674.9318056,117.98978155186,2787576.9557469,33.807370737074,0,0
60.983479853108,-24.234756275517,28.611801180118,2671674.9318056,117.98978155186,2787576.9557469,33.811801180118,0,0
60.983480136066,-24.238430413556,28.616231623162,2671674.9318056,117.98978155186,2787576.9557469,33.816231623162,0,0
60.983480419025,-24.242104551596,28.620662066207,2671674.9318056,117.98978155186,2787576.9557469,33.820662066207,0,0
60.983480701983,-24.245778689636,28.625092509251,2671674.9318056,117.98978155186,2787576.9557469,33.825092509251,0,0
60.983480984942,-24.249452827675,28.629522952295,2671674.9318056,117.98978155186,2787576.9557469,33.829522952295,0,0
60.9834812679,-24.253126965715,28.63395339534,2671674.9318056,117.98978155186,2787576.9557469,33.83395339534,0,0
60.983481550859,-24.256801103755,28.638383838384,2671674.9318056,117.98978155186,2787576.9557469,33.838383838384,0,0
60.983481833817,-24.260475241794,28.642814281428,2671674.9318056,117.98978155186,2787576.9557469,33.842814281428,0,0
60.983482116776,-24.264149379834,28.647244724472,2671674.9318056,117.98978155186,2787576.9557469,33.847244724472,0,0
60.983482399734,-24.267823517874,28.651675167517,2671674.9318056,117.98978155186,2787576.9557469,33.851675167517,0,0
60.983482682693,-24.271497655913,28.656105610561,2671674.9318056,117.98978155186,2787576.9557469,33.856105610561,0,0
60.983482965652,-24.275171793953,28.660536053605,2671674.9318056,117.98978155186,2787576.9557469,33.860536053605,0,0
60.98348324861,-24.278845931993,28.66496649665,2671674.9318056,117.98978155186,2787576.9557469,33.86496649665,0,0
60.983483531569,-24.282520070032,28.669396939694,2671674.9318056,117.98978155186,2787576.9557469,33.869396939694,0,0
60.983483814527,-24.286194208072,28.673827382738,2671674.9318056,117.98978155186,2787576.9557469,33.873827382738,0,0
60.983484097486,-24.289868346112,28.678257825783,2671674.9318056,117.98978155186,2787576.9557469,33.878257825783,0,0
60.983484380444,-24.293542484151,28.682688268827,2671674.9318056,117.98978155186,2787576.9557469,33.882688268827,0,0
60.983484663403,-24.297216622191,28.687118711871,2671674.9318056,117.98978155186,2787576.9557469,33.887118711871,0,0
60.983484946361,-24.300890760231,28.691549154915,2671674.9318056,117.98978155186,2787576.9557469,33.891549154915,0,0
60.98348522932,-24.30456489827,28.69597959796,2671674.9318056,117.98978155186,2787576.9557469,33.89597959796,0,0
60.983485512278,-24.30823903631,28.700410041004,2671674.9318056,117.98978155186,2787576.9557469,33.900410041004,0,0
60.983485795237,-24.31191317435,28.704840484048,2671674.9318056,117.98978155186,2787576.9557469,33.904840484048,0,0
60.983486078196,-24.315587312389,28.709270927093,2671674.9318056,117.98978155186,2787576.9557469,33.909270927093,0,0
60.983486361154,-24.319261450429,28.713701370137,2671674.9318056,117.98978155186,2787576.9557469,33.913701370137,0,0
60.983486644113,-24.322935588469,28.718131813181,2671674.9318056,117.98978155186,2787576.9557469,33.918131813181,0,0
60.983486927071,-24.326609726508,28.722562256226,2671674.9318056,117.98978155186,2787576.9557469,33.922562256226,0,0
60.98348721003,-24.330283864548,28.72699269927,2671674.9318056,117.98978155186,2787576.9557469,33.92699269927,0,0
60.983487492988,-24.333958002588,28.731423142314,2671674.9318056,117.98978155186,2787576.9557469,33.931423142314,0,0
60.983487775947,-24.337632140627,28.735853585359,2671674.9318056,117.98978155186,2787576.9557469,33.935853585359,0,0
60.983488058905,-24.341306278667,28.740284028403,2671674.9318056,117.98978155186,2787576.9557469,33.940284028403,0,0
60.983488341864,-24.344980416706,28.744714471447,2671674.9318056,117.98978155186,2787576.9557469,33.944714471447,0,0
60.983488624822,-24.348654554746,28.749144914491,2671674.9318056,117.98978155186,2787576.9557469,33.949144914491,0,0
60.983488907781,-24.352328692786,28.753575357536,2671674.9318056,117.98978155186,2787576.9557469,33.953575357536,0,0
60.98348919074,-24.356002830825,28.75800580058,2671674.9318056,117.98978155186,2787576.9557469,33.95800580058,0,0
60.983489473698,-24.359676968865,28.762436243624,2671674.9318056,117.98978155186,2787576.9557469,33.962436243624,0,0
60.983489756657,-24.363351106905,28.766866686669,2671674.9318056,117.98978155186,2787576.9557469,33.966866686669,0,0
60.983490039615,-24.367025244944,28.771297129713,2671674.9318056,117.98978155186,2787576.9557469,33.971297129713,0,0
60.983490322574,-24.370699382984,28.775727572757,2671674.9318056,117.98978155186,2787576.9557469,33.975727572757,0,0
60.983490605532,-24.374373521024,28.780158015802,2671674.9318056,117.98978155186,2787576.9557469,33.980158015802,0,0
60.983490888491,-24.378047659063,28.784588458846,2671674.9318056,117.98978155186,2787576.9557469,33.984588458846,0,0
60.983491171449,-24.381721797103,28.78901890189,2671674.9318056,117.98978155186,2787576.9557469,33.98901890189,0,0
60.983491454408,-24.385395935143,28.793449344934,2671674.9318056,117.98978155186,2787576.9557469,33.993449344934,0,0
60.983491737367,-24.389070073182,28.797879787979,2671674.9318056,117.98978155186,2787576.9557469,33.997879787979,0,0
60.983492020325,-24.392744211222,28.802310231023,2671674.9318056,117.98978155186,2787576.9557469,34.002310231023,0,0
60.983492303284,-24.396418349262,28.806740674067,2671674.9318056,117.98978155186,2787576.9557469,34.006740674067,0,0
60.983492586242,-24.400092487301,28.811171117112,2671674.9318056,117.98978155186,2787576.9557469,34.011171117112,0,0
60.983492869201,-24.403766625341,28.815601560156,2671674.9318056,117.98978155186,2787576.9557469,34.015601560156,0,0
60.983493152159,-24.407440763381,28.8200320032,2671674.9318056,117.98978155186,2787576.9557469,34.0200320032,0,0
60.983493435118,-24.41111490142,28.824462446245,2671674.9318056,117.98978155186,2787576.9557469,34.024462446245,0,0
60.983493718076,-24.41478903946,28.828892889289,2671674.9318056,117.98978155186,2787576.9557469,34.028892889289,0,0
60.983494001035,-24.4184631775,28.833323332333,2671674.9318056,117.98978155186,2787576.9557469,34.033323332333,0,0
60.983494283993,-24.422137315539,28.837753775378,2671674.9318056,117.98978155186,2787576.9557469,34.037753775378,0,0
60.983494566952,-24.425811453579,28.842184218422,2671674.9318056,117.98978155186,2787576.9557469,34.042184218422,0,0
60.983494849911,-24.429485591619,28.846614661466,2671674.9318056,117.98978155186,2787576.9557469,34.046614661466,0,0
60.983495132869,-24.433159729658,28.85104510451,2671674.9318056,117.98978155186,2787576.9557469,34.05104510451,0,0
60.983495415828,-24.436833867698,28.855475547555,2671674.9318056,117.98978155186,2787576.9557469,34.055475547555,0,0
60.983495698786,-24.440508005738,28.859905990599,2671674.9318056,117.98978155186,2787576.9557469,34.059905990599,0,0
60.983495981745,-24.444182143777,28.864336433643,2671674.9318056,117.98978155186,2787576.9557469,34.064336433643,0,0
60.983496264703,-24.447856281817,28.868766876688,2671674.9318056,117.98978155186,2787576.9557469,34.068766876688,0,0
60.983496547662,-24.451530419857,28.873197319732,2671674.9318056,117.98978155186,2787576.9557469,34.073197319732,0,0
60.98349683062,-24.455204557896,28.877627762776,2671674.9318056,117.98978155186,2787576.9557469,34.077627762776,0,0
60.983497113579,-24.458878695936,28.882058205821,2671674.9318056,117.98978155186,2787576.9557469,34.082058205821,0,0
60.983497396537,-24.462552833976,28.886488648865,2671674.9318056,117.98978155186,2787576.9557469,34.086488648865,0,0
60.983497679496,-24.466226972015,28.890919091909,2671674.9318056,117.98978155186,2787576.9557469,34.090919091909,0,0
60.983497962455,-24.469901110055,28.895349534953,2671674.9318056,117.98978155186,2787576.9557469,34.095349534953,0,0
60.983498245413,-24.473575248095,28.899779977998,2671674.9318056,117.98978155186,2787576.9557469,34.099779977998,0,0
60.983498528372,-24.477249386134,28.904210421042,2671674.9318056,117.98978155186,2787576.9557469,34.104210421042,0,0
60.98349881152,-24.480923524647,28.908640864086,2672766.8357752,-1802.4424217543,2781663.8021791,34.108640864086,0,0
60.983499094723,-24.484597663297,28.913071307131,2672766.8357752,-1802.4424217543,2781663.8021791,34.113071307131,0,0
60.983499377926,-24.488271801947,28.917501750175,2672766.8357752,-1802.4424217543,2781663.8021791,34.117501750175,0,0
60.98349966113,-24.491945940596,28.921932193219,2672766.8357752,-1802.4424217543,2781663.8021791,34.121932193219,0,0
60.983499944333,-24.495620079246,28.926362636264,2672766.8357752,-1802.4424217543,2781663.8021791,34.126362636264,0,0
60.983500227536,-24.499294217896,28.930793079308,2672766.8357752,-1802.4424217543,2781663.8021791,34.130793079308,0,0
60.983500510739,-24.502968356546,28.935223522352,2672766.8357752,-1802.4424217543,2781663.8021791,34.135223522352,0,0
60.983500793942,-24.506642495195,28.939653965397,2672766.8357752,-1802.4424217543,2781663.8021791,34.139653965397,0,0
60.983501077146,-24.510316633845,28.944084408441,2672766.8357752,-1802.4424217543,2781663.8021791,34.144084408441,0,0
60.983501360349,-24.513990772495,28.948514851485,2672766.8357752,-1802.4424217543,2781663.8021791,34.148514851485,0,0
60.983501643552,-24.517664911145,28.952945294529,2672766.8357752,-1802.4424217543,2781663.8021791,34.152945294529,0,0
60.983501926755,-24.521339049795,28.957375737574,2672766.8357752,-1802.4424217543,2781663.8021791,34.157375737574,0,0
60.983502209958,-24.525013188444,28.961806180618,2672766.8357752,-1802.4424217543,2781663.8021791,34.161806180618,0,0
60.983502493162,-24.528687327094,28.966236623662,2672766.8357752,-1802.4424217543,2781663.8021791,34.166236623662,0,0
60.983502776365,-24.532361465744,28.970667066707,2672766.8357752,-1802.4424217543,2781663.8021791,34.170667066707,0,0
60.983503059568,-24.536035604394,28.975097509751,2672766.8357752,-1802.4424217543,2781663.8021791,34.175097509751,0,0
60.983503342771,-24.539709743043,28.979527952795,2672766.8357752,-1802.4424217543,2781663.8021791,34.179527952795,0,0
60.983503625974,-24.543383881693,28.98395839584,2672766.8357752,-1802.4424217543,2781663.8021791,34.18395839584,0,0
60.983503909178,-24.547058020343,28.988388838884,2672766.8357752,-1802.4424217543,2781663.8021791,34.188388838884,0,0
60.983504192381,-24.550732158993,28.992819281928,2672766.8357752,-1802.4424217543,2781663.8021791,34.192819281928,0,0
60.983504475584,-24.554406297642,28.997249724972,2672766.8357752,-1802.4424217543,2781663.8021791,34.197249724972,0,0
60.983504758787,-24.558080436292,29.001680168017,2672766.8357752,-1802.4424217543,2781663.8021791,34.201680168017,0,0
60.98350504199,-24.561754574942,29.006110611061,2672766.8357752,-1802.4424217543,2781663.8021791,34.206110611061,0,0
60.983505325194,-24.565428713592,29.010541054105,2672766.8357752,-1802.4424217543,2781663.8021791,34.210541054105,0,0
60.983505608397,-24.569102852242,29.01497149715,2672766.8357752,-1802.4424217543,2781663.8021791,34.21497149715,0,0
60.9835058916,-24.572776990891,29.019401940194,2672766.8357752,-1802.4424217543,2781663.8021791,34.219401940194,0,0
60.983506174803,-24.576451129541,29.023832383238,2672766.8357752,-1802.4424217543,2781663.8021791,34.223832383238,0,0
60.983506458006,-24.580125268191,29.028262826283,2672766.8357752,-1802.4424217543,2781663.8021791,34.228262826283,0,0
60.98350674121,-24.583799406841,29.032693269327,2672766.8357752,-1802.4424217543,2781663.8021791,34.232693269327,0,0
60.983507024413,-24.58747354549,29.037123712371,2672766.8357752,-1802.4424217543,2781663.8021791,34.237123712371,0,0
60.983507307616,-24.59114768414,29.041554155416,2672766.8357752,-1802.4424217543,2781663.8021791,34.241554155416,0,0
60.983507590819,-24.59482182279,29.04598459846,2672766.8357752,-1802.4424217543,2781663.8021791,34.24598459846,0,0
60.983507874022,-24.59849596144,29.050415041504,2672766.8357752,-1802.4424217543,2781663.8021791,34.250415041504,0,0
60.983508157226,-24.60217010009,29.054845484548,2672766.8357752,-1802.4424217543,2781663.8021791,34.254845484548,0,0
60.983508440429,-24.605844238739,29.059275927593,2672766.8357752,-1802.4424217543,2781663.8021791,34.259275927593,0,0
60.983508723632,-24.609518377389,29.063706370637,2672766.8357752,-1802.4424217543,2781663.8021791,34.263706370637,0,0
60.983509006835,-24.613192516039,29.068136813681,2672766.8357752,-1802.4424217543,2781663.8021791,34.268136813681,0,0
60.983509290038,-24.616866654689,29.072567256726,2672766.8357752,-1802.4424217543,2781663.8021791,34.272567256726,0,0
60.983509573242,-24.620540793338,29.07699769977,2672766.8357752,-1802.4424217543,2781663.8021791,34.27699769977,0,0
60.983509856445,-24.624214931988,29.081428142814,2672766.8357752,-1802.4424217543,2781663.8021791,34.281428142814,0,0
60.983510139648,-24.627889070638,29.085858585859,2672766.8357752,-1802.4424217543,2781663.8021791,34.285858585859,0,0
60.983510422851,-24.631563209288,29.090289028903,2672766.8357752,-1802.4424217543,2781663.8021791,34.290289028903,0,0
60.983510706054,-24.635237347938,29.094719471947,2672766.8357752,-1802.4424217543,2781663.8021791,34.294719471947,0,0
60.983510989258,-24.638911486587,29.099149914991,2672766.8357752,-1802.4424217543,2781663.8021791,34.299149914991,0,0
60.983511272461,-24.642585625237,29.103580358036,2672766.8357752,-1802.4424217543,2781663.8021791,34.303580358036,0,0
60.983511555664,-24.646259763887,29.10801080108,2672766.8357752,-1802.4424217543,2781663.8021791,34.30801080108,0,0
60.983511838867,-24.649933902537,29.112441244124,2672766.8357752,-1802.4424217543,2781663.8021791,34.312441244124,0,0
60.98351212207,-24.653608041186,29.116871687169,2672766.8357752,-1802.4424217543,2781663.8021791,34.316871687169,0,0
60.983512405274,-24.657282179836,29.121302130213,2672766.8357752,-1802.4424217543,2781663.8021791,34.321302130213,0,0
60.983512688477,-24.660956318486,29.125732573257,2672766.8357752,-1802.4424217543,2781663.8021791,34.325732573257,0,0
60.98351297168,-24.664630457136,29.130163016302,2672766.8357752,-1802.4424217543,2781663.8021791,34.330163016302,0,0
60.983513254883,-24.668304595786,29.134593459346,2672766.8357752,-1802.4424217543,2781663.8021791,34.334593459346,0,0
60.983513538086,-24.671978734435,29.13902390239,2672766.8357752,-1802.4424217543,2781663.8021791,34.33902390239,0,0
60.98351382129,-24.675652873085,29.143454345435,2672766.8357752,-1802.4424217543,2781663.8021791,34.343454345435,0,0
60.983514104493,-24.679327011735,29.147884788479,2672766.8357752,-1802.4424217543,2781663.8021791,34.347884788479,0,0
60.983514387696,-24.683001150385,29.152315231523,2672766.8357752,-1802.4424217543,2781663.8021791,34.352315231523,0,0
60.983514670899,-24.686675289034,29.156745674567,2672766.8357752,-1802.4424217543,2781663.8021791,34.356745674567,0,0
60.983514954103,-24.690349427684,29.161176117612,2672766.8357752,-1802.4424217543,2781663.8021791,34.361176117612,0,0
60.983515237306,-24.694023566334,29.165606560656,2672766.8357752,-1802.4424217543,2781663.8021791,34.365606560656,0,0
60.983515520509,-24.697697704984,29.1700370037,2672766.8357752,-1802.4424217543,2781663.8021791,34.3700370037,0,0
60.983515803712,-24.701371843633,29.174467446745,2672766.8357752,-1802.4424217543,2781663.8021791,34.374467446745,0,0
60.983516086915,-24.705045982283,29.178897889789,2672766.8357752,-1802.4424217543,2781663.8021791,34.378897889789,0,0
60.983516370119,-24.708720120933,29.183328332833,2672766.8357752,-1802.4424217543,2781663.8021791,34.383328332833,0,0
60.983516653322,-24.712394259583,29.187758775878,2672766.8357752,-1802.4424217543,2781663.8021791,34.387758775878,0,0
60.983516936525,-24.716068398233,29.192189218922,2672766.8357752,-1802.4424217543,2781663.8021791,34.392189218922,0,0
60.983517219728,-24.719742536882,29.196619661966,2672766.8357752,-1802.4424217543,2781663.8021791,34.396619661966,0,0
60.983517502931,-24.723416675532,29.20105010501,2672766.8357752,-1802.4424217543,2781663.8021791,34.40105010501,0,0
60.983517786135,-24.727090814182,29.205480548055,2672766.8357752,-1802.4424217543,2781663.8021791,34.405480548055,0,0
60.983518069338,-24.730764952832,29.209910991099,2672766.8357752,-1802.4424217543,2781663.8021791,34.409910991099,0,0
60.983518352541,-24.734439091481,29.214341434143,2672766.8357752,-1802.4424217543,2781663.8021791,34.414341434143,0,0
60.983518635744,-24.738113230131,29.218771877188,2672766.8357752,-1802.4424217543,2781663.8021791,34.418771877188,0,0
60.983518918947,-24.741787368781,29.223202320232,2672766.8357752,-1802.4424217543,2781663.8021791,34.423202320232,0,0
60.983519202151,-24.745461507431,29.227632763276,2672766.8357752,-1802.4424217543,2781663.8021791,34.427632763276,0,0
60.983519485354,-24.749135646081,29.232063206321,2672766.8357752,-1802.4424217543,2781663.8021791,34.432063206321,0,0
60.983519768557,-24.75280978473,29.236493649365,2672766.8357752,-1802.4424217543,2781663.8021791,34.436493649365,0,0
60.98352005176,-24.75648392338,29.240924092409,2672766.8357752,-1802.4424217543,2781663.8021791,34.440924092409,0,0
60.983520334963,-24.76015806203,29.245354535454,2672766.8357752,-1802.4424217543,2781663.8021791,34.445354535454,0,0
60.983520618167,-24.76383220068,29.249784978498,2672766.8357752,-1802.4424217543,2781663.8021791,34.449784978498,0,0
60.98352090137,-24.767506339329,29.254215421542,2672766.8357752,-1802.4424217543,2781663.8021791,34.454215421542,0,0
60.983521184573,-24.771180477979,29.258645864586,2672766.8357752,-1802.4424217543,2781663.8021791,34.458645864586,0,0
60.983521467776,-24.774854616629,29.263076307631,2672766.8357752,-1802.4424217543,2781663.8021791,34.463076307631,0,0
60.983521750979,-24.778528755279,29.267506750675,2672766.8357752,-1802.4424217543,2781663.8021791,34.467506750675,0,0
60.983522034183,-24.782202893929,29.271937193719,2672766.8357752,-1802.4424217543,2781663.8021791,34.471937193719,0,0
60.983522317386,-24.785877032578,29.276367636764,2672766.8357752,-1802.4424217543,2781663.8021791,34.476367636764,0,0
60.983522600589,-24.789551171228,29.280798079808,2672766.8357752,-1802.4424217543,2781663.8021791,34.480798079808,0,0
60.983522883792,-24.793225309878,29.285228522852,2672766.8357752,-1802.4424217543,2781663.8021791,34.485228522852,0,0
60.983523166995,-24.796899448528,29.289658965897,2672766.8357752,-1802.4424217543,2781663.8021791,34.489658965897,0,0
60.983523450199,-24.800573587177,29.294089408941,2672766.8357752,-1802.4424217543,2781663.8021791,34.494089408941,0,0
60.983523733402,-24.804247725827,29.298519851985,2672766.8357752,-1802.4424217543,2781663.8021791,34.498519851985,0,0
60.983524016605,-24.807921864477,29.30295029503,2672766.8357752,-1802.4424217543,2781663.8021791,34.502950295029,0,0
60.983524299808,-24.811596003127,29.307380738074,2672766.8357752,-1802.4424217543,2781663.8021791,34.507380738074,0,0
60.983524583011,-24.815270141777,29.311811181118,2672766.8357752,-1802.4424217543,2781663.8021791,34.511811181118,0,0
60.983524866215,-24.818944280426,29.316241624162,2672766.8357752,-1802.4424217543,2781663.8021791,34.516241624162,0,0
60.983525149418,-24.822618419076,29.320672067207,2672766.8357752,-1802.4424217543,2781663.8021791,34.520672067207,0,0
60.983525432621,-24.826292557726,29.325102510251,2672766.8357752,-1802.4424217543,2781663.8021791,34.525102510251,0,0
60.983525715824,-24.829966696376,29.329532953295,2672766.8357752,-1802.4424217543,2781663.8021791,34.529532953295,0,0
60.983525999027,-24.833640835025,29.33396339634,2672766.8357752,-1802.4424217543,2781663.8021791,34.53396339634,0,0
60.983526282231,-24.837314973675,29.338393839384,2672766.8357752,-1802.4424217543,2781663.8021791,34.538393839384,0,0
60.983526565434,-24.840989112325,29.342824282428,2672766.8357752,-1802.4424217543,2781663.8021791,34.542824282428,0,0
60.983526848637,-24.844663250975,29.347254725473,2672766.8357752,-1802.4424217543,2781663.8021791,34.547254725473,0,0
60.98352713184,-24.848337389624,29.351685168517,2672766.8357752,-1802.4424217543,2781663.8021791,34.551685168517,0,0
60.983527415043,-24.852011528274,29.356115611561,2672766.8357752,-1802.4424217543,2781663.8021791,34.556115611561,0,0
60.983527698247,-24.855685666924,29.360546054605,2672766.8357752,-1802.4424217543,2781663.8021791,34.560546054605,0,0
60.98352798145,-24.859359805574,29.36497649765,2672766.8357752,-1802.4424217543,2781663.8021791,34.56497649765,0,0
60.983528264653,-24.863033944224,29.369406940694,2672766.8357752,-1802.4424217543,2781663.8021791,34.569406940694,0,0
60.983528547856,-24.866708082873,29.373837383738,2672766.8357752,-1802.4424217543,2781663.8021791,34.573837383738,0,0
60.98352883106,-24.870382221523,29.378267826783,2672766.8357752,-1802.4424217543,2781663.8021791,34.578267826783,0,0
60.983529114263,-24.874056360173,29.382698269827,2672766.8357752,-1802.4424217543,2781663.8021791,34.582698269827,0,0
60.983529397466,-24.877730498823,29.387128712871,2672766.8357752,-1802.4424217543,2781663.8021791,34.587128712871,0,0
60.983529680669,-24.881404637472,29.391559155916,2672766.8357752,-1802.4424217543,2781663.8021791,34.591559155916,0,0
60.983529963872,-24.885078776122,29.39598959896,2672766.8357752,-1802.4424217543,2781663.8021791,34.59598959896,0,0
60.983530247076,-24.888752914772,29.400420042004,2672766.8357752,-1802.4424217543,2781663.8021791,34.600420042004,0,0
60.983530530279,-24.892427053422,29.404850485049,2672766.8357752,-1802.4424217543,2781663.8021791,34.604850485049,0,0
60.983530813482,-24.896101192072,29.409280928093,2672766.8357752,-1802.4424217543,2781663.8021791,34.609280928093,0,0
60.983531096685,-24.899775330721,29.413711371137,2672766.8357752,-1802.4424217543,2781663.8021791,34.613711371137,0,0
60.983531379888,-24.903449469371,29.418141814181,2672766.8357752,-1802.4424217543,2781663.8021791,34.618141814181,0,0
60.983531663092,-24.907123608021,29.422572257226,2672766.8357752,-1802.4424217543,2781663.8021791,34.622572257226,0,0
60.983531946295,-24.910797746671,29.42700270027,2672766.8357752,-1802.4424217543,2781663.8021791,34.62700270027,0,0
60.983532229498,-24.91447188532,29.431433143314,2672766.8357752,-1802.4424217543,2781663.8021791,34.631433143314,0,0
60.983532512701,-24.91814602397,29.435863586359,2672766.8357752,-1802.4424217543,2781663.8021791,34.635863586359,0,0
60.983532795904,-24.92182016262,29.440294029403,2672766.8357752,-1802.4424217543,2781663.8021791,34.640294029403,0,0
60.983533079108,-24.92549430127,29.444724472447,2672766.8357752,-1802.4424217543,2781663.8021791,34.644724472447,0,0
60.983533362311,-24.92916843992,29.449154915492,2672766.8357752,-1802.4424217543,2781663.8021791,34.649154915492,0,0
60.983533645514,-24.932842578569,29.453585358536,2672766.8357752,-1802.4424217543,2781663.8021791,34.653585358536,0,0
60.983533928717,-24.936516717219,29.45801580158,2672766.8357752,-1802.4424217543,2781663.8021791,34.65801580158,0,0
60.98353421192,-24.940190855869,29.462446244624,2672766.8357752,-1802.4424217543,2781663.8021791,34.662446244624,0,0
60.983534495124,-24.943864994519,29.466876687669,2672766.8357752,-1802.4424217543,2781663.8021791,34.666876687669,0,0
60.983534778327,-24.947539133168,29.471307130713,2672766.8357752,-1802.4424217543,2781663.8021791,34.671307130713,0,0
60.98353506153,-24.951213271818,29.475737573757,2672766.8357752,-1802.4424217543,2781663.8021791,34.675737573757,0,0
60.983535344733,-24.954887410468,29.480168016802,2672766.8357752,-1802.4424217543,2781663.8021791,34.680168016802,0,0
60.983535627936,-24.958561549118,29.484598459846,2672766.8357752,-1802.4424217543,2781663.8021791,34.684598459846,0,0
60.98353591114,-24.962235687768,29.48902890289,2672766.8357752,-1802.4424217543,2781663.8021791,34.68902890289,0,0
60.983536194343,-24.965909826417,29.493459345935,2672766.8357752,-1802.4424217543,2781663.8021791,34.693459345935,0,0
60.983536477546,-24.969583965067,29.497889788979,2672766.8357752,-1802.4424217543,2781663.8021791,34.697889788979,0,0
60.983536760749,-24.973258103717,29.502320232023,2672766.8357752,-1802.4424217543,2781663.8021791,34.702320232023,0,0
60.983537043952,-24.976932242367,29.506750675068,2672766.8357752,-1802.4424217543,2781663.8021791,34.706750675068,0,0
60.983537327156,-24.980606381016,29.511181118112,2672766.8357752,-1802.4424217543,2781663.8021791,34.711181118112,0,0
60.983537610359,-24.984280519666,29.515611561156,2672766.8357752,-1802.4424217543,2781663.8021791,34.715611561156,0,0
60.983537893562,-24.987954658316,29.5200420042,2672766.8357752,-1802.4424217543,2781663.8021791,34.7200420042,0,0
60.983538176765,-24.991628796966,29.524472447245,2672766.8357752,-1802.4424217543,2781663.8021791,34.724472447245,0,0
60.983538459968,-24.995302935615,29.528902890289,2672766.8357752,-1802.4424217543,2781663.8021791,34.728902890289,0,0
60.983538743172,-24.998977074265,29.533333333333,2672766.8357752,-1802.4424217543,2781663.8021791,34.733333333333,0,0
60.983539026375,-25.002651212915,29.537763776378,2672766.8357752,-1802.4424217543,2781663.8021791,34.737763776378,0,0
60.983539309578,-25.006325351565,29.542194219422,2672766.8357752,-1802.4424217543,2781663.8021791,34.742194219422,0,0
60.983539592781,-25.009999490215,29.546624662466,2672766.8357752,-1802.4424217543,2781663.8021791,34.746624662466,0,0
60.983539875984,-25.013673628864,29.551055105511,2672766.8357752,-1802.4424217543,2781663.8021791,34.751055105511,0,0
60.983540159188,-25.017347767514,29.555485548555,2672766.8357752,-1802.4424217543,2781663.8021791,34.755485548555,0,0
60.983540442391,-25.021021906164,29.559915991599,2672766.8357752,-1802.4424217543,2781663.8021791,34.759915991599,0,0
60.983540725594,-25.024696044814,29.564346434643,2672766.8357752,-1802.4424217543,2781663.8021791,34.764346434643,0,0
60.983541008797,-25.028370183463,29.568776877688,2672766.8357752,-1802.4424217543,2781663.8021791,34.768776877688,0,0
60.983541292,-25.032044322113,29.573207320732,2672766.8357752,-1802.4424217543,2781663.8021791,34.773207320732,0,0
60.983541575204,-25.035718460763,29.577637763776,2672766.8357752,-1802.4424217543,2781663.8021791,34.777637763776,0,0
60.983541858407,-25.039392599413,29.582068206821,2672766.8357752,-1802.4424217543,2781663.8021791,34.782068206821,0,0
60.98354214161,-25.043066738063,29.586498649865,2672766.8357752,-1802.4424217543,2781663.8021791,34.786498649865,0,0
60.983542424813,-25.046740876712,29.590929092909,2672766.8357752,-1802.4424217543,2781663.8021791,34.790929092909,0,0
60.983542708016,-25.050415015362,29.595359535954,2672766.8357752,-1802.4424217543,2781663.8021791,34.795359535954,0,0
60.98354299122,-25.054089154012,29.599789978998,2672766.8357752,-1802.4424217543,2781663.8021791,34.799789978998,0,0
60.983543274423,-25.057763292662,29.604220422042,2672766.8357752,-1802.4424217543,2781663.8021791,34.804220422042,0,0
60.983543557626,-25.061437431311,29.608650865087,2672766.8357752,-1802.4424217543,2781663.8021791,34.808650865087,0,0
60.983543840829,-25.065111569961,29.613081308131,2672766.8357752,-1802.4424217543,2781663.8021791,34.813081308131,0,0
60.983544124033,-25.068785708611,29.617511751175,2672766.8357752,-1802.4424217543,2781663.8021791,34.817511751175,0,0
60.983544407236,-25.072459847261,29.621942194219,2672766.8357752,-1802.4424217543,2781663.8021791,34.821942194219,0,0
60.983544690439,-25.076133985911,29.626372637264,2672766.8357752,-1802.4424217543,2781663.8021791,34.826372637264,0,0
60.983544973642,-25.07980812456,29.630803080308,2672766.8357752,-1802.4424217543,2781663.8021791,34.830803080308,0,0
60.983545256845,-25.08348226321,29.635233523352,2672766.8357752,-1802.4424217543,2781663.8021791,34.835233523352,0,0
60.983545540049,-25.08715640186,29.639663966397,2672766.8357752,-1802.4424217543,2781663.8021791,34.839663966397,0,0
60.983545823252,-25.09083054051,29.644094409441,2672766.8357752,-1802.4424217543,2781663.8021791,34.844094409441,0,0
60.983546106455,-25.094504679159,29.648524852485,2672766.8357752,-1802.4424217543,2781663.8021791,34.848524852485,0,0
60.983546389658,-25.098178817809,29.65295529553,2672766.8357752,-1802.4424217543,2781663.8021791,34.85295529553,0,0
60.983546672861,-25.101852956459,29.657385738574,2672766.8357752,-1802.4424217543,2781663.8021791,34.857385738574,0,0
60.983546956065,-25.105527095109,29.661816181618,2672766.8357752,-1802.4424217543,2781663.8021791,34.861816181618,0,0
60.983547239268,-25.109201233759,29.666246624662,2672766.8357752,-1802.4424217543,2781663.8021791,34.866246624662,0,0
60.983547522512,-25.11287537236,29.670677067707,2677895.6066836,-477.49049153934,2779611.4092753,34.870677067707,0,0
60.98354780618,-25.11654951047,29.675107510751,2677895.6066836,-477.49049153934,2779611.4092753,34.875107510751,0,0
60.983548089847,-25.120223648579,29.679537953795,2677895.6066836,-477.49049153934,2779611.4092753,34.879537953795,0,0
60.983548373515,-25.123897786689,29.68396839684,2677895.6066836,-477.49049153934,2779611.4092753,34.88396839684,0,0
60.983548657182,-25.127571924798,29.688398839884,2677895.6066836,-477.49049153934,2779611.4092753,34.888398839884,0,0
60.98354894085,-25.131246062907,29.692829282928,2677895.6066836,-477.49049153934,2779611.4092753,34.892829282928,0,0
60.983549224517,-25.134920201017,29.697259725973,2677895.6066836,-477.49049153934,2779611.4092753,34.897259725973,0,0
60.983549508185,-25.138594339126,29.701690169017,2677895.6066836,-477.49049153934,2779611.4092753,34.901690169017,0,0
60.983549791852,-25.142268477235,29.706120612061,2677895.6066836,-477.49049153934,2779611.4092753,34.906120612061,0,0
60.98355007552,-25.145942615345,29.710551055106,2677895.6066836,-477.49049153934,2779611.4092753,34.910551055106,0,0
60.983550359187,-25.149616753454,29.71498149815,2677895.6066836,-477.49049153934,2779611.4092753,34.91498149815,0,0
60.983550642855,-25.153290891564,29.719411941194,2677895.6066836,-477.49049153934,2779611.4092753,34.919411941194,0,0
60.983550926522,-25.156965029673,29.723842384238,2677895.6066836,-477.49049153934,2779611.4092753,34.923842384238,0,0
60.98355121019,-25.160639167782,29.728272827283,2677895.6066836,-477.49049153934,2779611.4092753,34.928272827283,0,0
60.983551493857,-25.164313305892,29.732703270327,2677895.6066836,-477.49049153934,2779611.4092753,34.932703270327,0,0
60.983551777525,-25.167987444001,29.737133713371,2677895.6066836,-477.49049153934,2779611.4092753,34.937133713371,0,0
60.983552061192,-25.17166158211,29.741564156416,2677895.6066836,-477.49049153934,2779611.4092753,34.941564156416,0,0
60.98355234486,-25.17533572022,29.74599459946,2677895.6066836,-477.49049153934,2779611.4092753,34.94599459946,0,0
60.983552628527,-25.179009858329,29.750425042504,2677895.6066836,-477.49049153934,2779611.4092753,34.950425042504,0,0
60.983552912195,-25.182683996439,29.754855485549,2677895.6066836,-477.49049153934,2779611.4092753,34.954855485549,0,0
60.983553195862,-25.186358134548,29.759285928593,2677895.6066836,-477.49049153934,2779611.4092753,34.959285928593,0,0
60.98355347953,-25.190032272657,29.763716371637,2677895.6066836,-477.49049153934,2779611.4092753,34.963716371637,0,0
60.983553763197,-25.193706410767,29.768146814681,2677895.6066836,-477.49049153934,2779611.4092753,34.968146814681,0,0
60.983554046865,-25.197380548876,29.772577257726,2677895.6066836,-477.49049153934,2779611.4092753,34.972577257726,0,0
60.983554330532,-25.201054686985,29.77700770077,2677895.6066836,-477.49049153934,2779611.4092753,34.97700770077,0,0
60.9835546142,-25.204728825095,29.781438143814,2677895.6066836,-477.49049153934,2779611.4092753,34.981438143814,0,0
60.983554897867,-25.208402963204,29.785868586859,2677895.6066836,-477.49049153934,2779611.4092753,34.985868586859,0,0
60.983555181535,-25.212077101314,29.790299029903,2677895.6066836,-477.49049153934,2779611.4092753,34.990299029903,0,0
60.983555465202,-25.215751239423,29.794729472947,2677895.6066836,-477.49049153934,2779611.4092753,34.994729472947,0,0
60.98355574887,-25.219425377532,29.799159915992,2677895.6066836,-477.49049153934,2779611.4092753,34.999159915992,0,0
60.983556032537,-25.223099515642,29.803590359036,2677895.6066836,-477.49049153934,2779611.4092753,35.003590359036,0,0
60.983556316205,-25.226773653751,29.80802080208,2677895.6066836,-477.49049153934,2779611.4092753,35.00802080208,0,0
60.983556599873,-25.23044779186,29.812451245125,2677895.6066836,-477.49049153934,2779611.4092753,35.012451245125,0,0
60.98355688354,-25.23412192997,29.816881688169,2677895.6066836,-477.49049153934,2779611.4092753,35.016881688169,0,0
60.983557167208,-25.237796068079,29.821312131213,2677895.6066836,-477.49049153934,2779611.4092753,35.021312131213,0,0
60.983557450875,-25.241470206189,29.825742574257,2677895.6066836,-477.49049153934,2779611.4092753,35.025742574257,0,0
60.983557734543,-25.245144344298,29.830173017302,2677895.6066836,-477.49049153934,2779611.4092753,35.030173017302,0,0
60.98355801821,-25.248818482407,29.834603460346,2677895.6066836,-477.49049153934,2779611.4092753,35.034603460346,0,0
60.983558301878,-25.252492620517,29.83903390339,2677895.6066836,-477.49049153934,2779611.4092753,35.03903390339,0,0
60.983558585545,-25.256166758626,29.843464346435,2677895.6066836,-477.49049153934,2779611.4092753,35.043464346435,0,0
60.983558869213,-25.259840896735,29.847894789479,2677895.6066836,-477.49049153934,2779611.4092753,35.047894789479,0,0
60.98355915288,-25.263515034845,29.852325232523,2677895.6066836,-477.49049153934,2779611.4092753,35.052325232523,0,0
60.983559436548,-25.267189172954,29.856755675568,2677895.6066836,-477.49049153934,2779611.4092753,35.056755675568,0,0
60.983559720215,-25.270863311064,29.861186118612,2677895.6066836,-477.49049153934,2779611.4092753,35.061186118612,0,0
60.983560003883,-25.274537449173,29.865616561656,2677895.6066836,-477.49049153934,2779611.4092753,35.065616561656,0,0
60.98356028755,-25.278211587282,29.8700470047,2677895.6066836,-477.49049153934,2779611.4092753,35.0700470047,0,0
60.983560571218,-25.281885725392,29.874477447745,2677895.6066836,-477.49049153934,2779611.4092753,35.074477447745,0,0
60.983560854885,-25.285559863501,29.878907890789,2677895.6066836,-477.49049153934,2779611.4092753,35.078907890789,0,0
60.983561138553,-25.28923400161,29.883338333833,2677895.6066836,-477.49049153934,2779611.4092753,35.083338333833,0,0
60.98356142222,-25.29290813972,29.887768776878,2677895.6066836,-477.49049153934,2779611.4092753,35.087768776878,0,0
60.983561705888,-25.296582277829,29.892199219922,2677895.6066836,-477.49049153934,2779611.4092753,35.092199219922,0,0
60.983561989555,-25.300256415939,29.896629662966,2677895.6066836,-477.49049153934,2779611.4092753,35.096629662966,0,0
60.983562273223,-25.303930554048,29.901060106011,2677895.6066836,-477.49049153934,2779611.4092753,35.101060106011,0,0
60.98356255689,-25.307604692157,29.905490549055,2677895.6066836,-477.49049153934,2779611.4092753,35.105490549055,0,0
60.983562840558,-25.311278830267,29.909920992099,2677895.6066836,-477.49049153934,2779611.4092753,35.109920992099,0,0
60.983563124225,-25.314952968376,29.914351435144,2677895.6066836,-477.49049153934,2779611.4092753,35.114351435144,0,0
60.983563407893,-25.318627106486,29.918781878188,2677895.6066836,-477.49049153934,2779611.4092753,35.118781878188,0,0
60.98356369156,-25.322301244595,29.923212321232,2677895.6066836,-477.49049153934,2779611.4092753,35.123212321232,0,0
60.983563975228,-25.325975382704,29.927642764276,2677895.6066836,-477.49049153934,2779611.4092753,35.127642764276,0,0
60.983564258895,-25.329649520814,29.932073207321,2677895.6066836,-477.49049153934,2779611.4092753,35.132073207321,0,0
60.983564542563,-25.333323658923,29.936503650365,2677895.6066836,-477.49049153934,2779611.4092753,35.136503650365,0,0
60.98356482623,-25.336997797032,29.940934093409,2677895.6066836,-477.49049153934,2779611.4092753,35.140934093409,0,0
60.983565109898,-25.340671935142,29.945364536454,2677895.6066836,-477.49049153934,2779611.4092753,35.145364536454,0,0
60.983565393565,-25.344346073251,29.949794979498,2677895.6066836,-477.49049153934,2779611.4092753,35.149794979498,0,0
60.983565677233,-25.348020211361,29.954225422542,2677895.6066836,-477.49049153934,2779611.4092753,35.154225422542,0,0
60.9835659609,-25.35169434947,29.958655865587,2677895.6066836,-477.49049153934,2779611.4092753,35.158655865587,0,0
60.983566244568,-25.355368487579,29.963086308631,2677895.6066836,-477.49049153934,2779611.4092753,35.163086308631,0,0
60.983566528235,-25.359042625689,29.967516751675,2677895.6066836,-477.49049153934,2779611.4092753,35.167516751675,0,0
60.983566811903,-25.362716763798,29.971947194719,2677895.6066836,-477.49049153934,2779611.4092753,35.171947194719,0,0
60.983567095571,-25.366390901907,29.976377637764,2677895.6066836,-477.49049153934,2779611.4092753,35.176377637764,0,0
60.983567379238,-25.370065040017,29.980808080808,2677895.6066836,-477.49049153934,2779611.4092753,35.180808080808,0,0
60.983567662906,-25.373739178126,29.985238523852,2677895.6066836,-477.49049153934,2779611.4092753,35.185238523852,0,0
60.983567946573,-25.377413316236,29.989668966897,2677895.6066836,-477.49049153934,2779611.4092753,35.189668966897,0,0
60.983568230241,-25.381087454345,29.994099409941,2677895.6066836,-477.49049153934,2779611.4092753,35.194099409941,0,0
60.983568513908,-25.384761592454,29.998529852985,2677895.6066836,-477.49049153934,2779611.4092753,35.198529852985,0,0
60.983568797576,-25.388435730564,30.00296029603,2677895.6066836,-477.49049153934,2779611.4092753,35.20296029603,0,0
60.983569081243,-25.392109868673,30.007390739074,2677895.6066836,-477.49049153934,2779611.4092753,35.207390739074,0,0
60.983569364911,-25.395784006782,30.011821182118,2677895.6066836,-477.49049153934,2779611.4092753,35.211821182118,0,0
60.983569648578,-25.399458144892,30.016251625163,2677895.6066836,-477.49049153934,2779611.4092753,35.216251625163,0,0
60.983569932246,-25.403132283001,30.020682068207,2677895.6066836,-477.49049153934,2779611.4092753,35.220682068207,0,0
60.983570215913,-25.406806421111,30.025112511251,2677895.6066836,-477.49049153934,2779611.4092753,35.225112511251,0,0
60.983570499581,-25.41048055922,30.029542954295,2677895.6066836,-477.49049153934,2779611.4092753,35.229542954295,0,0
60.983570783248,-25.414154697329,30.03397339734,2677895.6066836,-477.49049153934,2779611.4092753,35.23397339734,0,0
60.983571066916,-25.417828835439,30.038403840384,2677895.6066836,-477.49049153934,2779611.4092753,35.238403840384,0,0
60.983571350583,-25.421502973548,30.042834283428,2677895.6066836,-477.49049153934,2779611.4092753,35.242834283428,0,0
60.983571634251,-25.425177111657,30.047264726473,2677895.6066836,-477.49049153934,2779611.4092753,35.247264726473,0,0
60.983571917918,-25.428851249767,30.051695169517,2677895.6066836,-477.49049153934,2779611.4092753,35.251695169517,0,0
60.983572201586,-25.432525387876,30.056125612561,2677895.6066836,-477.49049153934,2779611.4092753,35.256125612561,0,0
60.983572485253,-25.436199525986,30.060556055606,2677895.6066836,-477.49049153934,2779611.4092753,35.260556055606,0,0
60.983572768921,-25.439873664095,30.06498649865,2677895.6066836,-477.49049153934,2779611.4092753,35.26498649865,0,0
60.983573052588,-25.443547802204,30.069416941694,2677895.6066836,-477.49049153934,2779611.4092753,35.269416941694,0,0
60.983573336256,-25.447221940314,30.073847384738,2677895.6066836,-477.49049153934,2779611.4092753,35.273847384738,0,0
60.983573619923,-25.450896078423,30.078277827783,2677895.6066836,-477.49049153934,2779611.4092753,35.278277827783,0,0
60.983573903591,-25.454570216532,30.082708270827,2677895.6066836,-477.49049153934,2779611.4092753,35.282708270827,0,0
60.983574187258,-25.458244354642,30.087138713871,2677895.6066836,-477.49049153934,2779611.4092753,35.287138713871,0,0
60.983574470926,-25.461918492751,30.091569156916,2677895.6066836,-477.49049153934,2779611.4092753,35.291569156916,0,0
60.983574754593,-25.465592630861,30.09599959996,2677895.6066836,-477.49049153934,2779611.4092753,35.29599959996,0,0
60.983575038261,-25.46926676897,30.100430043004,2677895.6066836,-477.49049153934,2779611.4092753,35.300430043004,0,0
60.983575321928,-25.472940907079,30.104860486049,2677895.6066836,-477.49049153934,2779611.4092753,35.304860486049,0,0
60.983575605596,-25.476615045189,30.109290929093,2677895.6066836,-477.49049153934,2779611.4092753,35.309290929093,0,0
60.983575889263,-25.480289183298,30.113721372137,2677895.6066836,-477.49049153934,2779611.4092753,35.313721372137,0,0
60.983576172931,-25.483963321407,30.118151815182,2677895.6066836,-477.49049153934,2779611.4092753,35.318151815182,0,0
60.983576456598,-25.487637459517,30.122582258226,2677895.6066836,-477.49049153934,2779611.4092753,35.322582258226,0,0
60.983576740266,-25.491311597626,30.12701270127,2677895.6066836,-477.49049153934,2779611.4092753,35.32701270127,0,0
60.983577023933,-25.494985735736,30.131443144314,2677895.6066836,-477.49049153934,2779611.4092753,35.331443144314,0,0
60.983577307601,-25.498659873845,30.135873587359,2677895.6066836,-477.49049153934,2779611.4092753,35.335873587359,0,0
60.983577591269,-25.502334011954,30.140304030403,2677895.6066836,-477.49049153934,2779611.4092753,35.340304030403,0,0
60.983577874936,-25.506008150064,30.144734473447,2677895.6066836,-477.49049153934,2779611.4092753,35.344734473447,0,0
60.983578158604,-25.509682288173,30.149164916492,2677895.6066836,-477.49049153934,2779611.4092753,35.349164916492,0,0
60.983578442271,-25.513356426282,30.153595359536,2677895.6066836,-477.49049153934,2779611.4092753,35.353595359536,0,0
60.983578725939,-25.517030564392,30.15802580258,2677895.6066836,-477.49049153934,2779611.4092753,35.35802580258,0,0
60.983579009606,-25.520704702501,30.162456245625,2677895.6066836,-477.49049153934,2779611.4092753,35.362456245625,0,0
60.983579293274,-25.524378840611,30.166886688669,2677895.6066836,-477.49049153934,2779611.4092753,35.366886688669,0,0
60.983579576941,-25.52805297872,30.171317131713,2677895.6066836,-477.49049153934,2779611.4092753,35.371317131713,0,0
60.983579860609,-25.531727116829,30.175747574757,2677895.6066836,-477.49049153934,2779611.4092753,35.375747574757,0,0
60.983580144276,-25.535401254939,30.180178017802,2677895.6066836,-477.49049153934,2779611.4092753,35.380178017802,0,0
60.983580427944,-25.539075393048,30.184608460846,2677895.6066836,-477.49049153934,2779611.4092753,35.384608460846,0,0
60.983580711611,-25.542749531157,30.18903890389,2677895.6066836,-477.49049153934,2779611.4092753,35.38903890389,0,0
60.983580995279,-25.546423669267,30.193469346935,2677895.6066836,-477.49049153934,2779611.4092753,35.393469346935,0,0
60.983581278946,-25.550097807376,30.197899789979,2677895.6066836,-477.49049153934,2779611.4092753,35.397899789979,0,0
60.983581562614,-25.553771945486,30.202330233023,2677895.6066836,-477.49049153934,2779611.4092753,35.402330233023,0,0
60.983581846281,-25.557446083595,30.206760676068,2677895.6066836,-477.49049153934,2779611.4092753,35.406760676068,0,0
60.983582129949,-25.561120221704,30.211191119112,2677895.6066836,-477.49049153934,2779611.4092753,35.411191119112,0,0
60.983582413616,-25.564794359814,30.215621562156,2677895.6066836,-477.49049153934,2779611.4092753,35.415621562156,0,0
60.983582697284,-25.568468497923,30.220052005201,2677895.6066836,-477.49049153934,2779611.4092753,35.420052005201,0,0
60.983582980951,-25.572142636032,30.224482448245,2677895.6066836,-477.49049153934,2779611.4092753,35.424482448245,0,0
60.983583264619,-25.575816774142,30.228912891289,2677895.6066836,-477.49049153934,2779611.4092753,35.428912891289,0,0
60.983583548286,-25.579490912251,30.233343334333,2677895.6066836,-477.49049153934,2779611.4092753,35.433343334333,0,0
60.983583831954,-25.583165050361,30.237773777378,2677895.6066836,-477.49049153934,2779611.4092753,35.437773777378,0,0
60.983584115621,-25.58683918847,30.242204220422,2677895.6066836,-477.49049153934,2779611.4092753,35.442204220422,0,0
60.983584399289,-25.590513326579,30.246634663466,2677895.6066836,-477.49049153934,2779611.4092753,35.446634663466,0,0
60.983584682956,-25.594187464689,30.251065106511,2677895.6066836,-477.49049153934,2779611.4092753,35.451065106511,0,0
60.983584966624,-25.597861602798,30.255495549555,2677895.6066836,-477.49049153934,2779611.4092753,35.455495549555,0,0
60.983585250291,-25.601535740907,30.259925992599,2677895.6066836,-477.49049153934,2779611.4092753,35.459925992599,0,0
60.983585533959,-25.605209879017,30.264356435644,2677895.6066836,-477.49049153934,2779611.4092753,35.464356435644,0,0
60.983585817626,-25.608884017126,30.268786878688,2677895.6066836,-477.49049153934,2779611.4092753,35.468786878688,0,0
60.983586101294,-25.612558155236,30.273217321732,2677895.6066836,-477.49049153934,2779611.4092753,35.473217321732,0,0
60.983586384961,-25.616232293345,30.277647764776,2677895.6066836,-477.49049153934,2779611.4092753,35.477647764776,0,0
60.983586668629,-25.619906431454,30.282078207821,2677895.6066836,-477.49049153934,2779611.4092753,35.482078207821,0,0
60.983586952296,-25.623580569564,30.286508650865,2677895.6066836,-477.49049153934,2779611.4092753,35.486508650865,0,0
60.983587235964,-25.627254707673,30.290939093909,2677895.6066836,-477.49049153934,2779611.4092753,35.490939093909,0,0
60.983587519631,-25.630928845782,30.295369536954,2677895.6066836,-477.49049153934,2779611.4092753,35.495369536954,0,0
60.983587803299,-25.634602983892,30.299799979998,2677895.6066836,-477.49049153934,2779611.4092753,35.499799979998,0,0
60.983588086967,-25.638277122001,30.304230423042,2677895.6066836,-477.49049153934,2779611.4092753,35.504230423042,0,0
60.983588370634,-25.641951260111,30.308660866087,2677895.6066836,-477.49049153934,2779611.4092753,35.508660866087,0,0
60.983588654302,-25.64562539822,30.313091309131,2677895.6066836,-477.49049153934,2779611.4092753,35.513091309131,0,0
60.983588937969,-25.649299536329,30.317521752175,2677895.6066836,-477.49049153934,2779611.4092753,35.517521752175,0,0
60.983589221637,-25.652973674439,30.32195219522,2677895.6066836,-477.49049153934,2779611.4092753,35.52195219522,0,0
60.983589505304,-25.656647812548,30.326382638264,2677895.6066836,-477.49049153934,2779611.4092753,35.526382638264,0,0
60.983589788972,-25.660321950657,30.330813081308,2677895.6066836,-477.49049153934,2779611.4092753,35.530813081308,0,0
60.983590072639,-25.663996088767,30.335243524352,2677895.6066836,-477.49049153934,2779611.4092753,35.535243524352,0,0
60.983590356307,-25.667670226876,30.339673967397,2677895.6066836,-477.49049153934,2779611.4092753,35.539673967397,0,0
60.983590639974,-25.671344364986,30.344104410441,2677895.6066836,-477.49049153934,2779611.4092753,35.544104410441,0,0
60.983590923642,-25.675018503095,30.348534853485,2677895.6066836,-477.49049153934,2779611.4092753,35.548534853485,0,0
60.983591207309,-25.678692641204,30.35296529653,2677895.6066836,-477.49049153934,2779611.4092753,35.55296529653,0,0
60.983591490977,-25.682366779314,30.357395739574,2677895.6066836,-477.49049153934,2779611.4092753,35.557395739574,0,0
60.983591774644,-25.686040917423,30.361826182618,2677895.6066836,-477.49049153934,2779611.4092753,35.561826182618,0,0
60.983592058312,-25.689715055532,30.366256625663,2677895.6066836,-477.49049153934,2779611.4092753,35.566256625663,0,0
60.983592341979,-25.693389193642,30.370687068707,2677895.6066836,-477.49049153934,2779611.4092753,35.570687068707,0,0
60.983592625647,-25.697063331751,30.375117511751,2677895.6066836,-477.49049153934,2779611.4092753,35.575117511751,0,0
60.983592909314,-25.700737469861,30.379547954795,2677895.6066836,-477.49049153934,2779611.4092753,35.579547954795,0,0
60.983593192982,-25.70441160797,30.38397839784,2677895.6066836,-477.49049153934,2779611.4092753,35.58397839784,0,0
60.983593476649,-25.708085746079,30.388408840884,2677895.6066836,-477.49049153934,2779611.4092753,35.588408840884,0,0
60.983593760317,-25.711759884189,30.392839283928,2677895.6066836,-477.49049153934,2779611.4092753,35.592839283928,0,0
60.983594043984,-25.715434022298,30.397269726973,2677895.6066836,-477.49049153934,2779611.4092753,35.597269726973,0,0
60.983594327652,-25.719108160407,30.401700170017,2677895.6066836,-477.49049153934,2779611.4092753,35.601700170017,0,0
60.983594611319,-25.722782298517,30.406130613061,2677895.6066836,-477.49049153934,2779611.4092753,35.606130613061,0,0
60.983594894987,-25.726456436626,30.410561056106,2677895.6066836,-477.49049153934,2779611.4092753,35.610561056106,0,0
60.983595178654,-25.730130574736,30.41499149915,2677895.6066836,-477.49049153934,2779611.4092753,35.61499149915,0,0
60.983595462322,-25.733804712845,30.419421942194,2677895.6066836,-477.49049153934,2779611.4092753,35.619421942194,0,0
60.983595745989,-25.737478850954,30.423852385239,2677895.6066836,-477.49049153934,2779611.4092753,35.623852385239,0,0
60.983596029657,-25.741152989064,30.428282828283,2677895.6066836,-477.49049153934,2779611.4092753,35.628282828283,0,0
60.983596313324,-25.744827127173,30.432713271327,2677895.6066836,-477.49049153934,2779611.4092753,35.632713271327,0,0
60.983596596992,-25.748501265282,30.437143714371,2677895.6066836,-477.49049153934,2779611.4092753,35.637143714371,0,0
60.983596880659,-25.752175403392,30.441574157416,2677895.6066836,-477.49049153934,2779611.4092753,35.641574157416,0,0
60.983597164327,-25.755849541501,30.44600460046,2677895.6066836,-477.49049153934,2779611.4092753,35.64600460046,0,0
60.983597447994,-25.759523679611,30.450435043504,2677895.6066836,-477.49049153934,2779611.4092753,35.650435043504,0,0
60.983597731662,-25.76319781772,30.454865486549,2677895.6066836,-477.49049153934,2779611.4092753,35.654865486549,0,0
60.98359801533,-25.766871955829,30.459295929593,2677895.6066836,-477.49049153934,2779611.4092753,35.659295929593,0,0
60.983598298997,-25.770546093939,30.463726372637,2677895.6066836,-477.49049153934,2779611.4092753,35.663726372637,0,0
60.983598582665,-25.774220232048,30.468156815682,2677895.6066836,-477.49049153934,2779611.4092753,35.668156815682,0,0
60.983598866332,-25.777894370157,30.472587258726,2677895.6066836,-477.49049153934,2779611.4092753,35.672587258726,0,0
60.98359915,-25.781568508267,30.47701770177,2677895.6066836,-477.49049153934,2779611.4092753,35.67701770177,0,0
60.983599433667,-25.785242646376,30.481448144814,2677895.6066836,-477.49049153934,2779611.4092753,35.681448144814,0,0
60.983599717335,-25.788916784486,30.485878587859,2677895.6066836,-477.49049153934,2779611.4092753,35.685878587859,0,0
60.983600001002,-25.792590922595,30.490309030903,2677895.6066836,-477.49049153934,2779611.4092753,35.690309030903,0,0
60.98360028467,-25.796265060704,30.494739473947,2677895.6066836,-477.49049153934,2779611.4092753,35.694739473947,0,0
60.983600568337,-25.799939198814,30.499169916992,2677895.6066836,-477.49049153934,2779611.4092753,35.699169916992,0,0
60.983600852005,-25.803613336923,30.503600360036,2677895.6066836,-477.49049153934,2779611.4092753,35.703600360036,0,0
60.983601135672,-25.807287475033,30.50803080308,2677895.6066836,-477.49049153934,2779611.4092753,35.70803080308,0,0
60.98360141934,-25.810961613142,30.512461246125,2677895.6066836,-477.49049153934,2779611.4092753,35.712461246125,0,0
60.983601703007,-25.814635751251,30.516891689169,2677895.6066836,-477.49049153934,2779611.4092753,35.716891689169,0,0
60.983601986675,-25.818309889361,30.521322132213,2677895.6066836,-477.49049153934,2779611.4092753,35.721322132213,0,0
60.983602270342,-25.82198402747,30.525752575258,2677895.6066836,-477.49049153934,2779611.4092753,35.725752575258,0,0
60.98360255401,-25.825658165579,30.530183018302,2677895.6066836,-477.49049153934,2779611.4092753,35.730183018302,0,0
60.983602837677,-25.829332303689,30.534613461346,2677895.6066836,-477.49049153934,2779611.4092753,35.734613461346,0,0
60.983603121345,-25.833006441798,30.53904390439,2677895.6066836,-477.49049153934,2779611.4092753,35.73904390439,0,0
60.983603405012,-25.836680579908,30.543474347435,2677895.6066836,-477.49049153934,2779611.4092753,35.743474347435,0,0
60.98360368868,-25.840354718017,30.547904790479,2677895.6066836,-477.49049153934,2779611.4092753,35.747904790479,0,0
60.983603972347,-25.844028856126,30.552335233523,2677895.6066836,-477.49049153934,2779611.4092753,35.752335233523,0,0
60.983604256015,-25.847702994236,30.556765676568,2677895.6066836,-477.49049153934,2779611.4092753,35.756765676568,0,0
60.983604539682,-25.851377132345,30.561196119612,2677895.6066836,-477.49049153934,2779611.4092753,35.761196119612,0,0
60.98360482335,-25.855051270454,30.565626562656,2677895.6066836,-477.49049153934,2779611.4092753,35.765626562656,0,0
60.983605107017,-25.858725408564,30.570057005701,2677895.6066836,-477.49049153934,2779611.4092753,35.770057005701,0,0
60.983605390685,-25.862399546673,30.574487448745,2677895.6066836,-477.49049153934,2779611.4092753,35.774487448745,0,0
60.983605674352,-25.866073684783,30.578917891789,2677895.6066836,-477.49049153934,2779611.4092753,35.778917891789,0,0
60.98360595802,-25.869747822892,30.583348334833,2677895.6066836,-477.49049153934,2779611.4092753,35.783348334833,0,0
60.983606241687,-25.873421961001,30.587778777878,2677895.6066836,-477.49049153934,2779611.4092753,35.787778777878,0,0
60.983606525355,-25.877096099111,30.592209220922,2677895.6066836,-477.49049153934,2779611.4092753,35.792209220922,0,0
60.983606809022,-25.88077023722,30.596639663966,2677895.6066836,-477.49049153934,2779611.4092753,35.796639663966,0,0
60.98360709269,-25.884444375329,30.601070107011,2677895.6066836,-477.49049153934,2779611.4092753,35.801070107011,0,0
60.983607376357,-25.888118513439,30.605500550055,2677895.6066836,-477.49049153934,2779611.4092753,35.805500550055,0,0
60.983607660025,-25.891792651548,30.609930993099,2677895.6066836,-477.49049153934,2779611.4092753,35.809930993099,0,0
60.983607943693,-25.895466789658,30.614361436144,2677895.6066836,-477.49049153934,2779611.4092753,35.814361436144,0,0
60.98360822736,-25.899140927767,30.618791879188,2677895.6066836,-477.49049153934,2779611.4092753,35.818791879188,0,0
60.983608511028,-25.902815065876,30.623222322232,2677895.6066836,-477.49049153934,2779611.4092753,35.823222322232,0,0
60.983608794695,-25.906489203986,30.627652765277,2677895.6066836,-477.49049153934,2779611.4092753,35.827652765277,0,0
60.983609078363,-25.910163342095,30.632083208321,2677895.6066836,-477.49049153934,2779611.4092753,35.832083208321,0,0
60.98360936203,-25.913837480204,30.636513651365,2677895.6066836,-477.49049153934,2779611.4092753,35.836513651365,0,0
60.983609645698,-25.917511618314,30.640944094409,2677895.6066836,-477.49049153934,2779611.4092753,35.840944094409,0,0
60.983609929365,-25.921185756423,30.645374537454,2677895.6066836,-477.49049153934,2779611.4092753,35.845374537454,0,0
60.983610213033,-25.924859894533,30.649804980498,2677895.6066836,-477.49049153934,2779611.4092753,35.849804980498,0,0
60.9836104967,-25.928534032642,30.654235423542,2677895.6066836,-477.49049153934,2779611.4092753,35.854235423542,0,0
60.983610780368,-25.932208170751,30.658665866587,2677895.6066836,-477.49049153934,2779611.4092753,35.858665866587,0,0
60.983611064035,-25.935882308861,30.663096309631,2677895.6066836,-477.49049153934,2779611.4092753,35.863096309631,0,0
60.983611347703,-25.93955644697,30.667526752675,2677895.6066836,-477.49049153934,2779611.4092753,35.867526752675,0,0
60.98361163137,-25.943230585079,30.67195719572,2677895.6066836,-477.49049153934,2779611.4092753,35.87195719572,0,0
60.983611915038,-25.946904723189,30.676387638764,2677895.6066836,-477.49049153934,2779611.4092753,35.876387638764,0,0
60.983612198705,-25.950578861298,30.680818081808,2677895.6066836,-477.49049153934,2779611.4092753,35.880818081808,0,0
60.983612482373,-25.954252999408,30.685248524852,2677895.6066836,-477.49049153934,2779611.4092753,35.885248524852,0,0
60.98361276604,-25.957927137517,30.689678967897,2677895.6066836,-477.49049153934,2779611.4092753,35.889678967897,0,0
60.983613049708,-25.961601275626,30.694109410941,2677895.6066836,-477.49049153934,2779611.4092753,35.894109410941,0,0
60.983613333375,-25.965275413736,30.698539853985,2677895.6066836,-477.49049153934,2779611.4092753,35.898539853985,0,0
60.983613617043,-25.968949551845,30.70297029703,2677895.6066836,-477.49049153934,2779611.4092753,35.90297029703,0,0
60.98361390071,-25.972623689954,30.707400740074,2677895.6066836,-477.49049153934,2779611.4092753,35.907400740074,0,0
60.983614184378,-25.976297828064,30.711831183118,2677895.6066836,-477.49049153934,2779611.4092753,35.911831183118,0,0
60.983614468045,-25.979971966173,30.716261626163,2677895.6066836,-477.49049153934,2779611.4092753,35.916261626163,0,0
60.983614751713,-25.983646104283,30.720692069207,2677895.6066836,-477.49049153934,2779611.4092753,35.920692069207,0,0
60.98361503538,-25.987320242392,30.725122512251,2677895.6066836,-477.49049153934,2779611.4092753,35.925122512251,0,0
60.983615319048,-25.990994380501,30.729552955296,2677895.6066836,-477.49049153934,2779611.4092753,35.929552955296,0,0
60.983615602715,-25.994668518611,30.73398339834,2677895.6066836,-477.49049153934,2779611.4092753,35.93398339834,0,0
60.983615886383,-25.99834265672,30.738413841384,2677895.6066836,-477.49049153934,2779611.4092753,35.938413841384,0,0
60.98361617005,-26.002016794829,30.742844284428,2677895.6066836,-477.49049153934,2779611.4092753,35.942844284428,0,0
60.983616453718,-26.005690932939,30.747274727473,2677895.6066836,-477.49049153934,2779611.4092753,35.947274727473,0,0
60.983616737385,-26.009365071048,30.751705170517,2677895.6066836,-477.49049153934,2779611.4092753,35.951705170517,0,0
60.983617021053,-26.013039209158,30.756135613561,2677895.6066836,-477.49049153934,2779611.4092753,35.956135613561,0,0
60.98361730472,-26.016713347267,30.760566056606,2677895.6066836,-477.49049153934,2779611.4092753,35.960566056606,0,0
60.983617588388,-26.020387485376,30.76499649965,2677895.6066836,-477.49049153934,2779611.4092753,35.96499649965,0,0
60.983617872055,-26.024061623486,30.769426942694,2677895.6066836,-477.49049153934,2779611.4092753,35.969426942694,0,0
60.983618155723,-26.027735761595,30.773857385739,2677895.6066836,-477.49049153934,2779611.4092753,35.973857385739,0,0
60.983618439391,-26.031409899704,30.778287828783,2677895.6066836,-477.49049153934,2779611.4092753,35.978287828783,0,0
60.983618723058,-26.035084037814,30.782718271827,2677895.6066836,-477.49049153934,2779611.4092753,35.982718271827,0,0
60.983619006726,-26.038758175923,30.787148714871,2677895.6066836,-477.49049153934,2779611.4092753,35.987148714871,0,0
60.983619290393,-26.042432314033,30.791579157916,2677895.6066836,-477.49049153934,2779611.4092753,35.991579157916,0,0
60.983619574061,-26.046106452142,30.79600960096,2677895.6066836,-477.49049153934,2779611.4092753,35.99600960096,0,0
60.983619857728,-26.049780590251,30.800440044004,2677895.6066836,-477.49049153934,2779611.4092753,36.000440044004,0,0
60.983620141396,-26.053454728361,30.804870487049,2677895.6066836,-477.49049153934,2779611.4092753,36.004870487049,0,0
60.983620425063,-26.05712886647,30.809300930093,2677895.6066836,-477.49049153934,2779611.4092753,36.009300930093,0,0
60.983620708731,-26.060803004579,30.813731373137,2677895.6066836,-477.49049153934,2779611.4092753,36.013731373137,0,0
60.983620992398,-26.064477142689,30.818161816182,2677895.6066836,-477.49049153934,2779611.4092753,36.018161816182,0,0
60.983621276066,-26.068151280798,30.822592259226,2677895.6066836,-477.49049153934,2779611.4092753,36.022592259226,0,0
60.983621559733,-26.071825418908,30.82702270227,2677895.6066836,-477.49049153934,2779611.4092753,36.02702270227,0,0
60.983621843401,-26.075499557017,30.831453145315,2677895.6066836,-477.49049153934,2779611.4092753,36.031453145315,0,0
60.983622127068,-26.079173695126,30.835883588359,2677895.6066836,-477.49049153934,2779611.4092753,36.035883588359,0,0
60.983622410736,-26.082847833236,30.840314031403,2677895.6066836,-477.49049153934,2779611.4092753,36.040314031403,0,0
60.983622694403,-26.086521971345,30.844744474447,2677895.6066836,-477.49049153934,2779611.4092753,36.044744474447,0,0
60.983622978071,-26.090196109454,30.849174917492,2677895.6066836,-477.49049153934,2779611.4092753,36.049174917492,0,0
60.983623261738,-26.093870247564,30.853605360536,2677895.6066836,-477.49049153934,2779611.4092753,36.053605360536,0,0
60.983623545406,-26.097544385673,30.85803580358,2677895.6066836,-477.49049153934,2779611.4092753,36.05803580358,0,0
60.983623829073,-26.101218523783,30.862466246625,2677895.6066836,-477.49049153934,2779611.4092753,36.062466246625,0,0
60.983624112741,-26.104892661892,30.866896689669,2677895.6066836,-477.49049153934,2779611.4092753,36.066896689669,0,0
60.983624396408,-26.108566800001,30.871327132713,2677895.6066836,-477.49049153934,2779611.4092753,36.071327132713,0,0
60.983624680076,-26.112240938111,30.875757575758,2677895.6066836,-477.49049153934,2779611.4092753,36.075757575758,0,0
60.983624963743,-26.11591507622,30.880188018802,2677895.6066836,-477.49049153934,2779611.4092753,36.080188018802,0,0
60.983625247411,-26.119589214329,30.884618461846,2677895.6066836,-477.49049153934,2779611.4092753,36.084618461846,0,0
60.983625531078,-26.123263352439,30.88904890489,2677895.6066836,-477.49049153934,2779611.4092753,36.08904890489,0,0
60.983625814746,-26.126937490548,30.893479347935,2677895.6066836,-477.49049153934,2779611.4092753,36.093479347935,0,0
60.983626098413,-26.130611628658,30.897909790979,2677895.6066836,-477.49049153934,2779611.4092753,36.097909790979,0,0
60.983626382081,-26.134285766767,30.902340234023,2677895.6066836,-477.49049153934,2779611.4092753,36.102340234023,0,0
60.983626665748,-26.137959904876,30.906770677068,2677895.6066836,-477.49049153934,2779611.4092753,36.106770677068,0,0
60.983626949416,-26.141634042986,30.911201120112,2677895.6066836,-477.49049153934,2779611.4092753,36.111201120112,0,0
60.983627233083,-26.145308181095,30.915631563156,2677895.6066836,-477.49049153934,2779611.4092753,36.115631563156,0,0
60.983627516751,-26.148982319204,30.920062006201,2677895.6066836,-477.49049153934,2779611.4092753,36.120062006201,0,0
60.983627800418,-26.152656457314,30.924492449245,2677895.6066836,-477.49049153934,2779611.4092753,36.124492449245,0,0
60.983628084086,-26.156330595423,30.928922892289,2677895.6066836,-477.49049153934,2779611.4092753,36.128922892289,0,0
60.983628367753,-26.160004733533,30.933353335334,2677895.6066836,-477.49049153934,2779611.4092753,36.133353335334,0,0
60.983628651421,-26.163678871642,30.937783778378,2677895.6066836,-477.49049153934,2779611.4092753,36.137783778378,0,0
60.983628935089,-26.167353009751,30.942214221422,2677895.6066836,-477.49049153934,2779611.4092753,36.142214221422,0,0
60.983629218756,-26.171027147861,30.946644664466,2677895.6066836,-477.49049153934,2779611.4092753,36.146644664466,0,0
60.983629502424,-26.17470128597,30.951075107511,2677895.6066836,-477.49049153934,2779611.4092753,36.151075107511,0,0
60.983629786091,-26.178375424079,30.955505550555,2677895.6066836,-477.49049153934,2779611.4092753,36.155505550555,0,0
60.983630069759,-26.182049562189,30.959935993599,2677895.6066836,-477.49049153934,2779611.4092753,36.159935993599,0,0
60.983630353426,-26.185723700298,30.964366436644,2677895.6066836,-477.49049153934,2779611.4092753,36.164366436644,0,0
60.983630637094,-26.189397838408,30.968796879688,2677895.6066836,-477.49049153934,2779611.4092753,36.168796879688,0,0
60.983630920761,-26.193071976517,30.973227322732,2677895.6066836,-477.49049153934,2779611.4092753,36.173227322732,0,0
60.983631204429,-26.196746114626,30.977657765777,2677895.6066836,-477.49049153934,2779611.4092753,36.177657765777,0,0
60.983631488096,-26.200420252736,30.982088208821,2677895.6066836,-477.49049153934,2779611.4092753,36.182088208821,0,0
60.983631771764,-26.204094390845,30.986518651865,2677895.6066836,-477.49049153934,2779611.4092753,36.186518651865,0,0
60.983632055431,-26.207768528954,30.990949094909,2677895.6066836,-477.49049153934,2779611.4092753,36.190949094909,0,0
60.983632339099,-26.211442667064,30.995379537954,2677895.6066836,-477.49049153934,2779611.4092753,36.195379537954,0,0
60.983632622766,-26.215116805173,30.999809980998,2677895.6066836,-477.49049153934,2779611.4092753,36.199809980998,0,0
60.983632906434,-26.218790943283,31.004240424042,2677895.6066836,-477.49049153934,2779611.4092753,36.204240424042,0,0
60.983633190101,-26.222465081392,31.008670867087,2677895.6066836,-477.49049153934,2779611.4092753,36.208670867087,0,0
60.983633473769,-26.226139219501,31.013101310131,2677895.6066836,-477.49049153934,2779611.4092753,36.213101310131,0,0
60.983633757436,-26.229813357611,31.017531753175,2677895.6066836,-477.49049153934,2779611.4092753,36.217531753175,0,0
60.983634041104,-26.23348749572,31.02196219622,2677895.6066836,-477.49049153934,2779611.4092753,36.22196219622,0,0
60.983634324771,-26.237161633829,31.026392639264,2677895.6066836,-477.49049153934,2779611.4092753,36.226392639264,0,0
60.983634608439,-26.240835771939,31.030823082308,2677895.6066836,-477.49049153934,2779611.4092753,36.230823082308,0,0
60.983634892106,-26.244509910048,31.035253525353,2677895.6066836,-477.49049153934,2779611.4092753,36.235253525353,0,0
60.983635175774,-26.248184048158,31.039683968397,2677895.6066836,-477.49049153934,2779611.4092753,36.239683968397,0,0
60.983635459441,-26.251858186267,31.044114411441,2677895.6066836,-477.49049153934,2779611.4092753,36.244114411441,0,0
60.983635743109,-26.255532324376,31.048544854485,2677895.6066836,-477.49049153934,2779611.4092753,36.248544854485,0,0
60.983636026776,-26.259206462486,31.05297529753,2677895.6066836,-477.49049153934,2779611.4092753,36.25297529753,0,0
60.983636310444,-26.262880600595,31.057405740574,2677895.6066836,-477.49049153934,2779611.4092753,36.257405740574,0,0
60.983636594111,-26.266554738704,31.061836183618,2677895.6066836,-477.49049153934,2779611.4092753,36.261836183618,0,0
60.983636877779,-26.270228876814,31.066266626663,2677895.6066836,-477.49049153934,2779611.4092753,36.266266626663,0,0
60.983637161446,-26.273903014923,31.070697069707,2677895.6066836,-477.49049153934,2779611.4092753,36.270697069707,0,0
60.983637445114,-26.277577153033,31.075127512751,2677895.6066836,-477.49049153934,2779611.4092753,36.275127512751,0,0
60.983637728781,-26.281251291142,31.079557955796,2677895.6066836,-477.49049153934,2779611.4092753,36.279557955796,0,0
60.983638012449,-26.284925429251,31.08398839884,2677895.6066836,-477.49049153934,2779611.4092753,36.28398839884,0,0
60.983638296116,-26.288599567361,31.088418841884,2677895.6066836,-477.49049153934,2779611.4092753,36.288418841884,0,0
60.983638579784,-26.29227370547,31.092849284928,2677895.6066836,-477.49049153934,2779611.4092753,36.292849284928,0,0
60.983638863452,-26.295947843579,31.097279727973,2677895.6066836,-477.49049153934,2779611.4092753,36.297279727973,0,0
60.983639147119,-26.299621981689,31.101710171017,2677895.6066836,-477.49049153934,2779611.4092753,36.301710171017,0,0
60.983639430787,-26.303296119798,31.106140614061,2677895.6066836,-477.49049153934,2779611.4092753,36.306140614061,0,0
60.983639714454,-26.306970257908,31.110571057106,2677895.6066836,-477.49049153934,2779611.4092753,36.310571057106,0,0
60.983639998122,-26.310644396017,31.11500150015,2677895.6066836,-477.49049153934,2779611.4092753,36.31500150015,0,0
60.983640281789,-26.314318534126,31.119431943194,2677895.6066836,-477.49049153934,2779611.4092753,36.319431943194,0,0
60.983640565457,-26.317992672236,31.123862386239,2677895.6066836,-477.49049153934,2779611.4092753,36.323862386239,0,0
60.983640849124,-26.321666810345,31.128292829283,2677895.6066836,-477.49049153934,2779611.4092753,36.328292829283,0,0
60.983641132792,-26.325340948455,31.132723272327,2677895.6066836,-477.49049153934,2779611.4092753,36.332723272327,0,0
60.983641416459,-26.329015086564,31.137153715372,2677895.6066836,-477.49049153934,2779611.4092753,36.337153715372,0,0
60.983641700127,-26.332689224673,31.141584158416,2677895.6066836,-477.49049153934,2779611.4092753,36.341584158416,0,0
60.983641983794,-26.336363362783,31.14601460146,2677895.6066836,-477.49049153934,2779611.4092753,36.34601460146,0,0
60.983642267462,-26.340037500892,31.150445044504,2677895.6066836,-477.49049153934,2779611.4092753,36.350445044504,0,0
60.983642551129,-26.343711639001,31.154875487549,2677895.6066836,-477.49049153934,2779611.4092753,36.354875487549,0,0
60.983642834797,-26.347385777111,31.159305930593,2677895.6066836,-477.49049153934,2779611.4092753,36.359305930593,0,0
60.983643118464,-26.35105991522,31.163736373637,2677895.6066836,-477.49049153934,2779611.4092753,36.363736373637,0,0
60.983643402132,-26.35473405333,31.168166816682,2677895.6066836,-477.49049153934,2779611.4092753,36.368166816682,0,0
60.983643685799,-26.358408191439,31.172597259726,2677895.6066836,-477.49049153934,2779611.4092753,36.372597259726,0,0
60.983643969467,-26.362082329548,31.17702770277,2677895.6066836,-477.49049153934,2779611.4092753,36.37702770277,0,0
60.983644253134,-26.365756467658,31.181458145815,2677895.6066836,-477.49049153934,2779611.4092753,36.381458145815,0,0
60.983644536802,-26.369430605767,31.185888588859,2677895.6066836,-477.49049153934,2779611.4092753,36.385888588859,0,0
60.983644820469,-26.373104743876,31.190319031903,2677895.6066836,-477.49049153934,2779611.4092753,36.390319031903,0,0
60.983645104137,-26.376778881986,31.194749474947,2677895.6066836,-477.49049153934,2779611.4092753,36.394749474947,0,0
60.983645387804,-26.380453020095,31.199179917992,2677895.6066836,-477.49049153934,2779611.4092753,36.399179917992,0,0
60.983645671472,-26.384127158205,31.203610361036,2677895.6066836,-477.49049153934,2779611.4092753,36.403610361036,0,0
60.983645955139,-26.387801296314,31.20804080408,2677895.6066836,-477.49049153934,2779611.4092753,36.40804080408,0,0
60.983646238807,-26.391475434423,31.212471247125,2677895.6066836,-477.49049153934,2779611.4092753,36.412471247125,0,0
60.983646522474,-26.395149572533,31.216901690169,2677895.6066836,-477.49049153934,2779611.4092753,36.416901690169,0,0
60.983646806142,-26.398823710642,31.221332133213,2677895.6066836,-477.49049153934,2779611.4092753,36.421332133213,0,0
60.983647089809,-26.402497848751,31.225762576258,2677895.6066836,-477.49049153934,2779611.4092753,36.425762576258,0,0
60.983647373477,-26.406171986861,31.230193019302,2677895.6066836,-477.49049153934,2779611.4092753,36.430193019302,0,0
60.983647657144,-26.40984612497,31.234623462346,2677895.6066836,-477.49049153934,2779611.4092753,36.434623462346,0,0
60.983647940812,-26.41352026308,31.239053905391,2677895.6066836,-477.49049153934,2779611.4092753,36.439053905391,0,0
60.983648224479,-26.417194401189,31.243484348435,2677895.6066836,-477.49049153934,2779611.4092753,36.443484348435,0,0
60.983648508147,-26.420868539298,31.247914791479,2677895.6066836,-477.49049153934,2779611.4092753,36.447914791479,0,0
60.983648791814,-26.424542677408,31.252345234523,2677895.6066836,-477.49049153934,2779611.4092753,36.452345234523,0,0
60.983649075482,-26.428216815517,31.256775677568,2677895.6066836,-477.49049153934,2779611.4092753,36.456775677568,0,0
60.98364935915,-26.431890953626,31.261206120612,2677895.6066836,-477.49049153934,2779611.4092753,36.461206120612,0,0
60.983649642817,-26.435565091736,31.265636563656,2677895.6066836,-477.49049153934,2779611.4092753,36.465636563656,0,0
60.983649926485,-26.439239229845,31.270067006701,2677895.6066836,-477.49049153934,2779611.4092753,36.470067006701,0,0
60.983650210152,-26.442913367955,31.274497449745,2677895.6066836,-477.49049153934,2779611.4092753,36.474497449745,0,0
60.98365049382,-26.446587506064,31.278927892789,2677895.6066836,-477.49049153934,2779611.4092753,36.478927892789,0,0
60.983650777487,-26.450261644173,31.283358335834,2677895.6066836,-477.49049153934,2779611.4092753,36.483358335834,0,0
60.983651061155,-26.453935782283,31.287788778878,2677895.6066836,-477.49049153934,2779611.4092753,36.487788778878,0,0
60.983651344822,-26.457609920392,31.292219221922,2677895.6066836,-477.49049153934,2779611.4092753,36.492219221922,0,0
60.983651628697,-26.46128405882,31.296649664966,2680906.4928927,-1823.9201116032,2776838.528439,36.496649664966,0,0
60.983651912679,-26.464958197413,31.301080108011,2680906.4928927,-1823.9201116032,2776838.528439,36.501080108011,0,0
60.983652196661,-26.468632336005,31.305510551055,2680906.4928927,-1823.9201116032,2776838.528439,36.505510551055,0,0
60.983652480642,-26.472306474597,31.309940994099,2680906.4928927,-1823.9201116032,2776838.528439,36.509940994099,0,0
60.983652764624,-26.47598061319,31.314371437144,2680906.4928927,-1823.9201116032,2776838.528439,36.514371437144,0,0
60.983653048606,-26.479654751782,31.318801880188,2680906.4928927,-1823.9201116032,2776838.528439,36.518801880188,0,0
60.983653332588,-26.483328890375,31.323232323232,2680906.4928927,-1823.9201116032,2776838.528439,36.523232323232,0,0
60.98365361657,-26.487003028967,31.327662766277,2680906.4928927,-1823.9201116032,2776838.528439,36.527662766277,0,0
60.983653900552,-26.49067716756,31.332093209321,2680906.4928927,-1823.9201116032,2776838.528439,36.532093209321,0,0
60.983654184534,-26.494351306152,31.336523652365,2680906.4928927,-1823.9201116032,2776838.528439,36.536523652365,0,0
60.983654468515,-26.498025444745,31.34095409541,2680906.4928927,-1823.9201116032,2776838.528439,36.54095409541,0,0
60.983654752497,-26.501699583337,31.345384538454,2680906.4928927,-1823.9201116032,2776838.528439,36.545384538454,0,0
60.983655036479,-26.505373721929,31.349814981498,2680906.4928927,-1823.9201116032,2776838.528439,36.549814981498,0,0
60.983655320461,-26.509047860522,31.354245424542,2680906.4928927,-1823.9201116032,2776838.528439,36.554245424542,0,0
60.983655604443,-26.512721999114,31.358675867587,2680906.4928927,-1823.9201116032,2776838.528439,36.558675867587,0,0
60.983655888425,-26.516396137707,31.363106310631,2680906.4928927,-1823.9201116032,2776838.528439,36.563106310631,0,0
60.983656172406,-26.520070276299,31.367536753675,2680906.4928927,-1823.9201116032,2776838.528439,36.567536753675,0,0
60.983656456388,-26.523744414892,31.37196719672,2680906.4928927,-1823.9201116032,2776838.528439,36.57196719672,0,0
60.98365674037,-26.527418553484,31.376397639764,2680906.4928927,-1823.9201116032,2776838.528439,36.576397639764,0,0
60.983657024352,-26.531092692077,31.380828082808,2680906.4928927,-1823.9201116032,2776838.528439,36.580828082808,0,0
60.983657308334,-26.534766830669,31.385258525853,2680906.4928927,-1823.9201116032,2776838.528439,36.585258525853,0,0
60.983657592316,-26.538440969261,31.389688968897,2680906.4928927,-1823.9201116032,2776838.528439,36.589688968897,0,0
60.983657876297,-26.542115107854,31.394119411941,2680906.4928927,-1823.9201116032,2776838.528439,36.594119411941,0,0
60.983658160279,-26.545789246446,31.398549854986,2680906.4928927,-1823.9201116032,2776838.528439,36.598549854985,0,0
60.983658444261,-26.549463385039,31.40298029803,2680906.4928927,-1823.9201116032,2776838.528439,36.60298029803,0,0
60.983658728243,-26.553137523631,31.407410741074,2680906.4928927,-1823.9201116032,2776838.528439,36.607410741074,0,0
60.983659012225,-26.556811662224,31.411841184118,2680906.4928927,-1823.9201116032,2776838.528439,36.611841184118,0,0
60.983659296207,-26.560485800816,31.416271627163,2680906.4928927,-1823.9201116032,2776838.528439,36.616271627163,0,0
60.983659580188,-26.564159939409,31.420702070207,2680906.4928927,-1823.9201116032,2776838.528439,36.620702070207,0,0
60.98365986417,-26.567834078001,31.425132513251,2680906.4928927,-1823.9201116032,2776838.528439,36.625132513251,0,0
60.983660148152,-26.571508216593,31.429562956296,2680906.4928927,-1823.9201116032,2776838.528439,36.629562956296,0,0
60.983660432134,-26.575182355186,31.43399339934,2680906.4928927,-1823.9201116032,2776838.528439,36.63399339934,0,0
60.983660716116,-26.578856493778,31.438423842384,2680906.4928927,-1823.9201116032,2776838.528439,36.638423842384,0,0
60.983661000098,-26.582530632371,31.442854285429,2680906.4928927,-1823.9201116032,2776838.528439,36.642854285429,0,0
60.98366128408,-26.586204770963,31.447284728473,2680906.4928927,-1823.9201116032,2776838.528439,36.647284728473,0,0
60.983661568061,-26.589878909556,31.451715171517,2680906.4928927,-1823.9201116032,2776838.528439,36.651715171517,0,0
60.983661852043,-26.593553048148,31.456145614561,2680906.4928927,-1823.9201116032,2776838.528439,36.656145614561,0,0
60.983662136025,-26.597227186741,31.460576057606,2680906.4928927,-1823.9201116032,2776838.528439,36.660576057606,0,0
60.983662420007,-26.600901325333,31.46500650065,2680906.4928927,-1823.9201116032,2776838.528439,36.66500650065,0,0
60.983662703989,-26.604575463926,31.469436943694,2680906.4928927,-1823.9201116032,2776838.528439,36.669436943694,0,0
60.983662987971,-26.608249602518,31.473867386739,2680906.4928927,-1823.9201116032,2776838.528439,36.673867386739,0,0
60.983663271952,-26.61192374111,31.478297829783,2680906.4928927,-1823.9201116032,2776838.528439,36.678297829783,0,0
60.983663555934,-26.615597879703,31.482728272827,2680906.4928927,-1823.9201116032,2776838.528439,36.682728272827,0,0
60.983663839916,-26.619272018295,31.487158715872,2680906.4928927,-1823.9201116032,2776838.528439,36.687158715872,0,0
60.983664123898,-26.622946156888,31.491589158916,2680906.4928927,-1823.9201116032,2776838.528439,36.691589158916,0,0
60.98366440788,-26.62662029548,31.49601960196,2680906.4928927,-1823.9201116032,2776838.528439,36.69601960196,0,0
60.983664691862,-26.630294434073,31.500450045005,2680906.4928927,-1823.9201116032,2776838.528439,36.700450045005,0,0
60.983664975843,-26.633968572665,31.504880488049,2680906.4928927,-1823.9201116032,2776838.528439,36.704880488049,0,0
60.983665259825,-26.637642711258,31.509310931093,2680906.4928927,-1823.9201116032,2776838.528439,36.709310931093,0,0
60.983665543807,-26.64131684985,31.513741374137,2680906.4928927,-1823.9201116032,2776838.528439,36.713741374137,0,0
60.983665827789,-26.644990988442,31.518171817182,2680906.4928927,-1823.9201116032,2776838.528439,36.718171817182,0,0
60.983666111771,-26.648665127035,31.522602260226,2680906.4928927,-1823.9201116032,2776838.528439,36.722602260226,0,0
60.983666395753,-26.652339265627,31.52703270327,2680906.4928927,-1823.9201116032,2776838.528439,36.72703270327,0,0
60.983666679734,-26.65601340422,31.531463146315,2680906.4928927,-1823.9201116032,2776838.528439,36.731463146315,0,0
60.983666963716,-26.659687542812,31.535893589359,2680906.4928927,-1823.9201116032,2776838.528439,36.735893589359,0,0
60.983667247698,-26.663361681405,31.540324032403,2680906.4928927,-1823.9201116032,2776838.528439,36.740324032403,0,0
60.98366753168,-26.667035819997,31.544754475448,2680906.4928927,-1823.9201116032,2776838.528439,36.744754475448,0,0
60.983667815662,-26.67070995859,31.549184918492,2680906.4928927,-1823.9201116032,2776838.528439,36.749184918492,0,0
60.983668099644,-26.674384097182,31.553615361536,2680906.4928927,-1823.9201116032,2776838.528439,36.753615361536,0,0
60.983668383625,-26.678058235774,31.55804580458,2680906.4928927,-1823.9201116032,2776838.528439,36.75804580458,0,0
60.983668667607,-26.681732374367,31.562476247625,2680906.4928927,-1823.9201116032,2776838.528439,36.762476247625,0,0
60.983668951589,-26.685406512959,31.566906690669,2680906.4928927,-1823.9201116032,2776838.528439,36.766906690669,0,0
60.983669235571,-26.689080651552,31.571337133713,2680906.4928927,-1823.9201116032,2776838.528439,36.771337133713,0,0
60.983669519553,-26.692754790144,31.575767576758,2680906.4928927,-1823.9201116032,2776838.528439,36.775767576758,0,0
60.983669803535,-26.696428928737,31.580198019802,2680906.4928927,-1823.9201116032,2776838.528439,36.780198019802,0,0
60.983670087517,-26.700103067329,31.584628462846,2680906.4928927,-1823.9201116032,2776838.528439,36.784628462846,0,0
60.983670371498,-26.703777205922,31.589058905891,2680906.4928927,-1823.9201116032,2776838.528439,36.789058905891,0,0
60.98367065548,-26.707451344514,31.593489348935,2680906.4928927,-1823.9201116032,2776838.528439,36.793489348935,0,0
60.983670939462,-26.711125483106,31.597919791979,2680906.4928927,-1823.9201116032,2776838.528439,36.797919791979,0,0
60.983671223444,-26.714799621699,31.602350235024,2680906.4928927,-1823.9201116032,2776838.528439,36.802350235024,0,0
60.983671507426,-26.718473760291,31.606780678068,2680906.4928927,-1823.9201116032,2776838.528439,36.806780678068,0,0
60.983671791408,-26.722147898884,31.611211121112,2680906.4928927,-1823.9201116032,2776838.528439,36.811211121112,0,0
60.983672075389,-26.725822037476,31.615641564156,2680906.4928927,-1823.9201116032,2776838.528439,36.815641564156,0,0
60.983672359371,-26.729496176069,31.620072007201,2680906.4928927,-1823.9201116032,2776838.528439,36.820072007201,0,0
60.983672643353,-26.733170314661,31.624502450245,2680906.4928927,-1823.9201116032,2776838.528439,36.824502450245,0,0
60.983672927335,-26.736844453254,31.628932893289,2680906.4928927,-1823.9201116032,2776838.528439,36.828932893289,0,0
60.983673211317,-26.740518591846,31.633363336334,2680906.4928927,-1823.9201116032,2776838.528439,36.833363336334,0,0
60.983673495299,-26.744192730439,31.637793779378,2680906.4928927,-1823.9201116032,2776838.528439,36.837793779378,0,0
60.98367377928,-26.747866869031,31.642224222422,2680906.4928927,-1823.9201116032,2776838.528439,36.842224222422,0,0
60.983674063262,-26.751541007623,31.646654665467,2680906.4928927,-1823.9201116032,2776838.528439,36.846654665467,0,0
60.983674347244,-26.755215146216,31.651085108511,2680906.4928927,-1823.9201116032,2776838.528439,36.851085108511,0,0
60.983674631226,-26.758889284808,31.655515551555,2680906.4928927,-1823.9201116032,2776838.528439,36.855515551555,0,0
60.983674915208,-26.762563423401,31.659945994599,2680906.4928927,-1823.9201116032,2776838.528439,36.859945994599,0,0
60.98367519919,-26.766237561993,31.664376437644,2680906.4928927,-1823.9201116032,2776838.528439,36.864376437644,0,0
60.983675483171,-26.769911700586,31.668806880688,2680906.4928927,-1823.9201116032,2776838.528439,36.868806880688,0,0
60.983675767153,-26.773585839178,31.673237323732,2680906.4928927,-1823.9201116032,2776838.528439,36.873237323732,0,0
60.983676051135,-26.777259977771,31.677667766777,2680906.4928927,-1823.9201116032,2776838.528439,36.877667766777,0,0
60.983676335117,-26.780934116363,31.682098209821,2680906.4928927,-1823.9201116032,2776838.528439,36.882098209821,0,0
60.983676619099,-26.784608254955,31.686528652865,2680906.4928927,-1823.9201116032,2776838.528439,36.886528652865,0,0
60.983676903081,-26.788282393548,31.69095909591,2680906.4928927,-1823.9201116032,2776838.528439,36.89095909591,0,0
60.983677187063,-26.79195653214,31.695389538954,2680906.4928927,-1823.9201116032,2776838.528439,36.895389538954,0,0
60.983677471044,-26.795630670733,31.699819981998,2680906.4928927,-1823.9201116032,2776838.528439,36.899819981998,0,0
60.983677755026,-26.799304809325,31.704250425043,2680906.4928927,-1823.9201116032,2776838.528439,36.904250425043,0,0
60.983678039008,-26.802978947918,31.708680868087,2680906.4928927,-1823.9201116032,2776838.528439,36.908680868087,0,0
60.98367832299,-26.80665308651,31.713111311131,2680906.4928927,-1823.9201116032,2776838.528439,36.913111311131,0,0
60.983678606972,-26.810327225103,31.717541754175,2680906.4928927,-1823.9201116032,2776838.528439,36.917541754175,0,0
60.983678890954,-26.814001363695,31.72197219722,2680906.4928927,-1823.9201116032,2776838.528439,36.92197219722,0,0
60.983679174935,-26.817675502287,31.726402640264,2680906.4928927,-1823.9201116032,2776838.528439,36.926402640264,0,0
60.983679458917,-26.82134964088,31.730833083308,2680906.4928927,-1823.9201116032,2776838.528439,36.930833083308,0,0
60.983679742899,-26.825023779472,31.735263526353,2680906.4928927,-1823.9201116032,2776838.528439,36.935263526353,0,0
60.983680026881,-26.828697918065,31.739693969397,2680906.4928927,-1823.9201116032,2776838.528439,36.939693969397,0,0
60.983680310863,-26.832372056657,31.744124412441,2680906.4928927,-1823.9201116032,2776838.528439,36.944124412441,0,0
60.983680594845,-26.83604619525,31.748554855486,2680906.4928927,-1823.9201116032,2776838.528439,36.948554855486,0,0
60.983680878826,-26.839720333842,31.75298529853,2680906.4928927,-1823.9201116032,2776838.528439,36.95298529853,0,0
60.983681162808,-26.843394472435,31.757415741574,2680906.4928927,-1823.9201116032,2776838.528439,36.957415741574,0,0
60.98368144679,-26.847068611027,31.761846184618,2680906.4928927,-1823.9201116032,2776838.528439,36.961846184618,0,0
60.983681730772,-26.850742749619,31.766276627663,2680906.4928927,-1823.9201116032,2776838.528439,36.966276627663,0,0
60.983682014754,-26.854416888212,31.770707070707,2680906.4928927,-1823.9201116032,2776838.528439,36.970707070707,0,0
60.983682298736,-26.858091026804,31.775137513751,2680906.4928927,-1823.9201116032,2776838.528439,36.975137513751,0,0
60.983682582717,-26.861765165397,31.779567956796,2680906.4928927,-1823.9201116032,2776838.528439,36.979567956796,0,0
60.983682866699,-26.865439303989,31.78399839984,2680906.4928927,-1823.9201116032,2776838.528439,36.98399839984,0,0
60.983683150681,-26.869113442582,31.788428842884,2680906.4928927,-1823.9201116032,2776838.528439,36.988428842884,0,0
60.983683434663,-26.872787581174,31.792859285929,2680906.4928927,-1823.9201116032,2776838.528439,36.992859285929,0,0
60.983683718645,-26.876461719767,31.797289728973,2680906.4928927,-1823.9201116032,2776838.528439,36.997289728973,0,0
60.983684002627,-26.880135858359,31.801720172017,2680906.4928927,-1823.9201116032,2776838.528439,37.001720172017,0,0
60.983684286608,-26.883809996952,31.806150615062,2680906.4928927,-1823.9201116032,2776838.528439,37.006150615062,0,0
60.98368457059,-26.887484135544,31.810581058106,2680906.4928927,-1823.9201116032,2776838.528439,37.010581058106,0,0
60.983684854572,-26.891158274136,31.81501150115,2680906.4928927,-1823.9201116032,2776838.528439,37.01501150115,0,0
60.983685138554,-26.894832412729,31.819441944194,2680906.4928927,-1823.9201116032,2776838.528439,37.019441944194,0,0
60.983685422536,-26.898506551321,31.823872387239,2680906.4928927,-1823.9201116032,2776838.528439,37.023872387239,0,0
60.983685706518,-26.902180689914,31.828302830283,2680906.4928927,-1823.9201116032,2776838.528439,37.028302830283,0,0
60.9836859905,-26.905854828506,31.832733273327,2680906.4928927,-1823.9201116032,2776838.528439,37.032733273327,0,0
60.983686274481,-26.909528967099,31.837163716372,2680906.4928927,-1823.9201116032,2776838.528439,37.037163716372,0,0
60.983686558463,-26.913203105691,31.841594159416,2680906.4928927,-1823.9201116032,2776838.528439,37.041594159416,0,0
60.983686842445,-26.916877244284,31.84602460246,2680906.4928927,-1823.9201116032,2776838.528439,37.04602460246,0,0
60.983687126427,-26.920551382876,31.850455045505,2680906.4928927,-1823.9201116032,2776838.528439,37.050455045505,0,0
60.983687410409,-26.924225521468,31.854885488549,2680906.4928927,-1823.9201116032,2776838.528439,37.054885488549,0,0
60.983687694391,-26.927899660061,31.859315931593,2680906.4928927,-1823.9201116032,2776838.528439,37.059315931593,0,0
60.983687978372,-26.931573798653,31.863746374637,2680906.4928927,-1823.9201116032,2776838.528439,37.063746374637,0,0
60.983688262354,-26.935247937246,31.868176817682,2680906.4928927,-1823.9201116032,2776838.528439,37.068176817682,0,0
60.983688546336,-26.938922075838,31.872607260726,2680906.4928927,-1823.9201116032,2776838.528439,37.072607260726,0,0
60.983688830318,-26.942596214431,31.87703770377,2680906.4928927,-1823.9201116032,2776838.528439,37.07703770377,0,0
60.9836891143,-26.946270353023,31.881468146815,2680906.4928927,-1823.9201116032,2776838.528439,37.081468146815,0,0
60.983689398282,-26.949944491616,31.885898589859,2680906.4928927,-1823.9201116032,2776838.528439,37.085898589859,0,0
60.983689682263,-26.953618630208,31.890329032903,2680906.4928927,-1823.9201116032,2776838.528439,37.090329032903,0,0
60.983689966245,-26.9572927688,31.894759475948,2680906.4928927,-1823.9201116032,2776838.528439,37.094759475948,0,0
60.983690250227,-26.960966907393,31.899189918992,2680906.4928927,-1823.9201116032,2776838.528439,37.099189918992,0,0
60.983690534209,-26.964641045985,31.903620362036,2680906.4928927,-1823.9201116032,2776838.528439,37.103620362036,0,0
60.983690818191,-26.968315184578,31.908050805081,2680906.4928927,-1823.9201116032,2776838.528439,37.108050805081,0,0
60.983691102173,-26.97198932317,31.912481248125,2680906.4928927,-1823.9201116032,2776838.528439,37.112481248125,0,0
60.983691386154,-26.975663461763,31.916911691169,2680906.4928927,-1823.9201116032,2776838.528439,37.116911691169,0,0
60.983691670136,-26.979337600355,31.921342134213,2680906.4928927,-1823.9201116032,2776838.528439,37.121342134213,0,0
60.983691954118,-26.983011738948,31.925772577258,2680906.4928927,-1823.9201116032,2776838.528439,37.125772577258,0,0
60.9836922381,-26.98668587754,31.930203020302,2680906.4928927,-1823.9201116032,2776838.528439,37.130203020302,0,0
60.983692522082,-26.990360016132,31.934633463346,2680906.4928927,-1823.9201116032,2776838.528439,37.134633463346,0,0
60.983692806064,-26.994034154725,31.939063906391,2680906.4928927,-1823.9201116032,2776838.528439,37.139063906391,0,0
60.983693090046,-26.997708293317,31.943494349435,2680906.4928927,-1823.9201116032,2776838.528439,37.143494349435,0,0
60.983693374219,-27.001382431683,31.947924792479,2684766.5728966,-760.65475761878,2775473.9459241,37.147924792479,0,0
60.983693658546,-27.00505656987,31.952355235524,2684766.5728966,-760.65475761878,2775473.9459241,37.152355235524,0,0
60.983693942872,-27.008730708056,31.956785678568,2684766.5728966,-760.65475761878,2775473.9459241,37.156785678568,0,0
60.983694227199,-27.012404846242,31.961216121612,2684766.5728966,-760.65475761878,2775473.9459241,37.161216121612,0,0
60.983694511525,-27.016078984429,31.965646564656,2684766.5728966,-760.65475761878,2775473.9459241,37.165646564656,0,0
60.983694795852,-27.019753122615,31.970077007701,2684766.5728966,-760.65475761878,2775473.9459241,37.170077007701,0,0
60.983695080178,-27.023427260801,31.974507450745,2684766.5728966,-760.65475761878,2775473.9459241,37.174507450745,0,0
60.983695364505,-27.027101398987,31.978937893789,2684766.5728966,-760.65475761878,2775473.9459241,37.178937893789,0,0
60.983695648831,-27.030775537174,31.983368336834,2684766.5728966,-760.65475761878,2775473.9459241,37.183368336834,0,0
60.983695933158,-27.03444967536,31.987798779878,2684766.5728966,-760.65475761878,2775473.9459241,37.187798779878,0,0
60.983696217484,-27.038123813546,31.992229222922,2684766.5728966,-760.65475761878,2775473.9459241,37.192229222922,0,0
60.983696501811,-27.041797951732,31.996659665967,2684766.5728966,-760.65475761878,2775473.9459241,37.196659665967,0,0
60.983696786137,-27.045472089919,32.001090109011,2684766.5728966,-760.65475761878,2775473.9459241,37.201090109011,0,0
60.983697070464,-27.049146228105,32.005520552055,2684766.5728966,-760.65475761878,2775473.9459241,37.205520552055,0,0
60.98369735479,-27.052820366291,32.0099509951,2684766.5728966,-760.65475761878,2775473.9459241,37.2099509951,0,0
60.983697639117,-27.056494504478,32.014381438144,2684766.5728966,-760.65475761878,2775473.9459241,37.214381438144,0,0
60.983697923443,-27.060168642664,32.018811881188,2684766.5728966,-760.65475761878,2775473.9459241,37.218811881188,0,0
60.98369820777,-27.06384278085,32.023242324232,2684766.5728966,-760.65475761878,2775473.9459241,37.223242324232,0,0
60.983698492096,-27.067516919036,32.027672767277,2684766.5728966,-760.65475761878,2775473.9459241,37.227672767277,0,0
60.983698776423,-27.071191057223,32.032103210321,2684766.5728966,-760.65475761878,2775473.9459241,37.232103210321,0,0
60.983699060749,-27.074865195409,32.036533653365,2684766.5728966,-760.65475761878,2775473.9459241,37.236533653365,0,0
60.983699345076,-27.078539333595,32.04096409641,2684766.5728966,-760.65475761878,2775473.9459241,37.24096409641,0,0
60.983699629402,-27.082213471781,32.045394539454,2684766.5728966,-760.65475761878,2775473.9459241,37.245394539454,0,0
60.983699913729,-27.085887609968,32.049824982498,2684766.5728966,-760.65475761878,2775473.9459241,37.249824982498,0,0
60.983700198055,-27.089561748154,32.054255425543,2684766.5728966,-760.65475761878,2775473.9459241,37.254255425543,0,0
60.983700482382,-27.09323588634,32.058685868587,2684766.5728966,-760.65475761878,2775473.9459241,37.258685868587,0,0
60.983700766708,-27.096910024527,32.063116311631,2684766.5728966,-760.65475761878,2775473.9459241,37.263116311631,0,0
60.983701051035,-27.100584162713,32.067546754675,2684766.5728966,-760.65475761878,2775473.9459241,37.267546754675,0,0
60.983701335361,-27.104258300899,32.07197719772,2684766.5728966,-760.65475761878,2775473.9459241,37.27197719772,0,0
60.983701619688,-27.107932439085,32.076407640764,2684766.5728966,-760.65475761878,2775473.9459241,37.276407640764,0,0
60.983701904014,-27.111606577272,32.080838083808,2684766.5728966,-760.65475761878,2775473.9459241,37.280838083808,0,0
60.983702188341,-27.115280715458,32.085268526853,2684766.5728966,-760.65475761878,2775473.9459241,37.285268526853,0,0
60.983702472667,-27.118954853644,32.089698969897,2684766.5728966,-760.65475761878,2775473.9459241,37.289698969897,0,0
60.983702756994,-27.12262899183,32.094129412941,2684766.5728966,-760.65475761878,2775473.9459241,37.294129412941,0,0
60.98370304132,-27.126303130017,32.098559855986,2684766.5728966,-760.65475761878,2775473.9459241,37.298559855986,0,0
60.983703325647,-27.129977268203,32.10299029903,2684766.5728966,-760.65475761878,2775473.9459241,37.30299029903,0,0
60.983703609973,-27.133651406389,32.107420742074,2684766.5728966,-760.65475761878,2775473.9459241,37.307420742074,0,0
60.9837038943,-27.137325544576,32.111851185119,2684766.5728966,-760.65475761878,2775473.9459241,37.311851185119,0,0
60.983704178626,-27.140999682762,32.116281628163,2684766.5728966,-760.65475761878,2775473.9459241,37.316281628163,0,0
60.983704462953,-27.144673820948,32.120712071207,2684766.5728966,-760.65475761878,2775473.9459241,37.320712071207,0,0
60.983704747279,-27.148347959134,32.125142514251,2684766.5728966,-760.65475761878,2775473.9459241,37.325142514251,0,0
60.983705031606,-27.152022097321,32.129572957296,2684766.5728966,-760.65475761878,2775473.9459241,37.329572957296,0,0
60.983705315932,-27.155696235507,32.13400340034,2684766.5728966,-760.65475761878,2775473.9459241,37.33400340034,0,0
60.983705600259,-27.159370373693,32.138433843384,2684766.5728966,-760.65475761878,2775473.9459241,37.338433843384,0,0
60.983705884585,-27.163044511879,32.142864286429,2684766.5728966,-760.65475761878,2775473.9459241,37.342864286429,0,0
60.983706168912,-27.166718650066,32.147294729473,2684766.5728966,-760.65475761878,2775473.9459241,37.347294729473,0,0
60.983706453238,-27.170392788252,32.151725172517,2684766.5728966,-760.65475761878,2775473.9459241,37.351725172517,0,0
60.983706737565,-27.174066926438,32.156155615562,2684766.5728966,-760.65475761878,2775473.9459241,37.356155615562,0,0
60.983707021891,-27.177741064624,32.160586058606,2684766.5728966,-760.65475761878,2775473.9459241,37.360586058606,0,0
60.983707306218,-27.181415202811,32.16501650165,2684766.5728966,-760.65475761878,2775473.9459241,37.36501650165,0,0
60.983707590544,-27.185089340997,32.169446944694,2684766.5728966,-760.65475761878,2775473.9459241,37.369446944694,0,0
60.983707874871,-27.188763479183,32.173877387739,2684766.5728966,-760.65475761878,2775473.9459241,37.373877387739,0,0
60.983708159197,-27.19243761737,32.178307830783,2684766.5728966,-760.65475761878,2775473.9459241,37.378307830783,0,0
60.983708443524,-27.196111755556,32.182738273827,2684766.5728966,-760.65475761878,2775473.9459241,37.382738273827,0,0
60.98370872785,-27.199785893742,32.187168716872,2684766.5728966,-760.65475761878,2775473.9459241,37.387168716872,0,0
60.983709012177,-27.203460031928,32.191599159916,2684766.5728966,-760.65475761878,2775473.9459241,37.391599159916,0,0
60.983709296503,-27.207134170115,32.19602960296,2684766.5728966,-760.65475761878,2775473.9459241,37.39602960296,0,0
60.98370958083,-27.210808308301,32.200460046005,2684766.5728966,-760.65475761878,2775473.9459241,37.400460046005,0,0
60.983709865156,-27.214482446487,32.204890489049,2684766.5728966,-760.65475761878,2775473.9459241,37.404890489049,0,0
60.983710149483,-27.218156584673,32.209320932093,2684766.5728966,-760.65475761878,2775473.9459241,37.409320932093,0,0
60.983710433809,-27.22183072286,32.213751375138,2684766.5728966,-760.65475761878,2775473.9459241,37.413751375138,0,0
60.983710718136,-27.225504861046,32.218181818182,2684766.5728966,-760.65475761878,2775473.9459241,37.418181818182,0,0
60.983711002462,-27.229178999232,32.222612261226,2684766.5728966,-760.65475761878,2775473.9459241,37.422612261226,0,0
60.983711286789,-27.232853137419,32.22704270427,2684766.5728966,-760.65475761878,2775473.9459241,37.42704270427,0,0
60.983711571115,-27.236527275605,32.231473147315,2684766.5728966,-760.65475761878,2775473.9459241,37.431473147315,0,0
60.983711855442,-27.240201413791,32.235903590359,2684766.5728966,-760.65475761878,2775473.9459241,37.435903590359,0,0
60.983712139768,-27.243875551977,32.240334033403,2684766.5728966,-760.65475761878,2775473.9459241,37.440334033403,0,0
60.983712424095,-27.247549690164,32.244764476448,2684766.5728966,-760.65475761878,2775473.9459241,37.444764476448,0,0
60.983712708421,-27.25122382835,32.249194919492,2684766.5728966,-760.65475761878,2775473.9459241,37.449194919492,0,0
60.983712992748,-27.254897966536,32.253625362536,2684766.5728966,-760.65475761878,2775473.9459241,37.453625362536,0,0
60.983713277074,-27.258572104722,32.258055805581,2684766.5728966,-760.65475761878,2775473.9459241,37.458055805581,0,0
60.983713561401,-27.262246242909,32.262486248625,2684766.5728966,-760.65475761878,2775473.9459241,37.462486248625,0,0
60.983713845727,-27.265920381095,32.266916691669,2684766.5728966,-760.65475761878,2775473.9459241,37.466916691669,0,0
60.983714130054,-27.269594519281,32.271347134713,2684766.5728966,-760.65475761878,2775473.9459241,37.471347134713,0,0
60.98371441438,-27.273268657468,32.275777577758,2684766.5728966,-760.65475761878,2775473.9459241,37.475777577758,0,0
60.983714698707,-27.276942795654,32.280208020802,2684766.5728966,-760.65475761878,2775473.9459241,37.480208020802,0,0
60.983714983033,-27.28061693384,32.284638463846,2684766.5728966,-760.65475761878,2775473.9459241,37.484638463846,0,0
60.98371526736,-27.284291072026,32.289068906891,2684766.5728966,-760.65475761878,2775473.9459241,37.489068906891,0,0
60.983715551686,-27.287965210213,32.293499349935,2684766.5728966,-760.65475761878,2775473.9459241,37.493499349935,0,0
60.983715836013,-27.291639348399,32.297929792979,2684766.5728966,-760.65475761878,2775473.9459241,37.497929792979,0,0
60.983716120339,-27.295313486585,32.302360236024,2684766.5728966,-760.65475761878,2775473.9459241,37.502360236024,0,0
60.983716404666,-27.298987624771,32.306790679068,2684766.5728966,-760.65475761878,2775473.9459241,37.506790679068,0,0
60.983716688992,-27.302661762958,32.311221122112,2684766.5728966,-760.65475761878,2775473.9459241,37.511221122112,0,0
60.983716973319,-27.306335901144,32.315651565157,2684766.5728966,-760.65475761878,2775473.9459241,37.515651565157,0,0
60.983717257645,-27.31001003933,32.320082008201,2684766.5728966,-760.65475761878,2775473.9459241,37.520082008201,0,0
60.983717541972,-27.313684177517,32.324512451245,2684766.5728966,-760.65475761878,2775473.9459241,37.524512451245,0,0
60.983717826298,-27.317358315703,32.328942894289,2684766.5728966,-760.65475761878,2775473.9459241,37.528942894289,0,0
60.983718110625,-27.321032453889,32.333373337334,2684766.5728966,-760.65475761878,2775473.9459241,37.533373337334,0,0
60.983718394951,-27.324706592075,32.337803780378,2684766.5728966,-760.65475761878,2775473.9459241,37.537803780378,0,0
60.983718679278,-27.328380730262,32.342234223422,2684766.5728966,-760.65475761878,2775473.9459241,37.542234223422,0,0
60.983718963604,-27.332054868448,32.346664666467,2684766.5728966,-760.65475761878,2775473.9459241,37.546664666467,0,0
60.983719247931,-27.335729006634,32.351095109511,2684766.5728966,-760.65475761878,2775473.9459241,37.551095109511,0,0
60.983719532257,-27.33940314482,32.355525552555,2684766.5728966,-760.65475761878,2775473.9459241,37.555525552555,0,0
60.983719816584,-27.343077283007,32.3599559956,2684766.5728966,-760.65475761878,2775473.9459241,37.5599559956,0,0
60.98372010091,-27.346751421193,32.364386438644,2684766.5728966,-760.65475761878,2775473.9459241,37.564386438644,0,0
60.983720385237,-27.350425559379,32.368816881688,2684766.5728966,-760.65475761878,2775473.9459241,37.568816881688,0,0
60.983720669563,-27.354099697565,32.373247324732,2684766.5728966,-760.65475761878,2775473.9459241,37.573247324732,0,0
60.98372095389,-27.357773835752,32.377677767777,2684766.5728966,-760.65475761878,2775473.9459241,37.577677767777,0,0
60.983721238216,-27.361447973938,32.382108210821,2684766.5728966,-760.65475761878,2775473.9459241,37.582108210821,0,0
60.983721522543,-27.365122112124,32.386538653865,2684766.5728966,-760.65475761878,2775473.9459241,37.586538653865,0,0
60.983721806869,-27.368796250311,32.39096909691,2684766.5728966,-760.65475761878,2775473.9459241,37.59096909691,0,0
60.983722091196,-27.372470388497,32.395399539954,2684766.5728966,-760.65475761878,2775473.9459241,37.595399539954,0,0
60.983722375522,-27.376144526683,32.399829982998,2684766.5728966,-760.65475761878,2775473.9459241,37.599829982998,0,0
60.983722659849,-27.379818664869,32.404260426043,2684766.5728966,-760.65475761878,2775473.9459241,37.604260426043,0,0
60.983722944175,-27.383492803056,32.408690869087,2684766.5728966,-760.65475761878,2775473.9459241,37.608690869087,0,0
60.983723228502,-27.387166941242,32.413121312131,2684766.5728966,-760.65475761878,2775473.9459241,37.613121312131,0,0
60.983723512828,-27.390841079428,32.417551755176,2684766.5728966,-760.65475761878,2775473.9459241,37.617551755176,0,0
60.983723797155,-27.394515217614,32.42198219822,2684766.5728966,-760.65475761878,2775473.9459241,37.62198219822,0,0
60.983724081481,-27.398189355801,32.426412641264,2684766.5728966,-760.65475761878,2775473.9459241,37.626412641264,0,0
60.983724365808,-27.401863493987,32.430843084308,2684766.5728966,-760.65475761878,2775473.9459241,37.630843084308,0,0
60.983724650134,-27.405537632173,32.435273527353,2684766.5728966,-760.65475761878,2775473.9459241,37.635273527353,0,0
60.983724934461,-27.40921177036,32.439703970397,2684766.5728966,-760.65475761878,2775473.9459241,37.639703970397,0,0
60.983725218787,-27.412885908546,32.444134413441,2684766.5728966,-760.65475761878,2775473.9459241,37.644134413441,0,0
60.983725503114,-27.416560046732,32.448564856486,2684766.5728966,-760.65475761878,2775473.9459241,37.648564856486,0,0
60.98372578744,-27.420234184918,32.45299529953,2684766.5728966,-760.65475761878,2775473.9459241,37.65299529953,0,0
60.983726071767,-27.423908323105,32.457425742574,2684766.5728966,-760.65475761878,2775473.9459241,37.657425742574,0,0
60.983726356093,-27.427582461291,32.461856185619,2684766.5728966,-760.65475761878,2775473.9459241,37.661856185619,0,0
60.98372664042,-27.431256599477,32.466286628663,2684766.5728966,-760.65475761878,2775473.9459241,37.666286628663,0,0
60.983726924746,-27.434930737663,32.470717071707,2684766.5728966,-760.65475761878,2775473.9459241,37.670717071707,0,0
60.983727209073,-27.43860487585,32.475147514751,2684766.5728966,-760.65475761878,2775473.9459241,37.675147514751,0,0
60.983727493399,-27.442279014036,32.479577957796,2684766.5728966,-760.65475761878,2775473.9459241,37.679577957796,0,0
60.983727777726,-27.445953152222,32.48400840084,2684766.5728966,-760.65475761878,2775473.9459241,37.68400840084,0,0
60.983728062052,-27.449627290409,32.488438843884,2684766.5728966,-760.65475761878,2775473.9459241,37.688438843884,0,0
60.983728346379,-27.453301428595,32.492869286929,2684766.5728966,-760.65475761878,2775473.9459241,37.692869286929,0,0
60.983728630705,-27.456975566781,32.497299729973,2684766.5728966,-760.65475761878,2775473.9459241,37.697299729973,0,0
60.983728915032,-27.460649704967,32.501730173017,2684766.5728966,-760.65475761878,2775473.9459241,37.701730173017,0,0
60.983729199358,-27.464323843154,32.506160616062,2684766.5728966,-760.65475761878,2775473.9459241,37.706160616062,0,0
60.983729483685,-27.46799798134,32.510591059106,2684766.5728966,-760.65475761878,2775473.9459241,37.710591059106,0,0
60.983729768011,-27.471672119526,32.51502150215,2684766.5728966,-760.65475761878,2775473.9459241,37.71502150215,0,0
60.983730052338,-27.475346257712,32.519451945195,2684766.5728966,-760.65475761878,2775473.9459241,37.719451945195,0,0
60.983730336664,-27.479020395899,32.523882388239,2684766.5728966,-760.65475761878,2775473.9459241,37.723882388239,0,0
60.983730620991,-27.482694534085,32.528312831283,2684766.5728966,-760.65475761878,2775473.9459241,37.728312831283,0,0
60.983730905317,-27.486368672271,32.532743274327,2684766.5728966,-760.65475761878,2775473.9459241,37.732743274327,0,0
60.983731189644,-27.490042810458,32.537173717372,2684766.5728966,-760.65475761878,2775473.9459241,37.737173717372,0,0
60.98373147397,-27.493716948644,32.541604160416,2684766.5728966,-760.65475761878,2775473.9459241,37.741604160416,0,0
60.983731758297,-27.49739108683,32.54603460346,2684766.5728966,-760.65475761878,2775473.9459241,37.74603460346,0,0
60.983732042623,-27.501065225016,32.550465046505,2684766.5728966,-760.65475761878,2775473.9459241,37.750465046505,0,0
60.98373232695,-27.504739363203,32.554895489549,2684766.5728966,-760.65475761878,2775473.9459241,37.754895489549,0,0
60.983732611276,-27.508413501389,32.559325932593,2684766.5728966,-760.65475761878,2775473.9459241,37.759325932593,0,0
60.983732895603,-27.512087639575,32.563756375638,2684766.5728966,-760.65475761878,2775473.9459241,37.763756375638,0,0
60.983733179929,-27.515761777761,32.568186818682,2684766.5728966,-760.65475761878,2775473.9459241,37.768186818682,0,0
60.983733464256,-27.519435915948,32.572617261726,2684766.5728966,-760.65475761878,2775473.9459241,37.772617261726,0,0
60.983733748582,-27.523110054134,32.57704770477,2684766.5728966,-760.65475761878,2775473.9459241,37.77704770477,0,0
60.983734032909,-27.52678419232,32.581478147815,2684766.5728966,-760.65475761878,2775473.9459241,37.781478147815,0,0
60.983734317235,-27.530458330506,32.585908590859,2684766.5728966,-760.65475761878,2775473.9459241,37.785908590859,0,0
60.983734601562,-27.534132468693,32.590339033903,2684766.5728966,-760.65475761878,2775473.9459241,37.790339033903,0,0
60.983734885888,-27.537806606879,32.594769476948,2684766.5728966,-760.65475761878,2775473.9459241,37.794769476948,0,0
60.983735170215,-27.541480745065,32.599199919992,2684766.5728966,-760.65475761878,2775473.9459241,37.799199919992,0,0
60.983735454541,-27.545154883252,32.603630363036,2684766.5728966,-760.65475761878,2775473.9459241,37.803630363036,0,0
60.983735738868,-27.548829021438,32.608060806081,2684766.5728966,-760.65475761878,2775473.9459241,37.808060806081,0,0
60.983736023194,-27.552503159624,32.612491249125,2684766.5728966,-760.65475761878,2775473.9459241,37.812491249125,0,0
60.983736307521,-27.55617729781,32.616921692169,2684766.5728966,-760.65475761878,2775473.9459241,37.816921692169,0,0
60.983736591847,-27.559851435997,32.621352135214,2684766.5728966,-760.65475761878,2775473.9459241,37.821352135214,0,0
60.983736876174,-27.563525574183,32.625782578258,2684766.5728966,-760.65475761878,2775473.9459241,37.825782578258,0,0
60.9837371605,-27.567199712369,32.630213021302,2684766.5728966,-760.65475761878,2775473.9459241,37.830213021302,0,0
60.983737444827,-27.570873850555,32.634643464346,2684766.5728966,-760.65475761878,2775473.9459241,37.834643464346,0,0
60.983737729153,-27.574547988742,32.639073907391,2684766.5728966,-760.65475761878,2775473.9459241,37.839073907391,0,0
60.98373801348,-27.578222126928,32.643504350435,2684766.5728966,-760.65475761878,2775473.9459241,37.843504350435,0,0
60.983738297806,-27.581896265114,32.647934793479,2684766.5728966,-760.65475761878,2775473.9459241,37.847934793479,0,0
60.983738582133,-27.585570403301,32.652365236524,2684766.5728966,-760.65475761878,2775473.9459241,37.852365236524,0,0
60.983738866459,-27.589244541487,32.656795679568,2684766.5728966,-760.65475761878,2775473.9459241,37.856795679568,0,0
60.983739150786,-27.592918679673,32.661226122612,2684766.5728966,-760.65475761878,2775473.9459241,37.861226122612,0,0
60.983739435112,-27.596592817859,32.665656565657,2684766.5728966,-760.65475761878,2775473.9459241,37.865656565657,0,0
60.983739719439,-27.600266956046,32.670087008701,2684766.5728966,-760.65475761878,2775473.9459241,37.870087008701,0,0
60.983740003765,-27.603941094232,32.674517451745,2684766.5728966,-760.65475761878,2775473.9459241,37.874517451745,0,0
60.983740288092,-27.607615232418,32.678947894789,2684766.5728966,-760.65475761878,2775473.9459241,37.878947894789,0,0
60.983740572418,-27.611289370604,32.683378337834,2684766.5728966,-760.65475761878,2775473.9459241,37.883378337834,0,0
60.983740856745,-27.614963508791,32.687808780878,2684766.5728966,-760.65475761878,2775473.9459241,37.887808780878,0,0
60.983741141071,-27.618637646977,32.692239223922,2684766.5728966,-760.65475761878,2775473.9459241,37.892239223922,0,0
60.983741425398,-27.622311785163,32.696669666967,2684766.5728966,-760.65475761878,2775473.9459241,37.896669666967,0,0
60.983741709724,-27.62598592335,32.701100110011,2684766.5728966,-760.65475761878,2775473.9459241,37.901100110011,0,0
60.983741994051,-27.629660061536,32.705530553055,2684766.5728966,-760.65475761878,2775473.9459241,37.905530553055,0,0
60.983742278377,-27.633334199722,32.7099609961,2684766.5728966,-760.65475761878,2775473.9459241,37.9099609961,0,0
60.983742562704,-27.637008337908,32.714391439144,2684766.5728966,-760.65475761878,2775473.9459241,37.914391439144,0,0
60.98374284703,-27.640682476095,32.718821882188,2684766.5728966,-760.65475761878,2775473.9459241,37.918821882188,0,0
60.983743131357,-27.644356614281,32.723252325233,2684766.5728966,-760.65475761878,2775473.9459241,37.923252325233,0,0
60.983743415683,-27.648030752467,32.727682768277,2684766.5728966,-760.65475761878,2775473.9459241,37.927682768277,0,0
60.98374370001,-27.651704890653,32.732113211321,2684766.5728966,-760.65475761878,2775473.9459241,37.932113211321,0,0
60.983743984336,-27.65537902884,32.736543654365,2684766.5728966,-760.65475761878,2775473.9459241,37.936543654365,0,0
60.983744268663,-27.659053167026,32.74097409741,2684766.5728966,-760.65475761878,2775473.9459241,37.94097409741,0,0
60.983744552989,-27.662727305212,32.745404540454,2684766.5728966,-760.65475761878,2775473.9459241,37.945404540454,0,0
60.983744837316,-27.666401443398,32.749834983498,2684766.5728966,-760.65475761878,2775473.9459241,37.949834983498,0,0
60.983745121642,-27.670075581585,32.754265426543,2684766.5728966,-760.65475761878,2775473.9459241,37.954265426543,0,0
60.983745405969,-27.673749719771,32.758695869587,2684766.5728966,-760.65475761878,2775473.9459241,37.958695869587,0,0
60.983745690295,-27.677423857957,32.763126312631,2684766.5728966,-760.65475761878,2775473.9459241,37.963126312631,0,0
60.983745974622,-27.681097996144,32.767556755676,2684766.5728966,-760.65475761878,2775473.9459241,37.967556755676,0,0
60.983746258948,-27.68477213433,32.77198719872,2684766.5728966,-760.65475761878,2775473.9459241,37.97198719872,0,0
60.983746543275,-27.688446272516,32.776417641764,2684766.5728966,-760.65475761878,2775473.9459241,37.976417641764,0,0
60.983746827601,-27.692120410702,32.780848084808,2684766.5728966,-760.65475761878,2775473.9459241,37.980848084808,0,0
60.983747111928,-27.695794548889,32.785278527853,2684766.5728966,-760.65475761878,2775473.9459241,37.985278527853,0,0
60.983747396254,-27.699468687075,32.789708970897,2684766.5728966,-760.65475761878,2775473.9459241,37.989708970897,0,0
60.983747680581,-27.703142825261,32.794139413941,2684766.5728966,-760.65475761878,2775473.9459241,37.994139413941,0,0
60.983747964907,-27.706816963447,32.798569856986,2684766.5728966,-760.65475761878,2775473.9459241,37.998569856986,0,0
60.983748249234,-27.710491101634,32.80300030003,2684766.5728966,-760.65475761878,2775473.9459241,38.00300030003,0,0
60.98374853356,-27.71416523982,32.807430743074,2684766.5728966,-760.65475761878,2775473.9459241,38.007430743074,0,0
60.983748817887,-27.717839378006,32.811861186119,2684766.5728966,-760.65475761878,2775473.9459241,38.011861186119,0,0
60.983749102213,-27.721513516193,32.816291629163,2684766.5728966,-760.65475761878,2775473.9459241,38.016291629163,0,0
60.98374938654,-27.725187654379,32.820722072207,2684766.5728966,-760.65475761878,2775473.9459241,38.020722072207,0,0
60.983749670866,-27.728861792565,32.825152515252,2684766.5728966,-760.65475761878,2775473.9459241,38.025152515252,0,0
60.983749955193,-27.732535930751,32.829582958296,2684766.5728966,-760.65475761878,2775473.9459241,38.029582958296,0,0
60.983750239519,-27.736210068938,32.83401340134,2684766.5728966,-760.65475761878,2775473.9459241,38.03401340134,0,0
60.983750523846,-27.739884207124,32.838443844384,2684766.5728966,-760.65475761878,2775473.9459241,38.038443844384,0,0
60.983750808172,-27.74355834531,32.842874287429,2684766.5728966,-760.65475761878,2775473.9459241,38.042874287429,0,0
60.983751092499,-27.747232483496,32.847304730473,2684766.5728966,-760.65475761878,2775473.9459241,38.047304730473,0,0
60.983751376825,-27.750906621683,32.851735173517,2684766.5728966,-760.65475761878,2775473.9459241,38.051735173517,0,0
60.983751661152,-27.754580759869,32.856165616562,2684766.5728966,-760.65475761878,2775473.9459241,38.056165616562,0,0
60.983751945478,-27.758254898055,32.860596059606,2684766.5728966,-760.65475761878,2775473.9459241,38.060596059606,0,0
60.983752229805,-27.761929036242,32.86502650265,2684766.5728966,-760.65475761878,2775473.9459241,38.06502650265,0,0
60.983752514131,-27.765603174428,32.869456945695,2684766.5728966,-760.65475761878,2775473.9459241,38.069456945695,0,0
60.983752798458,-27.769277312614,32.873887388739,2684766.5728966,-760.65475761878,2775473.9459241,38.073887388739,0,0
60.983753082784,-27.7729514508,32.878317831783,2684766.5728966,-760.65475761878,2775473.9459241,38.078317831783,0,0
60.983753367111,-27.776625588987,32.882748274827,2684766.5728966,-760.65475761878,2775473.9459241,38.082748274827,0,0
60.983753651437,-27.780299727173,32.887178717872,2684766.5728966,-760.65475761878,2775473.9459241,38.087178717872,0,0
60.983753935764,-27.783973865359,32.891609160916,2684766.5728966,-760.65475761878,2775473.9459241,38.091609160916,0,0
60.98375422009,-27.787648003545,32.89603960396,2684766.5728966,-760.65475761878,2775473.9459241,38.09603960396,0,0
60.983754504417,-27.791322141732,32.900470047005,2684766.5728966,-760.65475761878,2775473.9459241,38.100470047005,0,0
60.983754788743,-27.794996279918,32.904900490049,2684766.5728966,-760.65475761878,2775473.9459241,38.104900490049,0,0
60.98375507307,-27.798670418104,32.909330933093,2684766.5728966,-760.65475761878,2775473.9459241,38.109330933093,0,0
60.983755357396,-27.802344556291,32.913761376138,2684766.5728966,-760.65475761878,2775473.9459241,38.113761376138,0,0
60.983755641723,-27.806018694477,32.918191819182,2684766.5728966,-760.65475761878,2775473.9459241,38.118191819182,0,0
60.983755926049,-27.809692832663,32.922622262226,2684766.5728966,-760.65475761878,2775473.9459241,38.122622262226,0,0
60.983756210376,-27.813366970849,32.927052705271,2684766.5728966,-760.65475761878,2775473.9459241,38.127052705271,0,0
60.983756494702,-27.817041109036,32.931483148315,2684766.5728966,-760.65475761878,2775473.9459241,38.131483148315,0,0
60.983756779029,-27.820715247222,32.935913591359,2684766.5728966,-760.65475761878,2775473.9459241,38.135913591359,0,0
60.983757063355,-27.824389385408,32.940344034403,2684766.5728966,-760.65475761878,2775473.9459241,38.140344034403,0,0
60.983757347682,-27.828063523594,32.944774477448,2684766.5728966,-760.65475761878,2775473.9459241,38.144774477448,0,0
60.983757632008,-27.831737661781,32.949204920492,2684766.5728966,-760.65475761878,2775473.9459241,38.149204920492,0,0
60.983757916335,-27.835411799967,32.953635363536,2684766.5728966,-760.65475761878,2775473.9459241,38.153635363536,0,0
60.983758200661,-27.839085938153,32.958065806581,2684766.5728966,-760.65475761878,2775473.9459241,38.158065806581,0,0
60.983758484988,-27.84276007634,32.962496249625,2684766.5728966,-760.65475761878,2775473.9459241,38.162496249625,0,0
60.983758769314,-27.846434214526,32.966926692669,2684766.5728966,-760.65475761878,2775473.9459241,38.166926692669,0,0
60.983759053641,-27.850108352712,32.971357135714,2684766.5728966,-760.65475761878,2775473.9459241,38.171357135714,0,0
60.983759337967,-27.853782490898,32.975787578758,2684766.5728966,-760.65475761878,2775473.9459241,38.175787578758,0,0
60.983759622294,-27.857456629085,32.980218021802,2684766.5728966,-760.65475761878,2775473.9459241,38.180218021802,0,0
60.98375990662,-27.861130767271,32.984648464846,2684766.5728966,-760.65475761878,2775473.9459241,38.184648464846,0,0
60.983760190947,-27.864804905457,32.989078907891,2684766.5728966,-760.65475761878,2775473.9459241,38.189078907891,0,0
60.983760475273,-27.868479043643,32.993509350935,2684766.5728966,-760.65475761878,2775473.9459241,38.193509350935,0,0
60.9837607596,-27.87215318183,32.997939793979,2684766.5728966,-760.65475761878,2775473.9459241,38.197939793979,0,0
60.983761043926,-27.875827320016,33.002370237024,2684766.5728966,-760.65475761878,2775473.9459241,38.202370237024,0,0
60.983761328253,-27.879501458202,33.006800680068,2684766.5728966,-760.65475761878,2775473.9459241,38.206800680068,0,0
60.983761612579,-27.883175596388,33.011231123112,2684766.5728966,-760.65475761878,2775473.9459241,38.211231123112,0,0
60.983761896906,-27.886849734575,33.015661566157,2684766.5728966,-760.65475761878,2775473.9459241,38.215661566157,0,0
60.983762181232,-27.890523872761,33.020092009201,2684766.5728966,-760.65475761878,2775473.9459241,38.220092009201,0,0
60.983762465559,-27.894198010947,33.024522452245,2684766.5728966,-760.65475761878,2775473.9459241,38.224522452245,0,0
60.983762749885,-27.897872149134,33.02895289529,2684766.5728966,-760.65475761878,2775473.9459241,38.22895289529,0,0
60.983763034212,-27.90154628732,33.033383338334,2684766.5728966,-760.65475761878,2775473.9459241,38.233383338334,0,0
60.983763318538,-27.905220425506,33.037813781378,2684766.5728966,-760.65475761878,2775473.9459241,38.237813781378,0,0
60.983763602865,-27.908894563692,33.042244224422,2684766.5728966,-760.65475761878,2775473.9459241,38.242244224422,0,0
60.983763887191,-27.912568701879,33.046674667467,2684766.5728966,-760.65475761878,2775473.9459241,38.246674667467,0,0
60.983764171518,-27.916242840065,33.051105110511,2684766.5728966,-760.65475761878,2775473.9459241,38.251105110511,0,0
60.983764455844,-27.919916978251,33.055535553555,2684766.5728966,-760.65475761878,2775473.9459241,38.255535553555,0,0
60.983764740171,-27.923591116437,33.0599659966,2684766.5728966,-760.65475761878,2775473.9459241,38.2599659966,0,0
60.983765024497,-27.927265254624,33.064396439644,2684766.5728966,-760.65475761878,2775473.9459241,38.264396439644,0,0
60.983765308824,-27.93093939281,33.068826882688,2684766.5728966,-760.65475761878,2775473.9459241,38.268826882688,0,0
60.98376559315,-27.934613530996,33.073257325733,2684766.5728966,-760.65475761878,2775473.9459241,38.273257325733,0,0
60.983765877477,-27.938287669183,33.077687768777,2684766.5728966,-760.65475761878,2775473.9459241,38.277687768777,0,0
60.983766161803,-27.941961807369,33.082118211821,2684766.5728966,-760.65475761878,2775473.9459241,38.282118211821,0,0
60.98376644613,-27.945635945555,33.086548654865,2684766.5728966,-760.65475761878,2775473.9459241,38.286548654865,0,0
60.983766730456,-27.949310083741,33.09097909791,2684766.5728966,-760.65475761878,2775473.9459241,38.29097909791,0,0
60.983767014783,-27.952984221928,33.095409540954,2684766.5728966,-760.65475761878,2775473.9459241,38.295409540954,0,0
60.983767299109,-27.956658360114,33.099839983998,2684766.5728966,-760.65475761878,2775473.9459241,38.299839983998,0,0
60.983767583436,-27.9603324983,33.104270427043,2684766.5728966,-760.65475761878,2775473.9459241,38.304270427043,0,0
60.983767867762,-27.964006636486,33.108700870087,2684766.5728966,-760.65475761878,2775473.9459241,38.308700870087,0,0
60.983768152089,-27.967680774673,33.113131313131,2684766.5728966,-760.65475761878,2775473.9459241,38.313131313131,0,0
60.983768436415,-27.971354912859,33.117561756176,2684766.5728966,-760.65475761878,2775473.9459241,38.317561756176,0,0
60.983768720742,-27.975029051045,33.12199219922,2684766.5728966,-760.65475761878,2775473.9459241,38.32199219922,0,0
60.983769005068,-27.978703189232,33.126422642264,2684766.5728966,-760.65475761878,2775473.9459241,38.326422642264,0,0
60.983769289395,-27.982377327418,33.130853085309,2684766.5728966,-760.65475761878,2775473.9459241,38.330853085309,0,0
60.983769573721,-27.986051465604,33.135283528353,2684766.5728966,-760.65475761878,2775473.9459241,38.335283528353,0,0
60.983769858048,-27.98972560379,33.139713971397,2684766.5728966,-760.65475761878,2775473.9459241,38.339713971397,0,0
60.983770142374,-27.993399741977,33.144144414441,2684766.5728966,-760.65475761878,2775473.9459241,38.344144414441,0,0
60.983770426701,-27.997073880163,33.148574857486,2684766.5728966,-760.65475761878,2775473.9459241,38.348574857486,0,0
60.983770711027,-28.000748018349,33.15300530053,2684766.5728966,-760.65475761878,2775473.9459241,38.35300530053,0,0
60.983770995354,-28.004422156535,33.157435743574,2684766.5728966,-760.65475761878,2775473.9459241,38.357435743574,0,0
60.98377127968,-28.008096294722,33.161866186619,2684766.5728966,-760.65475761878,2775473.9459241,38.361866186619,0,0
60.983771564007,-28.011770432908,33.166296629663,2684766.5728966,-760.65475761878,2775473.9459241,38.366296629663,0,0
60.983771848333,-28.015444571094,33.170727072707,2684766.5728966,-760.65475761878,2775473.9459241,38.370727072707,0,0
60.98377213266,-28.01911870928,33.175157515752,2684766.5728966,-760.65475761878,2775473.9459241,38.375157515752,0,0
60.983772416986,-28.022792847467,33.179587958796,2684766.5728966,-760.65475761878,2775473.9459241,38.379587958796,0,0
60.983772701313,-28.026466985653,33.18401840184,2684766.5728966,-760.65475761878,2775473.9459241,38.38401840184,0,0
60.983772985639,-28.030141123839,33.188448844884,2684766.5728966,-760.65475761878,2775473.9459241,38.388448844884,0,0
60.983773269966,-28.033815262026,33.192879287929,2684766.5728966,-760.65475761878,2775473.9459241,38.392879287929,0,0
60.983773554292,-28.037489400212,33.197309730973,2684766.5728966,-760.65475761878,2775473.9459241,38.397309730973,0,0
60.983773838619,-28.041163538398,33.201740174017,2684766.5728966,-760.65475761878,2775473.9459241,38.401740174017,0,0
60.983774122945,-28.044837676584,33.206170617062,2684766.5728966,-760.65475761878,2775473.9459241,38.406170617062,0,0
60.983774407272,-28.048511814771,33.210601060106,2684766.5728966,-760.65475761878,2775473.9459241,38.410601060106,0,0
60.983774691598,-28.052185952957,33.21503150315,2684766.5728966,-760.65475761878,2775473.9459241,38.41503150315,0,0
60.983774975925,-28.055860091143,33.219461946195,2684766.5728966,-760.65475761878,2775473.9459241,38.419461946195,0,0
60.983775260251,-28.059534229329,33.223892389239,2684766.5728966,-760.65475761878,2775473.9459241,38.423892389239,0,0
60.983775544578,-28.063208367516,33.228322832283,2684766.5728966,-760.65475761878,2775473.9459241,38.428322832283,0,0
60.983775828904,-28.066882505702,33.232753275328,2684766.5728966,-760.65475761878,2775473.9459241,38.432753275328,0,0
60.983776113231,-28.070556643888,33.237183718372,2684766.5728966,-760.65475761878,2775473.9459241,38.437183718372,0,0
60.983776397557,-28.074230782075,33.241614161416,2684766.5728966,-760.65475761878,2775473.9459241,38.441614161416,0,0
60.983776681883,-28.077904920261,33.24604460446,2684766.5728966,-760.65475761878,2775473.9459241,38.44604460446,0,0
60.98377696621,-28.081579058447,33.250475047505,2684766.5728966,-760.65475761878,2775473.9459241,38.450475047505,0,0
60.983777250536,-28.085253196633,33.254905490549,2684766.5728966,-760.65475761878,2775473.9459241,38.454905490549,0,0
60.983777534863,-28.08892733482,33.259335933593,2684766.5728966,-760.65475761878,2775473.9459241,38.459335933593,0,0
60.983777819189,-28.092601473006,33.263766376638,2684766.5728966,-760.65475761878,2775473.9459241,38.463766376638,0,0
60.983778103516,-28.096275611192,33.268196819682,2684766.5728966,-760.65475761878,2775473.9459241,38.468196819682,0,0
60.983778387842,-28.099949749378,33.272627262726,2684766.5728966,-760.65475761878,2775473.9459241,38.472627262726,0,0
60.983778672169,-28.103623887565,33.277057705771,2684766.5728966,-760.65475761878,2775473.9459241,38.477057705771,0,0
60.983778956495,-28.107298025751,33.281488148815,2684766.5728966,-760.65475761878,2775473.9459241,38.481488148815,0,0
60.983779240822,-28.110972163937,33.285918591859,2684766.5728966,-760.65475761878,2775473.9459241,38.485918591859,0,0
60.983779525148,-28.114646302124,33.290349034903,2684766.5728966,-760.65475761878,2775473.9459241,38.490349034903,0,0
60.983779809475,-28.11832044031,33.294779477948,2684766.5728966,-760.65475761878,2775473.9459241,38.494779477948,0,0
60.983780093801,-28.121994578496,33.299209920992,2684766.5728966,-760.65475761878,2775473.9459241,38.499209920992,0,0
60.983780378128,-28.125668716682,33.303640364036,2684766.5728966,-760.65475761878,2775473.9459241,38.503640364036,0,0
60.983780662454,-28.129342854869,33.308070807081,2684766.5728966,-760.65475761878,2775473.9459241,38.508070807081,0,0
60.983780946781,-28.133016993055,33.312501250125,2684766.5728966,-760.65475761878,2775473.9459241,38.512501250125,0,0
60.983781231107,-28.136691131241,33.316931693169,2684766.5728966,-760.65475761878,2775473.9459241,38.516931693169,0,0
60.983781515434,-28.140365269427,33.321362136214,2684766.5728966,-760.65475761878,2775473.9459241,38.521362136214,0,0
60.98378179976,-28.144039407614,33.325792579258,2684766.5728966,-760.65475761878,2775473.9459241,38.525792579258,0,0
60.983782084087,-28.1477135458,33.330223022302,2684766.5728966,-760.65475761878,2775473.9459241,38.530223022302,0,0
60.983782368413,-28.151387683986,33.334653465347,2684766.5728966,-760.65475761878,2775473.9459241,38.534653465347,0,0
60.98378265274,-28.155061822173,33.339083908391,2684766.5728966,-760.65475761878,2775473.9459241,38.539083908391,0,0
60.983782937066,-28.158735960359,33.343514351435,2684766.5728966,-760.65475761878,2775473.9459241,38.543514351435,0,0
60.983783221393,-28.162410098545,33.347944794479,2684766.5728966,-760.65475761878,2775473.9459241,38.547944794479,0,0
60.983783505719,-28.166084236731,33.352375237524,2684766.5728966,-760.65475761878,2775473.9459241,38.552375237524,0,0
60.983783790046,-28.169758374918,33.356805680568,2684766.5728966,-760.65475761878,2775473.9459241,38.556805680568,0,0
60.983784074372,-28.173432513104,33.361236123612,2684766.5728966,-760.65475761878,2775473.9459241,38.561236123612,0,0
60.983784358699,-28.17710665129,33.365666566657,2684766.5728966,-760.65475761878,2775473.9459241,38.565666566657,0,0
60.983784643025,-28.180780789476,33.370097009701,2684766.5728966,-760.65475761878,2775473.9459241,38.570097009701,0,0
60.983784927352,-28.184454927663,33.374527452745,2684766.5728966,-760.65475761878,2775473.9459241,38.574527452745,0,0
60.983785211678,-28.188129065849,33.37895789579,2684766.5728966,-760.65475761878,2775473.9459241,38.57895789579,0,0
60.983785496005,-28.191803204035,33.383388338834,2684766.5728966,-760.65475761878,2775473.9459241,38.583388338834,0,0
60.983785780331,-28.195477342221,33.387818781878,2684766.5728966,-760.65475761878,2775473.9459241,38.587818781878,0,0
60.983786064658,-28.199151480408,33.392249224922,2684766.5728966,-760.65475761878,2775473.9459241,38.592249224922,0,0
60.983786348984,-28.202825618594,33.396679667967,2684766.5728966,-760.65475761878,2775473.9459241,38.596679667967,0,0
60.983786633311,-28.20649975678,33.401110111011,2684766.5728966,-760.65475761878,2775473.9459241,38.601110111011,0,0
60.983786917637,-28.210173894967,33.405540554055,2684766.5728966,-760.65475761878,2775473.9459241,38.605540554055,0,0
60.983787201964,-28.213848033153,33.4099709971,2684766.5728966,-760.65475761878,2775473.9459241,38.6099709971,0,0
60.98378748629,-28.217522171339,33.414401440144,2684766.5728966,-760.65475761878,2775473.9459241,38.614401440144,0,0
60.983787770617,-28.221196309525,33.418831883188,2684766.5728966,-760.65475761878,2775473.9459241,38.618831883188,0,0
60.983788054943,-28.224870447712,33.423262326233,2684766.5728966,-760.65475761878,2775473.9459241,38.623262326233,0,0
60.98378833927,-28.228544585898,33.427692769277,2684766.5728966,-760.65475761878,2775473.9459241,38.627692769277,0,0
60.983788623596,-28.232218724084,33.432123212321,2684766.5728966,-760.65475761878,2775473.9459241,38.632123212321,0,0
60.983788907923,-28.23589286227,33.436553655366,2684766.5728966,-760.65475761878,2775473.9459241,38.636553655366,0,0
60.983789192249,-28.239567000457,33.44098409841,2684766.5728966,-760.65475761878,2775473.9459241,38.64098409841,0,0
60.983789476576,-28.243241138643,33.445414541454,2684766.5728966,-760.65475761878,2775473.9459241,38.645414541454,0,0
60.983789760902,-28.246915276829,33.449844984498,2684766.5728966,-760.65475761878,2775473.9459241,38.649844984498,0,0
60.983790045229,-28.250589415016,33.454275427543,2684766.5728966,-760.65475761878,2775473.9459241,38.654275427543,0,0
60.983790329555,-28.254263553202,33.458705870587,2684766.5728966,-760.65475761878,2775473.9459241,38.658705870587,0,0
60.983790613882,-28.257937691388,33.463136313631,2684766.5728966,-760.65475761878,2775473.9459241,38.663136313631,0,0
60.983790898208,-28.261611829574,33.467566756676,2684766.5728966,-760.65475761878,2775473.9459241,38.667566756676,0,0
60.983791182535,-28.265285967761,33.47199719972,2684766.5728966,-760.65475761878,2775473.9459241,38.67199719972,0,0
60.983791466861,-28.268960105947,33.476427642764,2684766.5728966,-760.65475761878,2775473.9459241,38.676427642764,0,0
60.983791751188,-28.272634244133,33.480858085809,2684766.5728966,-760.65475761878,2775473.9459241,38.680858085809,0,0
60.983792035514,-28.276308382319,33.485288528853,2684766.5728966,-760.65475761878,2775473.9459241,38.685288528853,0,0
60.983792319841,-28.279982520506,33.489718971897,2684766.5728966,-760.65475761878,2775473.9459241,38.689718971897,0,0
60.983792604167,-28.283656658692,33.494149414941,2684766.5728966,-760.65475761878,2775473.9459241,38.694149414941,0,0
60.983792888494,-28.287330796878,33.498579857986,2684766.5728966,-760.65475761878,2775473.9459241,38.698579857986,0,0
60.98379317282,-28.291004935065,33.50301030103,2684766.5728966,-760.65475761878,2775473.9459241,38.70301030103,0,0
60.983793457147,-28.294679073251,33.507440744074,2684766.5728966,-760.65475761878,2775473.9459241,38.707440744074,0,0
60.983793741473,-28.298353211437,33.511871187119,2684766.5728966,-760.65475761878,2775473.9459241,38.711871187119,0,0
60.9837940258,-28.302027349623,33.516301630163,2684766.5728966,-760.65475761878,2775473.9459241,38.716301630163,0,0
60.983794310126,-28.30570148781,33.520732073207,2684766.5728966,-760.65475761878,2775473.9459241,38.720732073207,0,0
60.983794594453,-28.309375625996,33.525162516252,2684766.5728966,-760.65475761878,2775473.9459241,38.725162516252,0,0
60.983794878779,-28.313049764182,33.529592959296,2684766.5728966,-760.65475761878,2775473.9459241,38.729592959296,0,0
60.983795163106,-28.316723902368,33.53402340234,2684766.5728966,-760.65475761878,2775473.9459241,38.73402340234,0,0
60.983795447432,-28.320398040555,33.538453845385,2684766.5728966,-760.65475761878,2775473.9459241,38.738453845385,0,0
60.983795731759,-28.324072178741,33.542884288429,2684766.5728966,-760.65475761878,2775473.9459241,38.742884288429,0,0
60.983796016085,-28.327746316927,33.547314731473,2684766.5728966,-760.65475761878,2775473.9459241,38.747314731473,0,0
60.983796300412,-28.331420455114,33.551745174517,2684766.5728966,-760.65475761878,2775473.9459241,38.751745174517,0,0
60.983796584738,-28.3350945933,33.556175617562,2684766.5728966,-760.65475761878,2775473.9459241,38.756175617562,0,0
60.983796869065,-28.338768731486,33.560606060606,2684766.5728966,-760.65475761878,2775473.9459241,38.760606060606,0,0
60.983797153391,-28.342442869672,33.56503650365,2684766.5728966,-760.65475761878,2775473.9459241,38.76503650365,0,0
60.983797437718,-28.346117007859,33.569466946695,2684766.5728966,-760.65475761878,2775473.9459241,38.769466946695,0,0
60.983797722044,-28.349791146045,33.573897389739,2684766.5728966,-760.65475761878,2775473.9459241,38.773897389739,0,0
60.983798006371,-28.353465284231,33.578327832783,2684766.5728966,-760.65475761878,2775473.9459241,38.778327832783,0,0
60.983798290697,-28.357139422417,33.582758275828,2684766.5728966,-760.65475761878,2775473.9459241,38.782758275828,0,0
60.983798575024,-28.360813560604,33.587188718872,2684766.5728966,-760.65475761878,2775473.9459241,38.787188718872,0,0
60.98379885935,-28.36448769879,33.591619161916,2684766.5728966,-760.65475761878,2775473.9459241,38.791619161916,0,0
60.983799143677,-28.368161836976,33.59604960496,2684766.5728966,-760.65475761878,2775473.9459241,38.79604960496,0,0
60.983799428003,-28.371835975162,33.600480048005,2684766.5728966,-760.65475761878,2775473.9459241,38.800480048005,0,0
60.98379971233,-28.375510113349,33.604910491049,2684766.5728966,-760.65475761878,2775473.9459241,38.804910491049,0,0
60.983799996656,-28.379184251535,33.609340934093,2684766.5728966,-760.65475761878,2775473.9459241,38.809340934093,0,0
60.983800280983,-28.382858389721,33.613771377138,2684766.5728966,-760.65475761878,2775473.9459241,38.813771377138,0,0
60.983800565309,-28.386532527908,33.618201820182,2684766.5728966,-760.65475761878,2775473.9459241,38.818201820182,0,0
60.983800849636,-28.390206666094,33.622632263226,2684766.5728966,-760.65475761878,2775473.9459241,38.822632263226,0,0
60.983801133962,-28.39388080428,33.627062706271,2684766.5728966,-760.65475761878,2775473.9459241,38.827062706271,0,0
60.983801418289,-28.397554942466,33.631493149315,2684766.5728966,-760.65475761878,2775473.9459241,38.831493149315,0,0
60.983801702615,-28.401229080653,33.635923592359,2684766.5728966,-760.65475761878,2775473.9459241,38.835923592359,0,0
60.983801986942,-28.404903218839,33.640354035404,2684766.5728966,-760.65475761878,2775473.9459241,38.840354035404,0,0
60.983802271268,-28.408577357025,33.644784478448,2684766.5728966,-760.65475761878,2775473.9459241,38.844784478448,0,0
60.983802555595,-28.412251495211,33.649214921492,2684766.5728966,-760.65475761878,2775473.9459241,38.849214921492,0,0
60.983802839921,-28.415925633398,33.653645364536,2684766.5728966,-760.65475761878,2775473.9459241,38.853645364536,0,0
60.983803124248,-28.419599771584,33.658075807581,2684766.5728966,-760.65475761878,2775473.9459241,38.858075807581,0,0
60.983803408574,-28.42327390977,33.662506250625,2684766.5728966,-760.65475761878,2775473.9459241,38.862506250625,0,0
60.983803692901,-28.426948047957,33.666936693669,2684766.5728966,-760.65475761878,2775473.9459241,38.866936693669,0,0
60.983803977257,-28.430622186185,33.671367136714,2686803.7721372,-1520.9285657946,2773693.6232871,38.871367136714,0,0
60.983804261794,-28.434296324671,33.675797579758,2686803.7721372,-1520.9285657946,2773693.6232871,38.875797579758,0,0
60.98380454633,-28.437970463157,33.680228022802,2686803.7721372,-1520.9285657946,2773693.6232871,38.880228022802,0,0
60.983804830867,-28.441644601643,33.684658465847,2686803.7721372,-1520.9285657946,2773693.6232871,38.884658465847,0,0
60.983805115404,-28.445318740129,33.689088908891,2686803.7721372,-1520.9285657946,2773693.6232871,38.889088908891,0,0
60.98380539994,-28.448992878615,33.693519351935,2686803.7721372,-1520.9285657946,2773693.6232871,38.893519351935,0,0
60.983805684477,-28.452667017101,33.697949794979,2686803.7721372,-1520.9285657946,2773693.6232871,38.897949794979,0,0
60.983805969014,-28.456341155587,33.702380238024,2686803.7721372,-1520.9285657946,2773693.6232871,38.902380238024,0,0
60.98380625355,-28.460015294073,33.706810681068,2686803.7721372,-1520.9285657946,2773693.6232871,38.906810681068,0,0
60.983806538087,-28.463689432559,33.711241124112,2686803.7721372,-1520.9285657946,2773693.6232871,38.911241124112,0,0
60.983806822623,-28.467363571045,33.715671567157,2686803.7721372,-1520.9285657946,2773693.6232871,38.915671567157,0,0
60.98380710716,-28.471037709531,33.720102010201,2686803.7721372,-1520.9285657946,2773693.6232871,38.920102010201,0,0
60.983807391697,-28.474711848017,33.724532453245,2686803.7721372,-1520.9285657946,2773693.6232871,38.924532453245,0,0
60.983807676233,-28.478385986503,33.72896289629,2686803.7721372,-1520.9285657946,2773693.6232871,38.92896289629,0,0
60.98380796077,-28.482060124989,33.733393339334,2686803.7721372,-1520.9285657946,2773693.6232871,38.933393339334,0,0
60.983808245306,-28.485734263475,33.737823782378,2686803.7721372,-1520.9285657946,2773693.6232871,38.937823782378,0,0
60.983808529843,-28.489408401961,33.742254225423,2686803.7721372,-1520.9285657946,2773693.6232871,38.942254225423,0,0
60.98380881438,-28.493082540446,33.746684668467,2686803.7721372,-1520.9285657946,2773693.6232871,38.946684668467,0,0
60.983809098916,-28.496756678932,33.751115111511,2686803.7721372,-1520.9285657946,2773693.6232871,38.951115111511,0,0
60.983809383453,-28.500430817418,33.755545554555,2686803.7721372,-1520.9285657946,2773693.6232871,38.955545554555,0,0
60.98380966799,-28.504104955904,33.7599759976,2686803.7721372,-1520.9285657946,2773693.6232871,38.9599759976,0,0
60.983809952526,-28.50777909439,33.764406440644,2686803.7721372,-1520.9285657946,2773693.6232871,38.964406440644,0,0
60.983810237063,-28.511453232876,33.768836883688,2686803.7721372,-1520.9285657946,2773693.6232871,38.968836883688,0,0
60.983810521599,-28.515127371362,33.773267326733,2686803.7721372,-1520.9285657946,2773693.6232871,38.973267326733,0,0
60.983810806136,-28.518801509848,33.777697769777,2686803.7721372,-1520.9285657946,2773693.6232871,38.977697769777,0,0
60.983811090673,-28.522475648334,33.782128212821,2686803.7721372,-1520.9285657946,2773693.6232871,38.982128212821,0,0
60.983811375209,-28.52614978682,33.786558655866,2686803.7721372,-1520.9285657946,2773693.6232871,38.986558655866,0,0
60.983811659746,-28.529823925306,33.79098909891,2686803.7721372,-1520.9285657946,2773693.6232871,38.99098909891,0,0
60.983811944283,-28.533498063792,33.795419541954,2686803.7721372,-1520.9285657946,2773693.6232871,38.995419541954,0,0
60.983812228819,-28.537172202278,33.799849984998,2686803.7721372,-1520.9285657946,2773693.6232871,38.999849984998,0,0
60.983812513356,-28.540846340764,33.804280428043,2686803.7721372,-1520.9285657946,2773693.6232871,39.004280428043,0,0
60.983812797892,-28.54452047925,33.808710871087,2686803.7721372,-1520.9285657946,2773693.6232871,39.008710871087,0,0
60.983813082429,-28.548194617736,33.813141314131,2686803.7721372,-1520.9285657946,2773693.6232871,39.013141314131,0,0
60.983813366966,-28.551868756222,33.817571757176,2686803.7721372,-1520.9285657946,2773693.6232871,39.017571757176,0,0
60.983813651502,-28.555542894708,33.82200220022,2686803.7721372,-1520.9285657946,2773693.6232871,39.02200220022,0,0
60.983813936039,-28.559217033194,33.826432643264,2686803.7721372,-1520.9285657946,2773693.6232871,39.026432643264,0,0
60.983814220576,-28.56289117168,33.830863086309,2686803.7721372,-1520.9285657946,2773693.6232871,39.030863086309,0,0
60.983814505112,-28.566565310165,33.835293529353,2686803.7721372,-1520.9285657946,2773693.6232871,39.035293529353,0,0
60.983814789649,-28.570239448651,33.839723972397,2686803.7721372,-1520.9285657946,2773693.6232871,39.039723972397,0,0
60.983815074185,-28.573913587137,33.844154415442,2686803.7721372,-1520.9285657946,2773693.6232871,39.044154415442,0,0
60.983815358722,-28.577587725623,33.848584858486,2686803.7721372,-1520.9285657946,2773693.6232871,39.048584858486,0,0
60.983815643259,-28.581261864109,33.85301530153,2686803.7721372,-1520.9285657946,2773693.6232871,39.05301530153,0,0
60.983815927795,-28.584936002595,33.857445744574,2686803.7721372,-1520.9285657946,2773693.6232871,39.057445744574,0,0
60.983816212332,-28.588610141081,33.861876187619,2686803.7721372,-1520.9285657946,2773693.6232871,39.061876187619,0,0
60.983816496869,-28.592284279567,33.866306630663,2686803.7721372,-1520.9285657946,2773693.6232871,39.066306630663,0,0
60.983816781405,-28.595958418053,33.870737073707,2686803.7721372,-1520.9285657946,2773693.6232871,39.070737073707,0,0
60.983817065942,-28.599632556539,33.875167516752,2686803.7721372,-1520.9285657946,2773693.6232871,39.075167516752,0,0
60.983817350478,-28.603306695025,33.879597959796,2686803.7721372,-1520.9285657946,2773693.6232871,39.079597959796,0,0
60.983817635015,-28.606980833511,33.88402840284,2686803.7721372,-1520.9285657946,2773693.6232871,39.08402840284,0,0
60.983817919552,-28.610654971997,33.888458845885,2686803.7721372,-1520.9285657946,2773693.6232871,39.088458845885,0,0
60.983818204088,-28.614329110483,33.892889288929,2686803.7721372,-1520.9285657946,2773693.6232871,39.092889288929,0,0
60.983818488625,-28.618003248969,33.897319731973,2686803.7721372,-1520.9285657946,2773693.6232871,39.097319731973,0,0
60.983818773162,-28.621677387455,33.901750175017,2686803.7721372,-1520.9285657946,2773693.6232871,39.101750175018,0,0
60.983819057698,-28.625351525941,33.906180618062,2686803.7721372,-1520.9285657946,2773693.6232871,39.106180618062,0,0
60.983819342235,-28.629025664427,33.910611061106,2686803.7721372,-1520.9285657946,2773693.6232871,39.110611061106,0,0
60.983819626771,-28.632699802913,33.91504150415,2686803.7721372,-1520.9285657946,2773693.6232871,39.11504150415,0,0
60.983819911308,-28.636373941399,33.919471947195,2686803.7721372,-1520.9285657946,2773693.6232871,39.119471947195,0,0
60.983820195845,-28.640048079885,33.923902390239,2686803.7721372,-1520.9285657946,2773693.6232871,39.123902390239,0,0
60.983820480381,-28.64372221837,33.928332833283,2686803.7721372,-1520.9285657946,2773693.6232871,39.128332833283,0,0
60.983820764918,-28.647396356856,33.932763276328,2686803.7721372,-1520.9285657946,2773693.6232871,39.132763276328,0,0
60.983821049455,-28.651070495342,33.937193719372,2686803.7721372,-1520.9285657946,2773693.6232871,39.137193719372,0,0
60.983821333991,-28.654744633828,33.941624162416,2686803.7721372,-1520.9285657946,2773693.6232871,39.141624162416,0,0
60.983821618528,-28.658418772314,33.946054605461,2686803.7721372,-1520.9285657946,2773693.6232871,39.146054605461,0,0
60.983821903064,-28.6620929108,33.950485048505,2686803.7721372,-1520.9285657946,2773693.6232871,39.150485048505,0,0
60.983822187601,-28.665767049286,33.954915491549,2686803.7721372,-1520.9285657946,2773693.6232871,39.154915491549,0,0
60.983822472138,-28.669441187772,33.959345934593,2686803.7721372,-1520.9285657946,2773693.6232871,39.159345934593,0,0
60.983822756674,-28.673115326258,33.963776377638,2686803.7721372,-1520.9285657946,2773693.6232871,39.163776377638,0,0
60.983823041211,-28.676789464744,33.968206820682,2686803.7721372,-1520.9285657946,2773693.6232871,39.168206820682,0,0
60.983823325748,-28.68046360323,33.972637263726,2686803.7721372,-1520.9285657946,2773693.6232871,39.172637263726,0,0
60.983823610284,-28.684137741716,33.977067706771,2686803.7721372,-1520.9285657946,2773693.6232871,39.177067706771,0,0
60.983823894821,-28.687811880202,33.981498149815,2686803.7721372,-1520.9285657946,2773693.6232871,39.181498149815,0,0
60.983824179357,-28.691486018688,33.985928592859,2686803.7721372,-1520.9285657946,2773693.6232871,39.185928592859,0,0
60.983824463894,-28.695160157174,33.990359035904,2686803.7721372,-1520.9285657946,2773693.6232871,39.190359035904,0,0
60.983824748431,-28.69883429566,33.994789478948,2686803.7721372,-1520.9285657946,2773693.6232871,39.194789478948,0,0
60.983825032967,-28.702508434146,33.999219921992,2686803.7721372,-1520.9285657946,2773693.6232871,39.199219921992,0,0
60.983825317504,-28.706182572632,34.003650365036,2686803.7721372,-1520.9285657946,2773693.6232871,39.203650365037,0,0
60.98382560204,-28.709856711118,34.008080808081,2686803.7721372,-1520.9285657946,2773693.6232871,39.208080808081,0,0
60.983825886577,-28.713530849604,34.012511251125,2686803.7721372,-1520.9285657946,2773693.6232871,39.212511251125,0,0
60.983826171114,-28.717204988089,34.016941694169,2686803.7721372,-1520.9285657946,2773693.6232871,39.216941694169,0,0
60.98382645565,-28.720879126575,34.021372137214,2686803.7721372,-1520.9285657946,2773693.6232871,39.221372137214,0,0
60.983826740187,-28.724553265061,34.025802580258,2686803.7721372,-1520.9285657946,2773693.6232871,39.225802580258,0,0
60.983827024724,-28.728227403547,34.030233023302,2686803.7721372,-1520.9285657946,2773693.6232871,39.230233023302,0,0
60.98382730926,-28.731901542033,34.034663466347,2686803.7721372,-1520.9285657946,2773693.6232871,39.234663466347,0,0
60.983827593797,-28.735575680519,34.039093909391,2686803.7721372,-1520.9285657946,2773693.6232871,39.239093909391,0,0
60.983827878333,-28.739249819005,34.043524352435,2686803.7721372,-1520.9285657946,2773693.6232871,39.243524352435,0,0
60.98382816287,-28.742923957491,34.04795479548,2686803.7721372,-1520.9285657946,2773693.6232871,39.24795479548,0,0
60.983828447407,-28.746598095977,34.052385238524,2686803.7721372,-1520.9285657946,2773693.6232871,39.252385238524,0,0
60.983828731943,-28.750272234463,34.056815681568,2686803.7721372,-1520.9285657946,2773693.6232871,39.256815681568,0,0
60.98382901648,-28.753946372949,34.061246124612,2686803.7721372,-1520.9285657946,2773693.6232871,39.261246124612,0,0
60.983829301017,-28.757620511435,34.065676567657,2686803.7721372,-1520.9285657946,2773693.6232871,39.265676567657,0,0
60.983829585553,-28.761294649921,34.070107010701,2686803.7721372,-1520.9285657946,2773693.6232871,39.270107010701,0,0
60.98382987009,-28.764968788407,34.074537453745,2686803.7721372,-1520.9285657946,2773693.6232871,39.274537453745,0,0
60.983830154626,-28.768642926893,34.07896789679,2686803.7721372,-1520.9285657946,2773693.6232871,39.27896789679,0,0
60.983830439163,-28.772317065379,34.083398339834,2686803.7721372,-1520.9285657946,2773693.6232871,39.283398339834,0,0
60.9838307237,-28.775991203865,34.087828782878,2686803.7721372,-1520.9285657946,2773693.6232871,39.287828782878,0,0
60.983831008236,-28.779665342351,34.092259225923,2686803.7721372,-1520.9285657946,2773693.6232871,39.292259225923,0,0
60.983831292773,-28.783339480837,34.096689668967,2686803.7721372,-1520.9285657946,2773693.6232871,39.296689668967,0,0
60.98383157731,-28.787013619323,34.101120112011,2686803.7721372,-1520.9285657946,2773693.6232871,39.301120112011,0,0
60.983831861846,-28.790687757808,34.105550555056,2686803.7721372,-1520.9285657946,2773693.6232871,39.305550555056,0,0
60.983832146383,-28.794361896294,34.1099809981,2686803.7721372,-1520.9285657946,2773693.6232871,39.3099809981,0,0
60.983832430919,-28.79803603478,34.114411441144,2686803.7721372,-1520.9285657946,2773693.6232871,39.314411441144,0,0
60.983832715456,-28.801710173266,34.118841884188,2686803.7721372,-1520.9285657946,2773693.6232871,39.318841884188,0,0
60.983832999993,-28.805384311752,34.123272327233,2686803.7721372,-1520.9285657946,2773693.6232871,39.323272327233,0,0
60.983833284529,-28.809058450238,34.127702770277,2686803.7721372,-1520.9285657946,2773693.6232871,39.327702770277,0,0
60.983833569066,-28.812732588724,34.132133213321,2686803.7721372,-1520.9285657946,2773693.6232871,39.332133213321,0,0
60.983833853603,-28.81640672721,34.136563656366,2686803.7721372,-1520.9285657946,2773693.6232871,39.336563656366,0,0
60.983834138139,-28.820080865696,34.14099409941,2686803.7721372,-1520.9285657946,2773693.6232871,39.34099409941,0,0
60.983834422676,-28.823755004182,34.145424542454,2686803.7721372,-1520.9285657946,2773693.6232871,39.345424542454,0,0
60.983834707212,-28.827429142668,34.149854985499,2686803.7721372,-1520.9285657946,2773693.6232871,39.349854985499,0,0
60.983834991749,-28.831103281154,34.154285428543,2686803.7721372,-1520.9285657946,2773693.6232871,39.354285428543,0,0
60.983835276286,-28.83477741964,34.158715871587,2686803.7721372,-1520.9285657946,2773693.6232871,39.358715871587,0,0
60.983835560822,-28.838451558126,34.163146314631,2686803.7721372,-1520.9285657946,2773693.6232871,39.363146314631,0,0
60.983835845359,-28.842125696612,34.167576757676,2686803.7721372,-1520.9285657946,2773693.6232871,39.367576757676,0,0
60.983836129896,-28.845799835098,34.17200720072,2686803.7721372,-1520.9285657946,2773693.6232871,39.37200720072,0,0
60.983836414432,-28.849473973584,34.176437643764,2686803.7721372,-1520.9285657946,2773693.6232871,39.376437643764,0,0
60.983836698969,-28.85314811207,34.180868086809,2686803.7721372,-1520.9285657946,2773693.6232871,39.380868086809,0,0
60.983836983505,-28.856822250556,34.185298529853,2686803.7721372,-1520.9285657946,2773693.6232871,39.385298529853,0,0
60.983837268042,-28.860496389042,34.189728972897,2686803.7721372,-1520.9285657946,2773693.6232871,39.389728972897,0,0
60.983837552579,-28.864170527528,34.194159415942,2686803.7721372,-1520.9285657946,2773693.6232871,39.394159415942,0,0
60.983837837115,-28.867844666013,34.198589858986,2686803.7721372,-1520.9285657946,2773693.6232871,39.398589858986,0,0
60.983838121652,-28.871518804499,34.20302030203,2686803.7721372,-1520.9285657946,2773693.6232871,39.40302030203,0,0
60.983838406189,-28.875192942985,34.207450745075,2686803.7721372,-1520.9285657946,2773693.6232871,39.407450745075,0,0
60.983838690725,-28.878867081471,34.211881188119,2686803.7721372,-1520.9285657946,2773693.6232871,39.411881188119,0,0
60.983838975262,-28.882541219957,34.216311631163,2686803.7721372,-1520.9285657946,2773693.6232871,39.416311631163,0,0
60.983839259798,-28.886215358443,34.220742074207,2686803.7721372,-1520.9285657946,2773693.6232871,39.420742074207,0,0
60.983839544335,-28.889889496929,34.225172517252,2686803.7721372,-1520.9285657946,2773693.6232871,39.425172517252,0,0
60.983839828872,-28.893563635415,34.229602960296,2686803.7721372,-1520.9285657946,2773693.6232871,39.429602960296,0,0
60.983840113408,-28.897237773901,34.23403340334,2686803.7721372,-1520.9285657946,2773693.6232871,39.43403340334,0,0
60.983840397945,-28.900911912387,34.238463846385,2686803.7721372,-1520.9285657946,2773693.6232871,39.438463846385,0,0
60.983840682482,-28.904586050873,34.242894289429,2686803.7721372,-1520.9285657946,2773693.6232871,39.442894289429,0,0
60.983840967018,-28.908260189359,34.247324732473,2686803.7721372,-1520.9285657946,2773693.6232871,39.447324732473,0,0
60.983841251555,-28.911934327845,34.251755175518,2686803.7721372,-1520.9285657946,2773693.6232871,39.451755175518,0,0
60.983841536174,-28.915608466254,34.256185618562,2690383.7100918,-905.56886286775,2773167.3950855,39.456185618562,0,0
60.983841821011,-28.919282604461,34.260616061606,2690383.7100918,-905.56886286775,2773167.3950855,39.460616061606,0,0
60.983842105847,-28.922956742668,34.26504650465,2690383.7100918,-905.56886286775,2773167.3950855,39.46504650465,0,0
60.983842390684,-28.926630880875,34.269476947695,2690383.7100918,-905.56886286775,2773167.3950855,39.469476947695,0,0
60.983842675521,-28.930305019082,34.273907390739,2690383.7100918,-905.56886286775,2773167.3950855,39.473907390739,0,0
60.983842960357,-28.933979157289,34.278337833783,2690383.7100918,-905.56886286775,2773167.3950855,39.478337833783,0,0
60.983843245194,-28.937653295497,34.282768276828,2690383.7100918,-905.56886286775,2773167.3950855,39.482768276828,0,0
60.98384353003,-28.941327433704,34.287198719872,2690383.7100918,-905.56886286775,2773167.3950855,39.487198719872,0,0
60.983843814867,-28.945001571911,34.291629162916,2690383.7100918,-905.56886286775,2773167.3950855,39.491629162916,0,0
60.983844099703,-28.948675710118,34.296059605961,2690383.7100918,-905.56886286775,2773167.3950855,39.496059605961,0,0
60.98384438454,-28.952349848325,34.300490049005,2690383.7100918,-905.56886286775,2773167.3950855,39.500490049005,0,0
60.983844669377,-28.956023986532,34.304920492049,2690383.7100918,-905.56886286775,2773167.3950855,39.504920492049,0,0
60.983844954213,-28.959698124739,34.309350935094,2690383.7100918,-905.56886286775,2773167.3950855,39.509350935094,0,0
60.98384523905,-28.963372262946,34.313781378138,2690383.7100918,-905.56886286775,2773167.3950855,39.513781378138,0,0
60.983845523886,-28.967046401153,34.318211821182,2690383.7100918,-905.56886286775,2773167.3950855,39.518211821182,0,0
60.983845808723,-28.970720539361,34.322642264226,2690383.7100918,-905.56886286775,2773167.3950855,39.522642264226,0,0
60.98384609356,-28.974394677568,34.327072707271,2690383.7100918,-905.56886286775,2773167.3950855,39.527072707271,0,0
60.983846378396,-28.978068815775,34.331503150315,2690383.7100918,-905.56886286775,2773167.3950855,39.531503150315,0,0
60.983846663233,-28.981742953982,34.335933593359,2690383.7100918,-905.56886286775,2773167.3950855,39.535933593359,0,0
60.983846948069,-28.985417092189,34.340364036404,2690383.7100918,-905.56886286775,2773167.3950855,39.540364036404,0,0
60.983847232906,-28.989091230396,34.344794479448,2690383.7100918,-905.56886286775,2773167.3950855,39.544794479448,0,0
60.983847517743,-28.992765368603,34.349224922492,2690383.7100918,-905.56886286775,2773167.3950855,39.549224922492,0,0
60.983847802579,-28.99643950681,34.353655365537,2690383.7100918,-905.56886286775,2773167.3950855,39.553655365537,0,0
60.983848087416,-29.000113645018,34.358085808581,2690383.7100918,-905.56886286775,2773167.3950855,39.558085808581,0,0
60.983848372252,-29.003787783225,34.362516251625,2690383.7100918,-905.56886286775,2773167.3950855,39.562516251625,0,0
60.983848657089,-29.007461921432,34.366946694669,2690383.7100918,-905.56886286775,2773167.3950855,39.566946694669,0,0
60.983848941925,-29.011136059639,34.371377137714,2690383.7100918,-905.56886286775,2773167.3950855,39.571377137714,0,0
60.983849226762,-29.014810197846,34.375807580758,2690383.7100918,-905.56886286775,2773167.3950855,39.575807580758,0,0
60.983849511599,-29.018484336053,34.380238023802,2690383.7100918,-905.56886286775,2773167.3950855,39.580238023802,0,0
60.983849796435,-29.02215847426,34.384668466847,2690383.7100918,-905.56886286775,2773167.3950855,39.584668466847,0,0
60.983850081272,-29.025832612467,34.389098909891,2690383.7100918,-905.56886286775,2773167.3950855,39.589098909891,0,0
60.983850366108,-29.029506750675,34.393529352935,2690383.7100918,-905.56886286775,2773167.3950855,39.593529352935,0,0
60.983850650945,-29.033180888882,34.39795979598,2690383.7100918,-905.56886286775,2773167.3950855,39.59795979598,0,0
60.983850935782,-29.036855027089,34.402390239024,2690383.7100918,-905.56886286775,2773167.3950855,39.602390239024,0,0
60.983851220618,-29.040529165296,34.406820682068,2690383.7100918,-905.56886286775,2773167.3950855,39.606820682068,0,0
60.983851505455,-29.044203303503,34.411251125113,2690383.7100918,-905.56886286775,2773167.3950855,39.611251125113,0,0
60.983851790291,-29.04787744171,34.415681568157,2690383.7100918,-905.56886286775,2773167.3950855,39.615681568157,0,0
60.983852075128,-29.051551579917,34.420112011201,2690383.7100918,-905.56886286775,2773167.3950855,39.620112011201,0,0
60.983852359964,-29.055225718124,34.424542454245,2690383.7100918,-905.56886286775,2773167.3950855,39.624542454245,0,0
60.983852644801,-29.058899856331,34.42897289729,2690383.7100918,-905.56886286775,2773167.3950855,39.62897289729,0,0
60.983852929638,-29.062573994539,34.433403340334,2690383.7100918,-905.56886286775,2773167.3950855,39.633403340334,0,0
60.983853214474,-29.066248132746,34.437833783378,2690383.7100918,-905.56886286775,2773167.3950855,39.637833783378,0,0
60.983853499311,-29.069922270953,34.442264226423,2690383.7100918,-905.56886286775,2773167.3950855,39.642264226423,0,0
60.983853784147,-29.07359640916,34.446694669467,2690383.7100918,-905.56886286775,2773167.3950855,39.646694669467,0,0
60.983854068984,-29.077270547367,34.451125112511,2690383.7100918,-905.56886286775,2773167.3950855,39.651125112511,0,0
60.983854353821,-29.080944685574,34.455555555556,2690383.7100918,-905.56886286775,2773167.3950855,39.655555555556,0,0
60.983854638657,-29.084618823781,34.4599859986,2690383.7100918,-905.56886286775,2773167.3950855,39.6599859986,0,0
60.983854923494,-29.088292961988,34.464416441644,2690383.7100918,-905.56886286775,2773167.3950855,39.664416441644,0,0
60.98385520833,-29.091967100196,34.468846884688,2690383.7100918,-905.56886286775,2773167.3950855,39.668846884688,0,0
60.983855493167,-29.095641238403,34.473277327733,2690383.7100918,-905.56886286775,2773167.3950855,39.673277327733,0,0
60.983855778003,-29.09931537661,34.477707770777,2690383.7100918,-905.56886286775,2773167.3950855,39.677707770777,0,0
60.98385606284,-29.102989514817,34.482138213821,2690383.7100918,-905.56886286775,2773167.3950855,39.682138213821,0,0
60.983856347677,-29.106663653024,34.486568656866,2690383.7100918,-905.56886286775,2773167.3950855,39.686568656866,0,0
60.983856632513,-29.110337791231,34.49099909991,2690383.7100918,-905.56886286775,2773167.3950855,39.69099909991,0,0
60.98385691735,-29.114011929438,34.495429542954,2690383.7100918,-905.56886286775,2773167.3950855,39.695429542954,0,0
60.983857202186,-29.117686067645,34.499859985999,2690383.7100918,-905.56886286775,2773167.3950855,39.699859985999,0,0
60.983857487023,-29.121360205853,34.504290429043,2690383.7100918,-905.56886286775,2773167.3950855,39.704290429043,0,0
60.98385777186,-29.12503434406,34.508720872087,2690383.7100918,-905.56886286775,2773167.3950855,39.708720872087,0,0
60.983858056696,-29.128708482267,34.513151315132,2690383.7100918,-905.56886286775,2773167.3950855,39.713151315132,0,0
60.983858341533,-29.132382620474,34.517581758176,2690383.7100918,-905.56886286775,2773167.3950855,39.717581758176,0,0
60.983858626369,-29.136056758681,34.52201220122,2690383.7100918,-905.56886286775,2773167.3950855,39.72201220122,0,0
60.983858911206,-29.139730896888,34.526442644264,2690383.7100918,-905.56886286775,2773167.3950855,39.726442644264,0,0
60.983859196042,-29.143405035095,34.530873087309,2690383.7100918,-905.56886286775,2773167.3950855,39.730873087309,0,0
60.983859480879,-29.147079173302,34.535303530353,2690383.7100918,-905.56886286775,2773167.3950855,39.735303530353,0,0
60.983859765716,-29.150753311509,34.539733973397,2690383.7100918,-905.56886286775,2773167.3950855,39.739733973397,0,0
60.983860050552,-29.154427449717,34.544164416442,2690383.7100918,-905.56886286775,2773167.3950855,39.744164416442,0,0
60.983860335389,-29.158101587924,34.548594859486,2690383.7100918,-905.56886286775,2773167.3950855,39.748594859486,0,0
60.983860620225,-29.161775726131,34.55302530253,2690383.7100918,-905.56886286775,2773167.3950855,39.75302530253,0,0
60.983860905062,-29.165449864338,34.557455745575,2690383.7100918,-905.56886286775,2773167.3950855,39.757455745575,0,0
60.983861189899,-29.169124002545,34.561886188619,2690383.7100918,-905.56886286775,2773167.3950855,39.761886188619,0,0
60.983861474735,-29.172798140752,34.566316631663,2690383.7100918,-905.56886286775,2773167.3950855,39.766316631663,0,0
60.983861759572,-29.176472278959,34.570747074707,2690383.7100918,-905.56886286775,2773167.3950855,39.770747074707,0,0
60.983862044408,-29.180146417166,34.575177517752,2690383.7100918,-905.56886286775,2773167.3950855,39.775177517752,0,0
60.983862329245,-29.183820555374,34.579607960796,2690383.7100918,-905.56886286775,2773167.3950855,39.779607960796,0,0
60.983862614081,-29.187494693581,34.58403840384,2690383.7100918,-905.56886286775,2773167.3950855,39.78403840384,0,0
60.983862898918,-29.191168831788,34.588468846885,2690383.7100918,-905.56886286775,2773167.3950855,39.788468846885,0,0
60.983863183755,-29.194842969995,34.592899289929,2690383.7100918,-905.56886286775,2773167.3950855,39.792899289929,0,0
60.983863468591,-29.198517108202,34.597329732973,2690383.7100918,-905.56886286775,2773167.3950855,39.797329732973,0,0
60.983863753428,-29.202191246409,34.601760176018,2690383.7100918,-905.56886286775,2773167.3950855,39.801760176018,0,0
60.983864038264,-29.205865384616,34.606190619062,2690383.7100918,-905.56886286775,2773167.3950855,39.806190619062,0,0
60.983864323101,-29.209539522823,34.610621062106,2690383.7100918,-905.56886286775,2773167.3950855,39.810621062106,0,0
60.983864607938,-29.213213661031,34.615051505151,2690383.7100918,-905.56886286775,2773167.3950855,39.815051505151,0,0
60.983864892774,-29.216887799238,34.619481948195,2690383.7100918,-905.56886286775,2773167.3950855,39.819481948195,0,0
60.983865177611,-29.220561937445,34.623912391239,2690383.7100918,-905.56886286775,2773167.3950855,39.823912391239,0,0
60.983865462447,-29.224236075652,34.628342834283,2690383.7100918,-905.56886286775,2773167.3950855,39.828342834283,0,0
60.983865747284,-29.227910213859,34.632773277328,2690383.7100918,-905.56886286775,2773167.3950855,39.832773277328,0,0
60.98386603212,-29.231584352066,34.637203720372,2690383.7100918,-905.56886286775,2773167.3950855,39.837203720372,0,0
60.983866316957,-29.235258490273,34.641634163416,2690383.7100918,-905.56886286775,2773167.3950855,39.841634163416,0,0
60.983866601794,-29.23893262848,34.646064606461,2690383.7100918,-905.56886286775,2773167.3950855,39.846064606461,0,0
60.98386688663,-29.242606766687,34.650495049505,2690383.7100918,-905.56886286775,2773167.3950855,39.850495049505,0,0
60.983867171467,-29.246280904895,34.654925492549,2690383.7100918,-905.56886286775,2773167.3950855,39.854925492549,0,0
60.983867456303,-29.249955043102,34.659355935594,2690383.7100918,-905.56886286775,2773167.3950855,39.859355935594,0,0
60.98386774114,-29.253629181309,34.663786378638,2690383.7100918,-905.56886286775,2773167.3950855,39.863786378638,0,0
60.983868025977,-29.257303319516,34.668216821682,2690383.7100918,-905.56886286775,2773167.3950855,39.868216821682,0,0
60.983868310813,-29.260977457723,34.672647264726,2690383.7100918,-905.56886286775,2773167.3950855,39.872647264726,0,0
60.98386859565,-29.26465159593,34.677077707771,2690383.7100918,-905.56886286775,2773167.3950855,39.877077707771,0,0
60.983868880486,-29.268325734137,34.681508150815,2690383.7100918,-905.56886286775,2773167.3950855,39.881508150815,0,0
60.983869165323,-29.271999872344,34.685938593859,2690383.7100918,-905.56886286775,2773167.3950855,39.885938593859,0,0
60.983869450159,-29.275674010552,34.690369036904,2690383.7100918,-905.56886286775,2773167.3950855,39.890369036904,0,0
60.983869734996,-29.279348148759,34.694799479948,2690383.7100918,-905.56886286775,2773167.3950855,39.894799479948,0,0
60.983870019833,-29.283022286966,34.699229922992,2690383.7100918,-905.56886286775,2773167.3950855,39.899229922992,0,0
60.983870304669,-29.286696425173,34.703660366037,2690383.7100918,-905.56886286775,2773167.3950855,39.903660366037,0,0
60.983870589506,-29.29037056338,34.708090809081,2690383.7100918,-905.56886286775,2773167.3950855,39.908090809081,0,0
60.983870874342,-29.294044701587,34.712521252125,2690383.7100918,-905.56886286775,2773167.3950855,39.912521252125,0,0
60.983871159179,-29.297718839794,34.71695169517,2690383.7100918,-905.56886286775,2773167.3950855,39.91695169517,0,0
60.983871444016,-29.301392978001,34.721382138214,2690383.7100918,-905.56886286775,2773167.3950855,39.921382138214,0,0
60.983871728852,-29.305067116209,34.725812581258,2690383.7100918,-905.56886286775,2773167.3950855,39.925812581258,0,0
60.983872013689,-29.308741254416,34.730243024302,2690383.7100918,-905.56886286775,2773167.3950855,39.930243024302,0,0
60.983872298525,-29.312415392623,34.734673467347,2690383.7100918,-905.56886286775,2773167.3950855,39.934673467347,0,0
60.983872583362,-29.31608953083,34.739103910391,2690383.7100918,-905.56886286775,2773167.3950855,39.939103910391,0,0
60.983872868199,-29.319763669037,34.743534353435,2690383.7100918,-905.56886286775,2773167.3950855,39.943534353435,0,0
60.983873153035,-29.323437807244,34.74796479648,2690383.7100918,-905.56886286775,2773167.3950855,39.94796479648,0,0
60.983873437872,-29.327111945451,34.752395239524,2690383.7100918,-905.56886286775,2773167.3950855,39.952395239524,0,0
60.983873722708,-29.330786083658,34.756825682568,2690383.7100918,-905.56886286775,2773167.3950855,39.956825682568,0,0
60.983874007545,-29.334460221865,34.761256125613,2690383.7100918,-905.56886286775,2773167.3950855,39.961256125613,0,0
60.983874292381,-29.338134360073,34.765686568657,2690383.7100918,-905.56886286775,2773167.3950855,39.965686568657,0,0
60.983874577218,-29.34180849828,34.770117011701,2690383.7100918,-905.56886286775,2773167.3950855,39.970117011701,0,0
60.983874862055,-29.345482636487,34.774547454745,2690383.7100918,-905.56886286775,2773167.3950855,39.974547454745,0,0
60.983875146891,-29.349156774694,34.77897789779,2690383.7100918,-905.56886286775,2773167.3950855,39.97897789779,0,0
60.983875431728,-29.352830912901,34.783408340834,2690383.7100918,-905.56886286775,2773167.3950855,39.983408340834,0,0
60.983875716564,-29.356505051108,34.787838783878,2690383.7100918,-905.56886286775,2773167.3950855,39.987838783878,0,0
60.983876001401,-29.360179189315,34.792269226923,2690383.7100918,-905.56886286775,2773167.3950855,39.992269226923,0,0
60.983876286238,-29.363853327522,34.796699669967,2690383.7100918,-905.56886286775,2773167.3950855,39.996699669967,0,0
60.983876571074,-29.36752746573,34.801130113011,2690383.7100918,-905.56886286775,2773167.3950855,40.001130113011,0,0
60.983876855911,-29.371201603937,34.805560556056,2690383.7100918,-905.56886286775,2773167.3950855,40.005560556056,0,0
60.983877140747,-29.374875742144,34.8099909991,2690383.7100918,-905.56886286775,2773167.3950855,40.0099909991,0,0
60.983877425584,-29.378549880351,34.814421442144,2690383.7100918,-905.56886286775,2773167.3950855,40.014421442144,0,0
60.98387771042,-29.382224018558,34.818851885189,2690383.7100918,-905.56886286775,2773167.3950855,40.018851885189,0,0
60.983877995257,-29.385898156765,34.823282328233,2690383.7100918,-905.56886286775,2773167.3950855,40.023282328233,0,0
60.983878280094,-29.389572294972,34.827712771277,2690383.7100918,-905.56886286775,2773167.3950855,40.027712771277,0,0
60.98387856493,-29.393246433179,34.832143214321,2690383.7100918,-905.56886286775,2773167.3950855,40.032143214321,0,0
60.983878849767,-29.396920571387,34.836573657366,2690383.7100918,-905.56886286775,2773167.3950855,40.036573657366,0,0
60.983879134603,-29.400594709594,34.84100410041,2690383.7100918,-905.56886286775,2773167.3950855,40.04100410041,0,0
60.98387941944,-29.404268847801,34.845434543454,2690383.7100918,-905.56886286775,2773167.3950855,40.045434543454,0,0
60.983879704277,-29.407942986008,34.849864986499,2690383.7100918,-905.56886286775,2773167.3950855,40.049864986499,0,0
60.983879989113,-29.411617124215,34.854295429543,2690383.7100918,-905.56886286775,2773167.3950855,40.054295429543,0,0
60.98388027395,-29.415291262422,34.858725872587,2690383.7100918,-905.56886286775,2773167.3950855,40.058725872587,0,0
60.983880558786,-29.418965400629,34.863156315632,2690383.7100918,-905.56886286775,2773167.3950855,40.063156315632,0,0
60.983880843623,-29.422639538836,34.867586758676,2690383.7100918,-905.56886286775,2773167.3950855,40.067586758676,0,0
60.983881128459,-29.426313677043,34.87201720172,2690383.7100918,-905.56886286775,2773167.3950855,40.07201720172,0,0
60.983881413296,-29.429987815251,34.876447644764,2690383.7100918,-905.56886286775,2773167.3950855,40.076447644764,0,0
60.983881698133,-29.433661953458,34.880878087809,2690383.7100918,-905.56886286775,2773167.3950855,40.080878087809,0,0
60.983881982969,-29.437336091665,34.885308530853,2690383.7100918,-905.56886286775,2773167.3950855,40.085308530853,0,0
60.983882267806,-29.441010229872,34.889738973897,2690383.7100918,-905.56886286775,2773167.3950855,40.089738973897,0,0
60.983882552642,-29.444684368079,34.894169416942,2690383.7100918,-905.56886286775,2773167.3950855,40.094169416942,0,0
60.983882837479,-29.448358506286,34.898599859986,2690383.7100918,-905.56886286775,2773167.3950855,40.098599859986,0,0
60.983883122316,-29.452032644493,34.90303030303,2690383.7100918,-905.56886286775,2773167.3950855,40.10303030303,0,0
60.983883407152,-29.4557067827,34.907460746075,2690383.7100918,-905.56886286775,2773167.3950855,40.107460746075,0,0
60.983883691989,-29.459380920908,34.911891189119,2690383.7100918,-905.56886286775,2773167.3950855,40.111891189119,0,0
60.983883976825,-29.463055059115,34.916321632163,2690383.7100918,-905.56886286775,2773167.3950855,40.116321632163,0,0
60.983884261662,-29.466729197322,34.920752075208,2690383.7100918,-905.56886286775,2773167.3950855,40.120752075208,0,0
60.983884546498,-29.470403335529,34.925182518252,2690383.7100918,-905.56886286775,2773167.3950855,40.125182518252,0,0
60.983884831335,-29.474077473736,34.929612961296,2690383.7100918,-905.56886286775,2773167.3950855,40.129612961296,0,0
60.983885116172,-29.477751611943,34.93404340434,2690383.7100918,-905.56886286775,2773167.3950855,40.13404340434,0,0
60.983885401008,-29.48142575015,34.938473847385,2690383.7100918,-905.56886286775,2773167.3950855,40.138473847385,0,0
60.983885685845,-29.485099888357,34.942904290429,2690383.7100918,-905.56886286775,2773167.3950855,40.142904290429,0,0
60.983885970681,-29.488774026564,34.947334733473,2690383.7100918,-905.56886286775,2773167.3950855,40.147334733473,0,0
60.983886255518,-29.492448164772,34.951765176518,2690383.7100918,-905.56886286775,2773167.3950855,40.151765176518,0,0
60.983886540355,-29.496122302979,34.956195619562,2690383.7100918,-905.56886286775,2773167.3950855,40.156195619562,0,0
60.983886825191,-29.499796441186,34.960626062606,2690383.7100918,-905.56886286775,2773167.3950855,40.160626062606,0,0
60.983887110028,-29.503470579393,34.965056505651,2690383.7100918,-905.56886286775,2773167.3950855,40.165056505651,0,0
60.983887394864,-29.5071447176,34.969486948695,2690383.7100918,-905.56886286775,2773167.3950855,40.169486948695,0,0
60.983887679701,-29.510818855807,34.973917391739,2690383.7100918,-905.56886286775,2773167.3950855,40.173917391739,0,0
60.983887964537,-29.514492994014,34.978347834783,2690383.7100918,-905.56886286775,2773167.3950855,40.178347834783,0,0
60.983888249374,-29.518167132221,34.982778277828,2690383.7100918,-905.56886286775,2773167.3950855,40.182778277828,0,0
60.983888534211,-29.521841270429,34.987208720872,2690383.7100918,-905.56886286775,2773167.3950855,40.187208720872,0,0
60.983888819047,-29.525515408636,34.991639163916,2690383.7100918,-905.56886286775,2773167.3950855,40.191639163916,0,0
60.983889103884,-29.529189546843,34.996069606961,2690383.7100918,-905.56886286775,2773167.3950855,40.196069606961,0,0
60.98388938872,-29.53286368505,35.000500050005,2690383.7100918,-905.56886286775,2773167.3950855,40.200500050005,0,0
60.983889673557,-29.536537823257,35.004930493049,2690383.7100918,-905.56886286775,2773167.3950855,40.204930493049,0,0
60.983889958394,-29.540211961464,35.009360936094,2690383.7100918,-905.56886286775,2773167.3950855,40.209360936094,0,0
60.98389024323,-29.543886099671,35.013791379138,2690383.7100918,-905.56886286775,2773167.3950855,40.213791379138,0,0
60.983890528067,-29.547560237878,35.018221822182,2690383.7100918,-905.56886286775,2773167.3950855,40.218221822182,0,0
60.983890812903,-29.551234376086,35.022652265227,2690383.7100918,-905.56886286775,2773167.3950855,40.222652265227,0,0
60.98389109774,-29.554908514293,35.027082708271,2690383.7100918,-905.56886286775,2773167.3950855,40.227082708271,0,0
60.983891382576,-29.5585826525,35.031513151315,2690383.7100918,-905.56886286775,2773167.3950855,40.231513151315,0,0
60.983891667413,-29.562256790707,35.035943594359,2690383.7100918,-905.56886286775,2773167.3950855,40.235943594359,0,0
60.98389195225,-29.565930928914,35.040374037404,2690383.7100918,-905.56886286775,2773167.3950855,40.240374037404,0,0
60.983892237086,-29.569605067121,35.044804480448,2690383.7100918,-905.56886286775,2773167.3950855,40.244804480448,0,0
60.983892521923,-29.573279205328,35.049234923492,2690383.7100918,-905.56886286775,2773167.3950855,40.249234923492,0,0
60.983892806759,-29.576953343535,35.053665366537,2690383.7100918,-905.56886286775,2773167.3950855,40.253665366537,0,0
60.983893091596,-29.580627481743,35.058095809581,2690383.7100918,-905.56886286775,2773167.3950855,40.258095809581,0,0
60.983893376433,-29.58430161995,35.062526252625,2690383.7100918,-905.56886286775,2773167.3950855,40.262526252625,0,0
60.983893661269,-29.587975758157,35.06695669567,2690383.7100918,-905.56886286775,2773167.3950855,40.26695669567,0,0
60.983893946106,-29.591649896364,35.071387138714,2690383.7100918,-905.56886286775,2773167.3950855,40.271387138714,0,0
60.983894230942,-29.595324034571,35.075817581758,2690383.7100918,-905.56886286775,2773167.3950855,40.275817581758,0,0
60.983894515779,-29.598998172778,35.080248024802,2690383.7100918,-905.56886286775,2773167.3950855,40.280248024802,0,0
60.983894800616,-29.602672310985,35.084678467847,2690383.7100918,-905.56886286775,2773167.3950855,40.284678467847,0,0
60.983895085452,-29.606346449192,35.089108910891,2690383.7100918,-905.56886286775,2773167.3950855,40.289108910891,0,0
60.983895370289,-29.610020587399,35.093539353935,2690383.7100918,-905.56886286775,2773167.3950855,40.293539353935,0,0
60.983895655125,-29.613694725607,35.09796979698,2690383.7100918,-905.56886286775,2773167.3950855,40.29796979698,0,0
60.983895939962,-29.617368863814,35.102400240024,2690383.7100918,-905.56886286775,2773167.3950855,40.302400240024,0,0
60.983896224798,-29.621043002021,35.106830683068,2690383.7100918,-905.56886286775,2773167.3950855,40.306830683068,0,0
60.983896509635,-29.624717140228,35.111261126113,2690383.7100918,-905.56886286775,2773167.3950855,40.311261126113,0,0
60.983896794472,-29.628391278435,35.115691569157,2690383.7100918,-905.56886286775,2773167.3950855,40.315691569157,0,0
60.983897079308,-29.632065416642,35.120122012201,2690383.7100918,-905.56886286775,2773167.3950855,40.320122012201,0,0
60.983897364145,-29.635739554849,35.124552455246,2690383.7100918,-905.56886286775,2773167.3950855,40.324552455246,0,0
60.983897648981,-29.639413693056,35.12898289829,2690383.7100918,-905.56886286775,2773167.3950855,40.32898289829,0,0
60.983897933818,-29.643087831264,35.133413341334,2690383.7100918,-905.56886286775,2773167.3950855,40.333413341334,0,0
60.983898218655,-29.646761969471,35.137843784378,2690383.7100918,-905.56886286775,2773167.3950855,40.337843784378,0,0
60.983898503491,-29.650436107678,35.142274227423,2690383.7100918,-905.56886286775,2773167.3950855,40.342274227423,0,0
60.983898788328,-29.654110245885,35.146704670467,2690383.7100918,-905.56886286775,2773167.3950855,40.346704670467,0,0
60.983899073164,-29.657784384092,35.151135113511,2690383.7100918,-905.56886286775,2773167.3950855,40.351135113511,0,0
60.983899358001,-29.661458522299,35.155565556556,2690383.7100918,-905.56886286775,2773167.3950855,40.355565556556,0,0
60.983899642837,-29.665132660506,35.1599959996,2690383.7100918,-905.56886286775,2773167.3950855,40.3599959996,0,0
60.983899927674,-29.668806798713,35.164426442644,2690383.7100918,-905.56886286775,2773167.3950855,40.364426442644,0,0
60.983900212511,-29.67248093692,35.168856885689,2690383.7100918,-905.56886286775,2773167.3950855,40.368856885689,0,0
60.983900497347,-29.676155075128,35.173287328733,2690383.7100918,-905.56886286775,2773167.3950855,40.373287328733,0,0
60.983900782184,-29.679829213335,35.177717771777,2690383.7100918,-905.56886286775,2773167.3950855,40.377717771777,0,0
60.98390106702,-29.683503351542,35.182148214821,2690383.7100918,-905.56886286775,2773167.3950855,40.382148214821,0,0
60.983901351857,-29.687177489749,35.186578657866,2690383.7100918,-905.56886286775,2773167.3950855,40.386578657866,0,0
60.983901636694,-29.690851627956,35.19100910091,2690383.7100918,-905.56886286775,2773167.3950855,40.39100910091,0,0
60.98390192153,-29.694525766163,35.195439543954,2690383.7100918,-905.56886286775,2773167.3950855,40.395439543954,0,0
60.983902206367,-29.69819990437,35.199869986999,2690383.7100918,-905.56886286775,2773167.3950855,40.399869986999,0,0
60.983902491203,-29.701874042577,35.204300430043,2690383.7100918,-905.56886286775,2773167.3950855,40.404300430043,0,0
60.98390277604,-29.705548180785,35.208730873087,2690383.7100918,-905.56886286775,2773167.3950855,40.408730873087,0,0
60.983903060876,-29.709222318992,35.213161316132,2690383.7100918,-905.56886286775,2773167.3950855,40.413161316132,0,0
60.983903345713,-29.712896457199,35.217591759176,2690383.7100918,-905.56886286775,2773167.3950855,40.417591759176,0,0
60.98390363055,-29.716570595406,35.22202220222,2690383.7100918,-905.56886286775,2773167.3950855,40.42202220222,0,0
60.983903915386,-29.720244733613,35.226452645265,2690383.7100918,-905.56886286775,2773167.3950855,40.426452645265,0,0
60.983904200223,-29.72391887182,35.230883088309,2690383.7100918,-905.56886286775,2773167.3950855,40.430883088309,0,0
60.983904485059,-29.727593010027,35.235313531353,2690383.7100918,-905.56886286775,2773167.3950855,40.435313531353,0,0
60.983904769896,-29.731267148234,35.239743974397,2690383.7100918,-905.56886286775,2773167.3950855,40.439743974397,0,0
60.983905054733,-29.734941286442,35.244174417442,2690383.7100918,-905.56886286775,2773167.3950855,40.444174417442,0,0
60.983905339569,-29.738615424649,35.248604860486,2690383.7100918,-905.56886286775,2773167.3950855,40.448604860486,0,0
60.983905624406,-29.742289562856,35.25303530353,2690383.7100918,-905.56886286775,2773167.3950855,40.45303530353,0,0
60.983905909242,-29.745963701063,35.257465746575,2690383.7100918,-905.56886286775,2773167.3950855,40.457465746575,0,0
60.983906194079,-29.74963783927,35.261896189619,2690383.7100918,-905.56886286775,2773167.3950855,40.461896189619,0,0
60.983906478915,-29.753311977477,35.266326632663,2690383.7100918,-905.56886286775,2773167.3950855,40.466326632663,0,0
60.983906763752,-29.756986115684,35.270757075708,2690383.7100918,-905.56886286775,2773167.3950855,40.470757075708,0,0
60.983907048589,-29.760660253891,35.275187518752,2690383.7100918,-905.56886286775,2773167.3950855,40.475187518752,0,0
60.983907333425,-29.764334392098,35.279617961796,2690383.7100918,-905.56886286775,2773167.3950855,40.479617961796,0,0
60.983907618262,-29.768008530306,35.28404840484,2690383.7100918,-905.56886286775,2773167.3950855,40.48404840484,0,0
60.983907903098,-29.771682668513,35.288478847885,2690383.7100918,-905.56886286775,2773167.3950855,40.488478847885,0,0
60.983908187935,-29.77535680672,35.292909290929,2690383.7100918,-905.56886286775,2773167.3950855,40.492909290929,0,0
60.983908472772,-29.779030944927,35.297339733973,2690383.7100918,-905.56886286775,2773167.3950855,40.497339733973,0,0
60.983908757608,-29.782705083134,35.301770177018,2690383.7100918,-905.56886286775,2773167.3950855,40.501770177018,0,0
60.983909042445,-29.786379221341,35.306200620062,2690383.7100918,-905.56886286775,2773167.3950855,40.506200620062,0,0
60.983909327281,-29.790053359548,35.310631063106,2690383.7100918,-905.56886286775,2773167.3950855,40.510631063106,0,0
60.983909612118,-29.793727497755,35.315061506151,2690383.7100918,-905.56886286775,2773167.3950855,40.515061506151,0,0
60.983909896954,-29.797401635963,35.319491949195,2690383.7100918,-905.56886286775,2773167.3950855,40.519491949195,0,0
60.983910181791,-29.80107577417,35.323922392239,2690383.7100918,-905.56886286775,2773167.3950855,40.523922392239,0,0
60.983910466628,-29.804749912377,35.328352835284,2690383.7100918,-905.56886286775,2773167.3950855,40.528352835284,0,0
60.983910751464,-29.808424050584,35.332783278328,2690383.7100918,-905.56886286775,2773167.3950855,40.532783278328,0,0
60.983911036301,-29.812098188791,35.337213721372,2690383.7100918,-905.56886286775,2773167.3950855,40.537213721372,0,0
60.983911321137,-29.815772326998,35.341644164416,2690383.7100918,-905.56886286775,2773167.3950855,40.541644164416,0,0
60.983911605974,-29.819446465205,35.346074607461,2690383.7100918,-905.56886286775,2773167.3950855,40.546074607461,0,0
60.983911890811,-29.823120603412,35.350505050505,2690383.7100918,-905.56886286775,2773167.3950855,40.550505050505,0,0
60.983912175647,-29.82679474162,35.354935493549,2690383.7100918,-905.56886286775,2773167.3950855,40.554935493549,0,0
60.983912460484,-29.830468879827,35.359365936594,2690383.7100918,-905.56886286775,2773167.3950855,40.559365936594,0,0
60.98391274532,-29.834143018034,35.363796379638,2690383.7100918,-905.56886286775,2773167.3950855,40.563796379638,0,0
60.983913030157,-29.837817156241,35.368226822682,2690383.7100918,-905.56886286775,2773167.3950855,40.568226822682,0,0
60.983913314993,-29.841491294448,35.372657265727,2690383.7100918,-905.56886286775,2773167.3950855,40.572657265727,0,0
60.98391359983,-29.845165432655,35.377087708771,2690383.7100918,-905.56886286775,2773167.3950855,40.577087708771,0,0
60.983913884667,-29.848839570862,35.381518151815,2690383.7100918,-905.56886286775,2773167.3950855,40.581518151815,0,0
60.983914169503,-29.852513709069,35.385948594859,2690383.7100918,-905.56886286775,2773167.3950855,40.585948594859,0,0
60.98391445434,-29.856187847276,35.390379037904,2690383.7100918,-905.56886286775,2773167.3950855,40.590379037904,0,0
60.983914739176,-29.859861985484,35.394809480948,2690383.7100918,-905.56886286775,2773167.3950855,40.594809480948,0,0
60.983915024013,-29.863536123691,35.399239923992,2690383.7100918,-905.56886286775,2773167.3950855,40.599239923992,0,0
60.98391530885,-29.867210261898,35.403670367037,2690383.7100918,-905.56886286775,2773167.3950855,40.603670367037,0,0
60.983915593686,-29.870884400105,35.408100810081,2690383.7100918,-905.56886286775,2773167.3950855,40.608100810081,0,0
60.983915878523,-29.874558538312,35.412531253125,2690383.7100918,-905.56886286775,2773167.3950855,40.612531253125,0,0
60.983916163359,-29.878232676519,35.41696169617,2690383.7100918,-905.56886286775,2773167.3950855,40.61696169617,0,0
60.983916448196,-29.881906814726,35.421392139214,2690383.7100918,-905.56886286775,2773167.3950855,40.621392139214,0,0
60.983916733032,-29.885580952933,35.425822582258,2690383.7100918,-905.56886286775,2773167.3950855,40.625822582258,0,0
60.983917017869,-29.889255091141,35.430253025303,2690383.7100918,-905.56886286775,2773167.3950855,40.630253025303,0,0
60.983917302706,-29.892929229348,35.434683468347,2690383.7100918,-905.56886286775,2773167.3950855,40.634683468347,0,0
60.983917587542,-29.896603367555,35.439113911391,2690383.7100918,-905.56886286775,2773167.3950855,40.639113911391,0,0
60.983917872379,-29.900277505762,35.443544354435,2690383.7100918,-905.56886286775,2773167.3950855,40.643544354435,0,0
60.983918157215,-29.903951643969,35.44797479748,2690383.7100918,-905.56886286775,2773167.3950855,40.64797479748,0,0
60.983918442052,-29.907625782176,35.452405240524,2690383.7100918,-905.56886286775,2773167.3950855,40.652405240524,0,0
60.983918726889,-29.911299920383,35.456835683568,2690383.7100918,-905.56886286775,2773167.3950855,40.656835683568,0,0
60.983919011725,-29.91497405859,35.461266126613,2690383.7100918,-905.56886286775,2773167.3950855,40.661266126613,0,0
60.983919296562,-29.918648196798,35.465696569657,2690383.7100918,-905.56886286775,2773167.3950855,40.665696569657,0,0
60.983919581398,-29.922322335005,35.470127012701,2690383.7100918,-905.56886286775,2773167.3950855,40.670127012701,0,0
60.983919866235,-29.925996473212,35.474557455746,2690383.7100918,-905.56886286775,2773167.3950855,40.674557455746,0,0
60.983920151072,-29.929670611419,35.47898789879,2690383.7100918,-905.56886286775,2773167.3950855,40.67898789879,0,0
60.983920435908,-29.933344749626,35.483418341834,2690383.7100918,-905.56886286775,2773167.3950855,40.683418341834,0,0
60.983920720745,-29.937018887833,35.487848784878,2690383.7100918,-905.56886286775,2773167.3950855,40.687848784878,0,0
60.983921005581,-29.94069302604,35.492279227923,2690383.7100918,-905.56886286775,2773167.3950855,40.692279227923,0,0
60.983921290418,-29.944367164247,35.496709670967,2690383.7100918,-905.56886286775,2773167.3950855,40.696709670967,0,0
60.983921575254,-29.948041302454,35.501140114011,2690383.7100918,-905.56886286775,2773167.3950855,40.701140114011,0,0
60.983921860091,-29.951715440662,35.505570557056,2690383.7100918,-905.56886286775,2773167.3950855,40.705570557056,0,0
60.983922144928,-29.955389578869,35.5100010001,2690383.7100918,-905.56886286775,2773167.3950855,40.7100010001,0,0
60.983922429764,-29.959063717076,35.514431443144,2690383.7100918,-905.56886286775,2773167.3950855,40.714431443144,0,0
60.983922714601,-29.962737855283,35.518861886189,2690383.7100918,-905.56886286775,2773167.3950855,40.718861886189,0,0
60.983922999437,-29.96641199349,35.523292329233,2690383.7100918,-905.56886286775,2773167.3950855,40.723292329233,0,0
60.983923284274,-29.970086131697,35.527722772277,2690383.7100918,-905.56886286775,2773167.3950855,40.727722772277,0,0
60.983923569111,-29.973760269904,35.532153215322,2690383.7100918,-905.56886286775,2773167.3950855,40.732153215322,0,0
60.983923853947,-29.977434408111,35.536583658366,2690383.7100918,-905.56886286775,2773167.3950855,40.736583658366,0,0
60.983924138784,-29.981108546319,35.54101410141,2690383.7100918,-905.56886286775,2773167.3950855,40.74101410141,0,0
60.98392442362,-29.984782684526,35.545444544454,2690383.7100918,-905.56886286775,2773167.3950855,40.745444544454,0,0
60.983924708457,-29.988456822733,35.549874987499,2690383.7100918,-905.56886286775,2773167.3950855,40.749874987499,0,0
60.983924993293,-29.99213096094,35.554305430543,2690383.7100918,-905.56886286775,2773167.3950855,40.754305430543,0,0
60.98392527813,-29.995805099147,35.558735873587,2690383.7100918,-905.56886286775,2773167.3950855,40.758735873587,0,0
60.983925562967,-29.999479237354,35.563166316632,2690383.7100918,-905.56886286775,2773167.3950855,40.763166316632,0,0
60.983925847803,-30.003153375561,35.567596759676,2690383.7100918,-905.56886286775,2773167.3950855,40.767596759676,0,0
60.98392613264,-30.006827513768,35.57202720272,2690383.7100918,-905.56886286775,2773167.3950855,40.77202720272,0,0
60.983926417476,-30.010501651976,35.576457645765,2690383.7100918,-905.56886286775,2773167.3950855,40.776457645765,0,0
60.983926702313,-30.014175790183,35.580888088809,2690383.7100918,-905.56886286775,2773167.3950855,40.780888088809,0,0
60.98392698715,-30.01784992839,35.585318531853,2690383.7100918,-905.56886286775,2773167.3950855,40.785318531853,0,0
60.983927271986,-30.021524066597,35.589748974897,2690383.7100918,-905.56886286775,2773167.3950855,40.789748974897,0,0
60.983927556823,-30.025198204804,35.594179417942,2690383.7100918,-905.56886286775,2773167.3950855,40.794179417942,0,0
60.983927841659,-30.028872343011,35.598609860986,2690383.7100918,-905.56886286775,2773167.3950855,40.798609860986,0,0
60.983928126496,-30.032546481218,35.60304030403,2690383.7100918,-905.56886286775,2773167.3950855,40.80304030403,0,0
60.983928411332,-30.036220619425,35.607470747075,2690383.7100918,-905.56886286775,2773167.3950855,40.807470747075,0,0
60.983928696169,-30.039894757632,35.611901190119,2690383.7100918,-905.56886286775,2773167.3950855,40.811901190119,0,0
60.983928981006,-30.04356889584,35.616331633163,2690383.7100918,-905.56886286775,2773167.3950855,40.816331633163,0,0
60.983929265842,-30.047243034047,35.620762076208,2690383.7100918,-905.56886286775,2773167.3950855,40.820762076208,0,0
60.983929550679,-30.050917172254,35.625192519252,2690383.7100918,-905.56886286775,2773167.3950855,40.825192519252,0,0
60.983929835515,-30.054591310461,35.629622962296,2690383.7100918,-905.56886286775,2773167.3950855,40.829622962296,0,0
60.983930120352,-30.058265448668,35.634053405341,2690383.7100918,-905.56886286775,2773167.3950855,40.834053405341,0,0
60.983930405189,-30.061939586875,35.638483848385,2690383.7100918,-905.56886286775,2773167.3950855,40.838483848385,0,0
60.983930690025,-30.065613725082,35.642914291429,2690383.7100918,-905.56886286775,2773167.3950855,40.842914291429,0,0
60.983930974862,-30.069287863289,35.647344734473,2690383.7100918,-905.56886286775,2773167.3950855,40.847344734473,0,0
60.983931259698,-30.072962001497,35.651775177518,2690383.7100918,-905.56886286775,2773167.3950855,40.851775177518,0,0
60.983931544535,-30.076636139704,35.656205620562,2690383.7100918,-905.56886286775,2773167.3950855,40.856205620562,0,0
60.983931829371,-30.080310277911,35.660636063606,2690383.7100918,-905.56886286775,2773167.3950855,40.860636063606,0,0
60.983932114208,-30.083984416118,35.665066506651,2690383.7100918,-905.56886286775,2773167.3950855,40.865066506651,0,0
60.983932399045,-30.087658554325,35.669496949695,2690383.7100918,-905.56886286775,2773167.3950855,40.869496949695,0,0
60.983932683881,-30.091332692532,35.673927392739,2690383.7100918,-905.56886286775,2773167.3950855,40.873927392739,0,0
60.983932968718,-30.095006830739,35.678357835784,2690383.7100918,-905.56886286775,2773167.3950855,40.878357835784,0,0
60.983933253554,-30.098680968946,35.682788278828,2690383.7100918,-905.56886286775,2773167.3950855,40.882788278828,0,0
60.983933538391,-30.102355107154,35.687218721872,2690383.7100918,-905.56886286775,2773167.3950855,40.887218721872,0,0
60.983933823228,-30.106029245361,35.691649164916,2690383.7100918,-905.56886286775,2773167.3950855,40.891649164916,0,0
60.983934108064,-30.109703383568,35.696079607961,2690383.7100918,-905.56886286775,2773167.3950855,40.896079607961,0,0
60.983934392901,-30.113377521775,35.700510051005,2690383.7100918,-905.56886286775,2773167.3950855,40.900510051005,0,0
60.983934677737,-30.117051659982,35.704940494049,2690383.7100918,-905.56886286775,2773167.3950855,40.904940494049,0,0
60.983934962574,-30.120725798189,35.709370937094,2690383.7100918,-905.56886286775,2773167.3950855,40.909370937094,0,0
60.98393524741,-30.124399936396,35.713801380138,2690383.7100918,-905.56886286775,2773167.3950855,40.913801380138,0,0
60.983935532247,-30.128074074603,35.718231823182,2690383.7100918,-905.56886286775,2773167.3950855,40.918231823182,0,0
60.983935817084,-30.13174821281,35.722662266227,2690383.7100918,-905.56886286775,2773167.3950855,40.922662266227,0,0
60.98393610192,-30.135422351018,35.727092709271,2690383.7100918,-905.56886286775,2773167.3950855,40.927092709271,0,0
60.983936386757,-30.139096489225,35.731523152315,2690383.7100918,-905.56886286775,2773167.3950855,40.931523152315,0,0
60.983936671593,-30.142770627432,35.73595359536,2690383.7100918,-905.56886286775,2773167.3950855,40.93595359536,0,0
60.98393695643,-30.146444765639,35.740384038404,2690383.7100918,-905.56886286775,2773167.3950855,40.940384038404,0,0
60.983937241267,-30.150118903846,35.744814481448,2690383.7100918,-905.56886286775,2773167.3950855,40.944814481448,0,0
60.983937526103,-30.153793042053,35.749244924492,2690383.7100918,-905.56886286775,2773167.3950855,40.949244924492,0,0
60.98393781094,-30.15746718026,35.753675367537,2690383.7100918,-905.56886286775,2773167.3950855,40.953675367537,0,0
60.983938095776,-30.161141318467,35.758105810581,2690383.7100918,-905.56886286775,2773167.3950855,40.958105810581,0,0
60.983938380613,-30.164815456675,35.762536253625,2690383.7100918,-905.56886286775,2773167.3950855,40.962536253625,0,0
60.983938665449,-30.168489594882,35.76696669667,2690383.7100918,-905.56886286775,2773167.3950855,40.96696669667,0,0
60.983938950286,-30.172163733089,35.771397139714,2690383.7100918,-905.56886286775,2773167.3950855,40.971397139714,0,0
60.983939235123,-30.175837871296,35.775827582758,2690383.7100918,-905.56886286775,2773167.3950855,40.975827582758,0,0
60.983939519959,-30.179512009503,35.780258025803,2690383.7100918,-905.56886286775,2773167.3950855,40.980258025803,0,0
60.983939804796,-30.18318614771,35.784688468847,2690383.7100918,-905.56886286775,2773167.3950855,40.984688468847,0,0
60.983940089632,-30.186860285917,35.789118911891,2690383.7100918,-905.56886286775,2773167.3950855,40.989118911891,0,0
60.983940374469,-30.190534424124,35.793549354935,2690383.7100918,-905.56886286775,2773167.3950855,40.993549354935,0,0
60.983940659306,-30.194208562332,35.79797979798,2690383.7100918,-905.56886286775,2773167.3950855,40.99797979798,0,0
60.983940944142,-30.197882700539,35.802410241024,2690383.7100918,-905.56886286775,2773167.3950855,41.002410241024,0,0
60.983941228979,-30.201556838746,35.806840684068,2690383.7100918,-905.56886286775,2773167.3950855,41.006840684068,0,0
60.983941513815,-30.205230976953,35.811271127113,2690383.7100918,-905.56886286775,2773167.3950855,41.011271127113,0,0
60.983941798652,-30.20890511516,35.815701570157,2690383.7100918,-905.56886286775,2773167.3950855,41.015701570157,0,0
60.983942083489,-30.212579253367,35.820132013201,2690383.7100918,-905.56886286775,2773167.3950855,41.020132013201,0,0
60.983942368325,-30.216253391574,35.824562456246,2690383.7100918,-905.56886286775,2773167.3950855,41.024562456246,0,0
60.983942653162,-30.219927529781,35.82899289929,2690383.7100918,-905.56886286775,2773167.3950855,41.02899289929,0,0
60.983942937998,-30.223601667988,35.833423342334,2690383.7100918,-905.56886286775,2773167.3950855,41.033423342334,0,0
60.983943222835,-30.227275806196,35.837853785379,2690383.7100918,-905.56886286775,2773167.3950855,41.037853785379,0,0
60.983943507671,-30.230949944403,35.842284228423,2690383.7100918,-905.56886286775,2773167.3950855,41.042284228423,0,0
60.983943792508,-30.23462408261,35.846714671467,2690383.7100918,-905.56886286775,2773167.3950855,41.046714671467,0,0
60.983944077345,-30.238298220817,35.851145114511,2690383.7100918,-905.56886286775,2773167.3950855,41.051145114511,0,0
60.983944362181,-30.241972359024,35.855575557556,2690383.7100918,-905.56886286775,2773167.3950855,41.055575557556,0,0
60.983944647018,-30.245646497231,35.8600060006,2690383.7100918,-905.56886286775,2773167.3950855,41.0600060006,0,0
60.983944931854,-30.249320635438,35.864436443644,2690383.7100918,-905.56886286775,2773167.3950855,41.064436443644,0,0
60.983945216691,-30.252994773645,35.868866886689,2690383.7100918,-905.56886286775,2773167.3950855,41.068866886689,0,0
60.983945501528,-30.256668911853,35.873297329733,2690383.7100918,-905.56886286775,2773167.3950855,41.073297329733,0,0
60.983945786364,-30.26034305006,35.877727772777,2690383.7100918,-905.56886286775,2773167.3950855,41.077727772777,0,0
60.983946071201,-30.264017188267,35.882158215822,2690383.7100918,-905.56886286775,2773167.3950855,41.082158215822,0,0
60.983946356037,-30.267691326474,35.886588658866,2690383.7100918,-905.56886286775,2773167.3950855,41.086588658866,0,0
60.983946640874,-30.271365464681,35.89101910191,2690383.7100918,-905.56886286775,2773167.3950855,41.09101910191,0,0
60.98394692571,-30.275039602888,35.895449544954,2690383.7100918,-905.56886286775,2773167.3950855,41.095449544954,0,0
60.983947210547,-30.278713741095,35.899879987999,2690383.7100918,-905.56886286775,2773167.3950855,41.099879987999,0,0
60.983947495384,-30.282387879302,35.904310431043,2690383.7100918,-905.56886286775,2773167.3950855,41.104310431043,0,0
60.98394778022,-30.28606201751,35.908740874087,2690383.7100918,-905.56886286775,2773167.3950855,41.108740874087,0,0
60.983948065057,-30.289736155717,35.913171317132,2690383.7100918,-905.56886286775,2773167.3950855,41.113171317132,0,0
60.983948349893,-30.293410293924,35.917601760176,2690383.7100918,-905.56886286775,2773167.3950855,41.117601760176,0,0
60.98394863473,-30.297084432131,35.92203220322,2690383.7100918,-905.56886286775,2773167.3950855,41.12203220322,0,0
60.983948919567,-30.300758570338,35.926462646265,2690383.7100918,-905.56886286775,2773167.3950855,41.126462646265,0,0
60.983949204403,-30.304432708545,35.930893089309,2690383.7100918,-905.56886286775,2773167.3950855,41.130893089309,0,0
60.98394948924,-30.308106846752,35.935323532353,2690383.7100918,-905.56886286775,2773167.3950855,41.135323532353,0,0
60.983949774076,-30.311780984959,35.939753975398,2690383.7100918,-905.56886286775,2773167.3950855,41.139753975398,0,0
60.983950058913,-30.315455123166,35.944184418442,2690383.7100918,-905.56886286775,2773167.3950855,41.144184418442,0,0
60.983950343749,-30.319129261374,35.948614861486,2690383.7100918,-905.56886286775,2773167.3950855,41.148614861486,0,0
60.983950628586,-30.322803399581,35.95304530453,2690383.7100918,-905.56886286775,2773167.3950855,41.15304530453,0,0
60.983950913423,-30.326477537788,35.957475747575,2690383.7100918,-905.56886286775,2773167.3950855,41.157475747575,0,0
60.983951198259,-30.330151675995,35.961906190619,2690383.7100918,-905.56886286775,2773167.3950855,41.161906190619,0,0
60.983951483096,-30.333825814202,35.966336633663,2690383.7100918,-905.56886286775,2773167.3950855,41.166336633663,0,0
60.983951767932,-30.337499952409,35.970767076708,2690383.7100918,-905.56886286775,2773167.3950855,41.170767076708,0,0
60.983952052769,-30.341174090616,35.975197519752,2690383.7100918,-905.56886286775,2773167.3950855,41.175197519752,0,0
60.983952337606,-30.344848228823,35.979627962796,2690383.7100918,-905.56886286775,2773167.3950855,41.179627962796,0,0
60.983952622442,-30.348522367031,35.984058405841,2690383.7100918,-905.56886286775,2773167.3950855,41.184058405841,0,0
60.983952907279,-30.352196505238,35.988488848885,2690383.7100918,-905.56886286775,2773167.3950855,41.188488848885,0,0
60.983953192115,-30.355870643445,35.992919291929,2690383.7100918,-905.56886286775,2773167.3950855,41.192919291929,0,0
60.983953476952,-30.359544781652,35.997349734973,2690383.7100918,-905.56886286775,2773167.3950855,41.197349734973,0,0
60.983953761788,-30.363218919859,36.001780178018,2690383.7100918,-905.56886286775,2773167.3950855,41.201780178018,0,0
60.983954046625,-30.366893058066,36.006210621062,2690383.7100918,-905.56886286775,2773167.3950855,41.206210621062,0,0
60.983954331462,-30.370567196273,36.010641064106,2690383.7100918,-905.56886286775,2773167.3950855,41.210641064106,0,0
60.983954616298,-30.37424133448,36.015071507151,2690383.7100918,-905.56886286775,2773167.3950855,41.215071507151,0,0
60.983954901135,-30.377915472688,36.019501950195,2690383.7100918,-905.56886286775,2773167.3950855,41.219501950195,0,0
60.983955185971,-30.381589610895,36.023932393239,2690383.7100918,-905.56886286775,2773167.3950855,41.223932393239,0,0
60.983955470808,-30.385263749102,36.028362836284,2690383.7100918,-905.56886286775,2773167.3950855,41.228362836284,0,0
60.983955755645,-30.388937887309,36.032793279328,2690383.7100918,-905.56886286775,2773167.3950855,41.232793279328,0,0
60.983956040481,-30.392612025516,36.037223722372,2690383.7100918,-905.56886286775,2773167.3950855,41.237223722372,0,0
60.983956325318,-30.396286163723,36.041654165417,2690383.7100918,-905.56886286775,2773167.3950855,41.241654165417,0,0
60.983956610154,-30.39996030193,36.046084608461,2690383.7100918,-905.56886286775,2773167.3950855,41.246084608461,0,0
60.983956894991,-30.403634440137,36.050515051505,2690383.7100918,-905.56886286775,2773167.3950855,41.250515051505,0,0
60.983957179827,-30.407308578344,36.054945494549,2690383.7100918,-905.56886286775,2773167.3950855,41.254945494549,0,0
60.983957464664,-30.410982716552,36.059375937594,2690383.7100918,-905.56886286775,2773167.3950855,41.259375937594,0,0
60.983957749501,-30.414656854759,36.063806380638,2690383.7100918,-905.56886286775,2773167.3950855,41.263806380638,0,0
60.983958034337,-30.418330992966,36.068236823682,2690383.7100918,-905.56886286775,2773167.3950855,41.268236823682,0,0
60.983958319174,-30.422005131173,36.072667266727,2690383.7100918,-905.56886286775,2773167.3950855,41.272667266727,0,0
60.98395860401,-30.42567926938,36.077097709771,2690383.7100918,-905.56886286775,2773167.3950855,41.277097709771,0,0
60.983958888847,-30.429353407587,36.081528152815,2690383.7100918,-905.56886286775,2773167.3950855,41.281528152815,0,0
60.983959173684,-30.433027545794,36.08595859586,2690383.7100918,-905.56886286775,2773167.3950855,41.28595859586,0,0
60.98395945852,-30.436701684001,36.090389038904,2690383.7100918,-905.56886286775,2773167.3950855,41.290389038904,0,0
60.983959743357,-30.440375822209,36.094819481948,2690383.7100918,-905.56886286775,2773167.3950855,41.294819481948,0,0
60.983960028193,-30.444049960416,36.099249924992,2690383.7100918,-905.56886286775,2773167.3950855,41.299249924992,0,0
60.98396031303,-30.447724098623,36.103680368037,2690383.7100918,-905.56886286775,2773167.3950855,41.303680368037,0,0
60.983960597866,-30.45139823683,36.108110811081,2690383.7100918,-905.56886286775,2773167.3950855,41.308110811081,0,0
60.983960882703,-30.455072375037,36.112541254125,2690383.7100918,-905.56886286775,2773167.3950855,41.312541254125,0,0
60.98396116754,-30.458746513244,36.11697169717,2690383.7100918,-905.56886286775,2773167.3950855,41.31697169717,0,0
60.983961452376,-30.462420651451,36.121402140214,2690383.7100918,-905.56886286775,2773167.3950855,41.321402140214,0,0
60.983961737213,-30.466094789658,36.125832583258,2690383.7100918,-905.56886286775,2773167.3950855,41.325832583258,0,0
60.983962022049,-30.469768927866,36.130263026303,2690383.7100918,-905.56886286775,2773167.3950855,41.330263026303,0,0
60.983962306886,-30.473443066073,36.134693469347,2690383.7100918,-905.56886286775,2773167.3950855,41.334693469347,0,0
60.983962591723,-30.47711720428,36.139123912391,2690383.7100918,-905.56886286775,2773167.3950855,41.339123912391,0,0
60.983962876559,-30.480791342487,36.143554355436,2690383.7100918,-905.56886286775,2773167.3950855,41.343554355436,0,0
60.983963161396,-30.484465480694,36.14798479848,2690383.7100918,-905.56886286775,2773167.3950855,41.34798479848,0,0
60.983963446246,-30.488139618928,36.152415241524,2691146.3387095,-1459.7409865246,2771835.7964333,41.352415241524,0,0
60.983963731179,-30.491813757319,36.156845684568,2691146.3387095,-1459.7409865246,2771835.7964333,41.356845684568,0,0
60.983964016112,-30.495487895711,36.161276127613,2691146.3387095,-1459.7409865246,2771835.7964333,41.361276127613,0,0
60.983964301045,-30.499162034102,36.165706570657,2691146.3387095,-1459.7409865246,2771835.7964333,41.365706570657,0,0
60.983964585978,-30.502836172493,36.170137013701,2691146.3387095,-1459.7409865246,2771835.7964333,41.370137013701,0,0
60.983964870911,-30.506510310885,36.174567456746,2691146.3387095,-1459.7409865246,2771835.7964333,41.374567456746,0,0
60.983965155844,-30.510184449276,36.17899789979,2691146.3387095,-1459.7409865246,2771835.7964333,41.37899789979,0,0
60.983965440777,-30.513858587668,36.183428342834,2691146.3387095,-1459.7409865246,2771835.7964333,41.383428342834,0,0
60.98396572571,-30.517532726059,36.187858785879,2691146.3387095,-1459.7409865246,2771835.7964333,41.387858785879,0,0
60.983966010643,-30.52120686445,36.192289228923,2691146.3387095,-1459.7409865246,2771835.7964333,41.392289228923,0,0
60.983966295576,-30.524881002842,36.196719671967,2691146.3387095,-1459.7409865246,2771835.7964333,41.396719671967,0,0
60.983966580509,-30.528555141233,36.201150115011,2691146.3387095,-1459.7409865246,2771835.7964333,41.401150115011,0,0
60.983966865442,-30.532229279625,36.205580558056,2691146.3387095,-1459.7409865246,2771835.7964333,41.405580558056,0,0
60.983967150375,-30.535903418016,36.2100110011,2691146.3387095,-1459.7409865246,2771835.7964333,41.4100110011,0,0
60.983967435308,-30.539577556407,36.214441444144,2691146.3387095,-1459.7409865246,2771835.7964333,41.414441444144,0,0
60.983967720241,-30.543251694799,36.218871887189,2691146.3387095,-1459.7409865246,2771835.7964333,41.418871887189,0,0
60.983968005174,-30.54692583319,36.223302330233,2691146.3387095,-1459.7409865246,2771835.7964333,41.423302330233,0,0
60.983968290106,-30.550599971582,36.227732773277,2691146.3387095,-1459.7409865246,2771835.7964333,41.427732773277,0,0
60.983968575039,-30.554274109973,36.232163216322,2691146.3387095,-1459.7409865246,2771835.7964333,41.432163216322,0,0
60.983968859972,-30.557948248364,36.236593659366,2691146.3387095,-1459.7409865246,2771835.7964333,41.436593659366,0,0
60.983969144905,-30.561622386756,36.24102410241,2691146.3387095,-1459.7409865246,2771835.7964333,41.44102410241,0,0
60.983969429838,-30.565296525147,36.245454545455,2691146.3387095,-1459.7409865246,2771835.7964333,41.445454545455,0,0
60.983969714771,-30.568970663539,36.249884988499,2691146.3387095,-1459.7409865246,2771835.7964333,41.449884988499,0,0
60.983969999704,-30.57264480193,36.254315431543,2691146.3387095,-1459.7409865246,2771835.7964333,41.454315431543,0,0
60.983970284637,-30.576318940321,36.258745874587,2691146.3387095,-1459.7409865246,2771835.7964333,41.458745874587,0,0
60.98397056957,-30.579993078713,36.263176317632,2691146.3387095,-1459.7409865246,2771835.7964333,41.463176317632,0,0
60.983970854503,-30.583667217104,36.267606760676,2691146.3387095,-1459.7409865246,2771835.7964333,41.467606760676,0,0
60.983971139436,-30.587341355496,36.27203720372,2691146.3387095,-1459.7409865246,2771835.7964333,41.47203720372,0,0
60.983971424369,-30.591015493887,36.276467646765,2691146.3387095,-1459.7409865246,2771835.7964333,41.476467646765,0,0
60.983971709302,-30.594689632278,36.280898089809,2691146.3387095,-1459.7409865246,2771835.7964333,41.480898089809,0,0
60.983971994235,-30.59836377067,36.285328532853,2691146.3387095,-1459.7409865246,2771835.7964333,41.485328532853,0,0
60.983972279168,-30.602037909061,36.289758975898,2691146.3387095,-1459.7409865246,2771835.7964333,41.489758975898,0,0
60.983972564101,-30.605712047453,36.294189418942,2691146.3387095,-1459.7409865246,2771835.7964333,41.494189418942,0,0
60.983972849034,-30.609386185844,36.298619861986,2691146.3387095,-1459.7409865246,2771835.7964333,41.498619861986,0,0
60.983973133967,-30.613060324235,36.30305030503,2691146.3387095,-1459.7409865246,2771835.7964333,41.50305030503,0,0
60.9839734189,-30.616734462627,36.307480748075,2691146.3387095,-1459.7409865246,2771835.7964333,41.507480748075,0,0
60.983973703833,-30.620408601018,36.311911191119,2691146.3387095,-1459.7409865246,2771835.7964333,41.511911191119,0,0
60.983973988766,-30.62408273941,36.316341634163,2691146.3387095,-1459.7409865246,2771835.7964333,41.516341634163,0,0
60.983974273699,-30.627756877801,36.320772077208,2691146.3387095,-1459.7409865246,2771835.7964333,41.520772077208,0,0
60.983974558631,-30.631431016192,36.325202520252,2691146.3387095,-1459.7409865246,2771835.7964333,41.525202520252,0,0
60.983974843564,-30.635105154584,36.329632963296,2691146.3387095,-1459.7409865246,2771835.7964333,41.529632963296,0,0
60.983975128497,-30.638779292975,36.334063406341,2691146.3387095,-1459.7409865246,2771835.7964333,41.534063406341,0,0
60.98397541343,-30.642453431367,36.338493849385,2691146.3387095,-1459.7409865246,2771835.7964333,41.538493849385,0,0
60.983975698363,-30.646127569758,36.342924292429,2691146.3387095,-1459.7409865246,2771835.7964333,41.542924292429,0,0
60.983975983296,-30.649801708149,36.347354735474,2691146.3387095,-1459.7409865246,2771835.7964333,41.547354735474,0,0
60.983976268229,-30.653475846541,36.351785178518,2691146.3387095,-1459.7409865246,2771835.7964333,41.551785178518,0,0
60.983976553162,-30.657149984932,36.356215621562,2691146.3387095,-1459.7409865246,2771835.7964333,41.556215621562,0,0
60.983976838095,-30.660824123324,36.360646064606,2691146.3387095,-1459.7409865246,2771835.7964333,41.560646064606,0,0
60.983977123028,-30.664498261715,36.365076507651,2691146.3387095,-1459.7409865246,2771835.7964333,41.565076507651,0,0
60.983977407961,-30.668172400106,36.369506950695,2691146.3387095,-1459.7409865246,2771835.7964333,41.569506950695,0,0
60.983977692894,-30.671846538498,36.373937393739,2691146.3387095,-1459.7409865246,2771835.7964333,41.573937393739,0,0
60.983977977827,-30.675520676889,36.378367836784,2691146.3387095,-1459.7409865246,2771835.7964333,41.578367836784,0,0
60.98397826276,-30.679194815281,36.382798279828,2691146.3387095,-1459.7409865246,2771835.7964333,41.582798279828,0,0
60.983978547693,-30.682868953672,36.387228722872,2691146.3387095,-1459.7409865246,2771835.7964333,41.587228722872,0,0
60.983978832626,-30.686543092063,36.391659165917,2691146.3387095,-1459.7409865246,2771835.7964333,41.591659165917,0,0
60.983979117559,-30.690217230455,36.396089608961,2691146.3387095,-1459.7409865246,2771835.7964333,41.596089608961,0,0
60.983979402492,-30.693891368846,36.400520052005,2691146.3387095,-1459.7409865246,2771835.7964333,41.600520052005,0,0
60.983979687425,-30.697565507238,36.404950495049,2691146.3387095,-1459.7409865246,2771835.7964333,41.60495049505,0,0
60.983979972358,-30.701239645629,36.409380938094,2691146.3387095,-1459.7409865246,2771835.7964333,41.609380938094,0,0
60.983980257291,-30.70491378402,36.413811381138,2691146.3387095,-1459.7409865246,2771835.7964333,41.613811381138,0,0
60.983980542224,-30.708587922412,36.418241824182,2691146.3387095,-1459.7409865246,2771835.7964333,41.618241824182,0,0
60.983980827156,-30.712262060803,36.422672267227,2691146.3387095,-1459.7409865246,2771835.7964333,41.622672267227,0,0
60.983981112089,-30.715936199195,36.427102710271,2691146.3387095,-1459.7409865246,2771835.7964333,41.627102710271,0,0
60.983981397022,-30.719610337586,36.431533153315,2691146.3387095,-1459.7409865246,2771835.7964333,41.631533153315,0,0
60.983981681955,-30.723284475977,36.43596359636,2691146.3387095,-1459.7409865246,2771835.7964333,41.63596359636,0,0
60.983981966888,-30.726958614369,36.440394039404,2691146.3387095,-1459.7409865246,2771835.7964333,41.640394039404,0,0
60.983982251821,-30.73063275276,36.444824482448,2691146.3387095,-1459.7409865246,2771835.7964333,41.644824482448,0,0
60.983982536754,-30.734306891152,36.449254925493,2691146.3387095,-1459.7409865246,2771835.7964333,41.649254925493,0,0
60.983982821687,-30.737981029543,36.453685368537,2691146.3387095,-1459.7409865246,2771835.7964333,41.653685368537,0,0
60.98398310662,-30.741655167934,36.458115811581,2691146.3387095,-1459.7409865246,2771835.7964333,41.658115811581,0,0
60.983983391553,-30.745329306326,36.462546254625,2691146.3387095,-1459.7409865246,2771835.7964333,41.662546254625,0,0
60.983983676486,-30.749003444717,36.46697669767,2691146.3387095,-1459.7409865246,2771835.7964333,41.66697669767,0,0
60.983983961419,-30.752677583109,36.471407140714,2691146.3387095,-1459.7409865246,2771835.7964333,41.671407140714,0,0
60.983984246352,-30.7563517215,36.475837583758,2691146.3387095,-1459.7409865246,2771835.7964333,41.675837583758,0,0
60.983984531285,-30.760025859891,36.480268026803,2691146.3387095,-1459.7409865246,2771835.7964333,41.680268026803,0,0
60.983984816218,-30.763699998283,36.484698469847,2691146.3387095,-1459.7409865246,2771835.7964333,41.684698469847,0,0
60.983985101151,-30.767374136674,36.489128912891,2691146.3387095,-1459.7409865246,2771835.7964333,41.689128912891,0,0
60.983985386084,-30.771048275066,36.493559355936,2691146.3387095,-1459.7409865246,2771835.7964333,41.693559355936,0,0
60.983985671017,-30.774722413457,36.49798979898,2691146.3387095,-1459.7409865246,2771835.7964333,41.69798979898,0,0
60.98398595595,-30.778396551848,36.502420242024,2691146.3387095,-1459.7409865246,2771835.7964333,41.702420242024,0,0
60.983986240883,-30.78207069024,36.506850685068,2691146.3387095,-1459.7409865246,2771835.7964333,41.706850685069,0,0
60.983986525816,-30.785744828631,36.511281128113,2691146.3387095,-1459.7409865246,2771835.7964333,41.711281128113,0,0
60.983986810748,-30.789418967023,36.515711571157,2691146.3387095,-1459.7409865246,2771835.7964333,41.715711571157,0,0
60.983987095681,-30.793093105414,36.520142014201,2691146.3387095,-1459.7409865246,2771835.7964333,41.720142014201,0,0
60.983987380614,-30.796767243805,36.524572457246,2691146.3387095,-1459.7409865246,2771835.7964333,41.724572457246,0,0
60.983987665547,-30.800441382197,36.52900290029,2691146.3387095,-1459.7409865246,2771835.7964333,41.72900290029,0,0
60.98398795048,-30.804115520588,36.533433343334,2691146.3387095,-1459.7409865246,2771835.7964333,41.733433343334,0,0
60.983988235413,-30.80778965898,36.537863786379,2691146.3387095,-1459.7409865246,2771835.7964333,41.737863786379,0,0
60.983988520346,-30.811463797371,36.542294229423,2691146.3387095,-1459.7409865246,2771835.7964333,41.742294229423,0,0
60.983988805279,-30.815137935762,36.546724672467,2691146.3387095,-1459.7409865246,2771835.7964333,41.746724672467,0,0
60.983989090262,-30.818812074131,36.551155115512,2694887.3974235,-1383.6239630848,2772425.4580634,41.751155115512,0,0
60.983989375479,-30.822486212392,36.555585558556,2694887.3974235,-1383.6239630848,2772425.4580634,41.755585558556,0,0
60.983989660695,-30.826160350653,36.5600160016,2694887.3974235,-1383.6239630848,2772425.4580634,41.7600160016,0,0
60.983989945911,-30.829834488914,36.564446444644,2694887.3974235,-1383.6239630848,2772425.4580634,41.764446444644,0,0
60.983990231127,-30.833508627175,36.568876887689,2694887.3974235,-1383.6239630848,2772425.4580634,41.768876887689,0,0
60.983990516343,-30.837182765436,36.573307330733,2694887.3974235,-1383.6239630848,2772425.4580634,41.773307330733,0,0
60.983990801559,-30.840856903697,36.577737773777,2694887.3974235,-1383.6239630848,2772425.4580634,41.777737773777,0,0
60.983991086775,-30.844531041958,36.582168216822,2694887.3974235,-1383.6239630848,2772425.4580634,41.782168216822,0,0
60.983991371991,-30.848205180219,36.586598659866,2694887.3974235,-1383.6239630848,2772425.4580634,41.786598659866,0,0
60.983991657207,-30.851879318481,36.59102910291,2694887.3974235,-1383.6239630848,2772425.4580634,41.79102910291,0,0
60.983991942423,-30.855553456742,36.595459545955,2694887.3974235,-1383.6239630848,2772425.4580634,41.795459545955,0,0
60.983992227639,-30.859227595003,36.599889988999,2694887.3974235,-1383.6239630848,2772425.4580634,41.799889988999,0,0
60.983992512855,-30.862901733264,36.604320432043,2694887.3974235,-1383.6239630848,2772425.4580634,41.804320432043,0,0
60.983992798071,-30.866575871525,36.608750875088,2694887.3974235,-1383.6239630848,2772425.4580634,41.808750875088,0,0
60.983993083287,-30.870250009786,36.613181318132,2694887.3974235,-1383.6239630848,2772425.4580634,41.813181318132,0,0
60.983993368504,-30.873924148047,36.617611761176,2694887.3974235,-1383.6239630848,2772425.4580634,41.817611761176,0,0
60.98399365372,-30.877598286308,36.62204220422,2694887.3974235,-1383.6239630848,2772425.4580634,41.82204220422,0,0
60.983993938936,-30.881272424569,36.626472647265,2694887.3974235,-1383.6239630848,2772425.4580634,41.826472647265,0,0
60.983994224152,-30.88494656283,36.630903090309,2694887.3974235,-1383.6239630848,2772425.4580634,41.830903090309,0,0
60.983994509368,-30.888620701092,36.635333533353,2694887.3974235,-1383.6239630848,2772425.4580634,41.835333533353,0,0
60.983994794584,-30.892294839353,36.639763976398,2694887.3974235,-1383.6239630848,2772425.4580634,41.839763976398,0,0
60.9839950798,-30.895968977614,36.644194419442,2694887.3974235,-1383.6239630848,2772425.4580634,41.844194419442,0,0
60.983995365016,-30.899643115875,36.648624862486,2694887.3974235,-1383.6239630848,2772425.4580634,41.848624862486,0,0
60.983995650232,-30.903317254136,36.653055305531,2694887.3974235,-1383.6239630848,2772425.4580634,41.853055305531,0,0
60.983995935448,-30.906991392397,36.657485748575,2694887.3974235,-1383.6239630848,2772425.4580634,41.857485748575,0,0
60.983996220664,-30.910665530658,36.661916191619,2694887.3974235,-1383.6239630848,2772425.4580634,41.861916191619,0,0
60.98399650588,-30.914339668919,36.666346634663,2694887.3974235,-1383.6239630848,2772425.4580634,41.866346634663,0,0
60.983996791096,-30.91801380718,36.670777077708,2694887.3974235,-1383.6239630848,2772425.4580634,41.870777077708,0,0
60.983997076313,-30.921687945441,36.675207520752,2694887.3974235,-1383.6239630848,2772425.4580634,41.875207520752,0,0
60.983997361529,-30.925362083703,36.679637963796,2694887.3974235,-1383.6239630848,2772425.4580634,41.879637963796,0,0
60.983997646745,-30.929036221964,36.684068406841,2694887.3974235,-1383.6239630848,2772425.4580634,41.884068406841,0,0
60.983997931961,-30.932710360225,36.688498849885,2694887.3974235,-1383.6239630848,2772425.4580634,41.888498849885,0,0
60.983998217177,-30.936384498486,36.692929292929,2694887.3974235,-1383.6239630848,2772425.4580634,41.892929292929,0,0
60.983998502393,-30.940058636747,36.697359735974,2694887.3974235,-1383.6239630848,2772425.4580634,41.897359735974,0,0
60.983998787609,-30.943732775008,36.701790179018,2694887.3974235,-1383.6239630848,2772425.4580634,41.901790179018,0,0
60.983999072825,-30.947406913269,36.706220622062,2694887.3974235,-1383.6239630848,2772425.4580634,41.906220622062,0,0
60.983999358041,-30.95108105153,36.710651065107,2694887.3974235,-1383.6239630848,2772425.4580634,41.910651065107,0,0
60.983999643257,-30.954755189791,36.715081508151,2694887.3974235,-1383.6239630848,2772425.4580634,41.915081508151,0,0
60.983999928473,-30.958429328052,36.719511951195,2694887.3974235,-1383.6239630848,2772425.4580634,41.919511951195,0,0
60.984000213689,-30.962103466314,36.723942394239,2694887.3974235,-1383.6239630848,2772425.4580634,41.923942394239,0,0
60.984000498905,-30.965777604575,36.728372837284,2694887.3974235,-1383.6239630848,2772425.4580634,41.928372837284,0,0
60.984000784121,-30.969451742836,36.732803280328,2694887.3974235,-1383.6239630848,2772425.4580634,41.932803280328,0,0
60.984001069338,-30.973125881097,36.737233723372,2694887.3974235,-1383.6239630848,2772425.4580634,41.937233723372,0,0
60.984001354554,-30.976800019358,36.741664166417,2694887.3974235,-1383.6239630848,2772425.4580634,41.941664166417,0,0
60.98400163977,-30.980474157619,36.746094609461,2694887.3974235,-1383.6239630848,2772425.4580634,41.946094609461,0,0
60.984001924986,-30.98414829588,36.750525052505,2694887.3974235,-1383.6239630848,2772425.4580634,41.950525052505,0,0
60.984002210202,-30.987822434141,36.75495549555,2694887.3974235,-1383.6239630848,2772425.4580634,41.95495549555,0,0
60.984002495418,-30.991496572402,36.759385938594,2694887.3974235,-1383.6239630848,2772425.4580634,41.959385938594,0,0
60.984002780634,-30.995170710663,36.763816381638,2694887.3974235,-1383.6239630848,2772425.4580634,41.963816381638,0,0
60.98400306585,-30.998844848925,36.768246824682,2694887.3974235,-1383.6239630848,2772425.4580634,41.968246824682,0,0
60.984003351066,-31.002518987186,36.772677267727,2694887.3974235,-1383.6239630848,2772425.4580634,41.972677267727,0,0
60.984003636282,-31.006193125447,36.777107710771,2694887.3974235,-1383.6239630848,2772425.4580634,41.977107710771,0,0
60.984003921498,-31.009867263708,36.781538153815,2694887.3974235,-1383.6239630848,2772425.4580634,41.981538153815,0,0
60.984004206714,-31.013541401969,36.78596859686,2694887.3974235,-1383.6239630848,2772425.4580634,41.98596859686,0,0
60.98400449193,-31.01721554023,36.790399039904,2694887.3974235,-1383.6239630848,2772425.4580634,41.990399039904,0,0
60.984004777147,-31.020889678491,36.794829482948,2694887.3974235,-1383.6239630848,2772425.4580634,41.994829482948,0,0
60.984005062363,-31.024563816752,36.799259925993,2694887.3974235,-1383.6239630848,2772425.4580634,41.999259925993,0,0
60.984005347579,-31.028237955013,36.803690369037,2694887.3974235,-1383.6239630848,2772425.4580634,42.003690369037,0,0
60.984005632795,-31.031912093274,36.808120812081,2694887.3974235,-1383.6239630848,2772425.4580634,42.008120812081,0,0
60.984005918011,-31.035586231536,36.812551255126,2694887.3974235,-1383.6239630848,2772425.4580634,42.012551255126,0,0
60.984006203227,-31.039260369797,36.81698169817,2694887.3974235,-1383.6239630848,2772425.4580634,42.01698169817,0,0
60.984006488443,-31.042934508058,36.821412141214,2694887.3974235,-1383.6239630848,2772425.4580634,42.021412141214,0,0
60.984006773659,-31.046608646319,36.825842584258,2694887.3974235,-1383.6239630848,2772425.4580634,42.025842584258,0,0
60.984007058875,-31.05028278458,36.830273027303,2694887.3974235,-1383.6239630848,2772425.4580634,42.030273027303,0,0
60.984007344091,-31.053956922841,36.834703470347,2694887.3974235,-1383.6239630848,2772425.4580634,42.034703470347,0,0
60.984007629307,-31.057631061102,36.839133913391,2694887.3974235,-1383.6239630848,2772425.4580634,42.039133913391,0,0
60.984007914523,-31.061305199363,36.843564356436,2694887.3974235,-1383.6239630848,2772425.4580634,42.043564356436,0,0
60.984008199739,-31.064979337624,36.84799479948,2694887.3974235,-1383.6239630848,2772425.4580634,42.04799479948,0,0
60.984008484955,-31.068653475885,36.852425242524,2694887.3974235,-1383.6239630848,2772425.4580634,42.052425242524,0,0
60.984008770172,-31.072327614147,36.856855685569,2694887.3974235,-1383.6239630848,2772425.4580634,42.056855685569,0,0
60.984009055388,-31.076001752408,36.861286128613,2694887.3974235,-1383.6239630848,2772425.4580634,42.061286128613,0,0
60.984009340604,-31.079675890669,36.865716571657,2694887.3974235,-1383.6239630848,2772425.4580634,42.065716571657,0,0
60.98400962582,-31.08335002893,36.870147014701,2694887.3974235,-1383.6239630848,2772425.4580634,42.070147014701,0,0
60.984009911036,-31.087024167191,36.874577457746,2694887.3974235,-1383.6239630848,2772425.4580634,42.074577457746,0,0
60.984010196252,-31.090698305452,36.87900790079,2694887.3974235,-1383.6239630848,2772425.4580634,42.07900790079,0,0
60.984010481468,-31.094372443713,36.883438343834,2694887.3974235,-1383.6239630848,2772425.4580634,42.083438343834,0,0
60.984010766684,-31.098046581974,36.887868786879,2694887.3974235,-1383.6239630848,2772425.4580634,42.087868786879,0,0
60.9840110519,-31.101720720235,36.892299229923,2694887.3974235,-1383.6239630848,2772425.4580634,42.092299229923,0,0
60.984011337116,-31.105394858496,36.896729672967,2694887.3974235,-1383.6239630848,2772425.4580634,42.096729672967,0,0
60.984011622332,-31.109068996758,36.901160116012,2694887.3974235,-1383.6239630848,2772425.4580634,42.101160116012,0,0
60.984011907548,-31.112743135019,36.905590559056,2694887.3974235,-1383.6239630848,2772425.4580634,42.105590559056,0,0
60.984012192764,-31.11641727328,36.9100210021,2694887.3974235,-1383.6239630848,2772425.4580634,42.1100210021,0,0
60.984012477981,-31.120091411541,36.914451445145,2694887.3974235,-1383.6239630848,2772425.4580634,42.114451445145,0,0
60.984012763197,-31.123765549802,36.918881888189,2694887.3974235,-1383.6239630848,2772425.4580634,42.118881888189,0,0
60.984013048413,-31.127439688063,36.923312331233,2694887.3974235,-1383.6239630848,2772425.4580634,42.123312331233,0,0
60.984013333629,-31.131113826324,36.927742774277,2694887.3974235,-1383.6239630848,2772425.4580634,42.127742774277,0,0
60.984013618845,-31.134787964585,36.932173217322,2694887.3974235,-1383.6239630848,2772425.4580634,42.132173217322,0,0
60.984013904061,-31.138462102846,36.936603660366,2694887.3974235,-1383.6239630848,2772425.4580634,42.136603660366,0,0
60.984014189277,-31.142136241107,36.94103410341,2694887.3974235,-1383.6239630848,2772425.4580634,42.14103410341,0,0
60.984014474493,-31.145810379369,36.945464546455,2694887.3974235,-1383.6239630848,2772425.4580634,42.145464546455,0,0
60.984014759709,-31.14948451763,36.949894989499,2694887.3974235,-1383.6239630848,2772425.4580634,42.149894989499,0,0
60.984015044925,-31.153158655891,36.954325432543,2694887.3974235,-1383.6239630848,2772425.4580634,42.154325432543,0,0
60.984015330141,-31.156832794152,36.958755875588,2694887.3974235,-1383.6239630848,2772425.4580634,42.158755875588,0,0
60.984015615357,-31.160506932413,36.963186318632,2694887.3974235,-1383.6239630848,2772425.4580634,42.163186318632,0,0
60.984015900573,-31.164181070674,36.967616761676,2694887.3974235,-1383.6239630848,2772425.4580634,42.167616761676,0,0
60.984016185789,-31.167855208935,36.97204720472,2694887.3974235,-1383.6239630848,2772425.4580634,42.17204720472,0,0
60.984016471006,-31.171529347196,36.976477647765,2694887.3974235,-1383.6239630848,2772425.4580634,42.176477647765,0,0
60.984016756222,-31.175203485457,36.980908090809,2694887.3974235,-1383.6239630848,2772425.4580634,42.180908090809,0,0
60.984017041438,-31.178877623718,36.985338533853,2694887.3974235,-1383.6239630848,2772425.4580634,42.185338533853,0,0
60.984017326654,-31.18255176198,36.989768976898,2694887.3974235,-1383.6239630848,2772425.4580634,42.189768976898,0,0
60.98401761187,-31.186225900241,36.994199419942,2694887.3974235,-1383.6239630848,2772425.4580634,42.194199419942,0,0
60.984017897086,-31.189900038502,36.998629862986,2694887.3974235,-1383.6239630848,2772425.4580634,42.198629862986,0,0
60.984018182302,-31.193574176763,37.003060306031,2694887.3974235,-1383.6239630848,2772425.4580634,42.203060306031,0,0
60.984018467518,-31.197248315024,37.007490749075,2694887.3974235,-1383.6239630848,2772425.4580634,42.207490749075,0,0
60.984018752734,-31.200922453285,37.011921192119,2694887.3974235,-1383.6239630848,2772425.4580634,42.211921192119,0,0
60.98401903795,-31.204596591546,37.016351635164,2694887.3974235,-1383.6239630848,2772425.4580634,42.216351635164,0,0
60.984019323166,-31.208270729807,37.020782078208,2694887.3974235,-1383.6239630848,2772425.4580634,42.220782078208,0,0
60.984019608382,-31.211944868068,37.025212521252,2694887.3974235,-1383.6239630848,2772425.4580634,42.225212521252,0,0
60.984019893598,-31.215619006329,37.029642964296,2694887.3974235,-1383.6239630848,2772425.4580634,42.229642964296,0,0
60.984020178815,-31.219293144591,37.034073407341,2694887.3974235,-1383.6239630848,2772425.4580634,42.234073407341,0,0
60.984020464031,-31.222967282852,37.038503850385,2694887.3974235,-1383.6239630848,2772425.4580634,42.238503850385,0,0
60.984020749247,-31.226641421113,37.042934293429,2694887.3974235,-1383.6239630848,2772425.4580634,42.242934293429,0,0
60.984021034463,-31.230315559374,37.047364736474,2694887.3974235,-1383.6239630848,2772425.4580634,42.247364736474,0,0
60.984021319679,-31.233989697635,37.051795179518,2694887.3974235,-1383.6239630848,2772425.4580634,42.251795179518,0,0
60.984021604895,-31.237663835896,37.056225622562,2694887.3974235,-1383.6239630848,2772425.4580634,42.256225622562,0,0
60.984021890111,-31.241337974157,37.060656065607,2694887.3974235,-1383.6239630848,2772425.4580634,42.260656065607,0,0
60.984022175327,-31.245012112418,37.065086508651,2694887.3974235,-1383.6239630848,2772425.4580634,42.265086508651,0,0
60.984022460543,-31.248686250679,37.069516951695,2694887.3974235,-1383.6239630848,2772425.4580634,42.269516951695,0,0
60.984022745759,-31.25236038894,37.073947394739,2694887.3974235,-1383.6239630848,2772425.4580634,42.273947394739,0,0
60.984023030975,-31.256034527202,37.078377837784,2694887.3974235,-1383.6239630848,2772425.4580634,42.278377837784,0,0
60.984023316191,-31.259708665463,37.082808280828,2694887.3974235,-1383.6239630848,2772425.4580634,42.282808280828,0,0
60.984023601407,-31.263382803724,37.087238723872,2694887.3974235,-1383.6239630848,2772425.4580634,42.287238723872,0,0
60.984023886623,-31.267056941985,37.091669166917,2694887.3974235,-1383.6239630848,2772425.4580634,42.291669166917,0,0
60.98402417184,-31.270731080246,37.096099609961,2694887.3974235,-1383.6239630848,2772425.4580634,42.296099609961,0,0
60.984024457056,-31.274405218507,37.100530053005,2694887.3974235,-1383.6239630848,2772425.4580634,42.300530053005,0,0
60.984024742272,-31.278079356768,37.10496049605,2694887.3974235,-1383.6239630848,2772425.4580634,42.30496049605,0,0
60.984025027488,-31.281753495029,37.109390939094,2694887.3974235,-1383.6239630848,2772425.4580634,42.309390939094,0,0
60.984025312704,-31.28542763329,37.113821382138,2694887.3974235,-1383.6239630848,2772425.4580634,42.313821382138,0,0
60.98402559792,-31.289101771551,37.118251825183,2694887.3974235,-1383.6239630848,2772425.4580634,42.318251825183,0,0
60.984025883136,-31.292775909813,37.122682268227,2694887.3974235,-1383.6239630848,2772425.4580634,42.322682268227,0,0
60.984026168352,-31.296450048074,37.127112711271,2694887.3974235,-1383.6239630848,2772425.4580634,42.327112711271,0,0
60.984026453568,-31.300124186335,37.131543154315,2694887.3974235,-1383.6239630848,2772425.4580634,42.331543154315,0,0
60.984026738784,-31.303798324596,37.13597359736,2694887.3974235,-1383.6239630848,2772425.4580634,42.33597359736,0,0
60.984027024,-31.307472462857,37.140404040404,2694887.3974235,-1383.6239630848,2772425.4580634,42.340404040404,0,0
60.984027309216,-31.311146601118,37.144834483448,2694887.3974235,-1383.6239630848,2772425.4580634,42.344834483448,0,0
60.984027594432,-31.314820739379,37.149264926493,2694887.3974235,-1383.6239630848,2772425.4580634,42.349264926493,0,0
60.984027879649,-31.31849487764,37.153695369537,2694887.3974235,-1383.6239630848,2772425.4580634,42.353695369537,0,0
60.984028164865,-31.322169015901,37.158125812581,2694887.3974235,-1383.6239630848,2772425.4580634,42.358125812581,0,0
60.984028450081,-31.325843154162,37.162556255626,2694887.3974235,-1383.6239630848,2772425.4580634,42.362556255626,0,0
60.984028735297,-31.329517292424,37.16698669867,2694887.3974235,-1383.6239630848,2772425.4580634,42.36698669867,0,0
60.984029020513,-31.333191430685,37.171417141714,2694887.3974235,-1383.6239630848,2772425.4580634,42.371417141714,0,0
60.984029305729,-31.336865568946,37.175847584758,2694887.3974235,-1383.6239630848,2772425.4580634,42.375847584758,0,0
60.984029590945,-31.340539707207,37.180278027803,2694887.3974235,-1383.6239630848,2772425.4580634,42.380278027803,0,0
60.984029876161,-31.344213845468,37.184708470847,2694887.3974235,-1383.6239630848,2772425.4580634,42.384708470847,0,0
60.984030161377,-31.347887983729,37.189138913891,2694887.3974235,-1383.6239630848,2772425.4580634,42.389138913891,0,0
60.984030446593,-31.35156212199,37.193569356936,2694887.3974235,-1383.6239630848,2772425.4580634,42.393569356936,0,0
60.984030731809,-31.355236260251,37.19799979998,2694887.3974235,-1383.6239630848,2772425.4580634,42.39799979998,0,0
60.984031017025,-31.358910398512,37.202430243024,2694887.3974235,-1383.6239630848,2772425.4580634,42.402430243024,0,0
60.984031302241,-31.362584536773,37.206860686069,2694887.3974235,-1383.6239630848,2772425.4580634,42.406860686069,0,0
60.984031587457,-31.366258675035,37.211291129113,2694887.3974235,-1383.6239630848,2772425.4580634,42.411291129113,0,0
60.984031872674,-31.369932813296,37.215721572157,2694887.3974235,-1383.6239630848,2772425.4580634,42.415721572157,0,0
60.98403215789,-31.373606951557,37.220152015202,2694887.3974235,-1383.6239630848,2772425.4580634,42.420152015202,0,0
60.984032443106,-31.377281089818,37.224582458246,2694887.3974235,-1383.6239630848,2772425.4580634,42.424582458246,0,0
60.984032728322,-31.380955228079,37.22901290129,2694887.3974235,-1383.6239630848,2772425.4580634,42.42901290129,0,0
60.984033013538,-31.38462936634,37.233443344334,2694887.3974235,-1383.6239630848,2772425.4580634,42.433443344334,0,0
60.984033298754,-31.388303504601,37.237873787379,2694887.3974235,-1383.6239630848,2772425.4580634,42.437873787379,0,0
60.98403358397,-31.391977642862,37.242304230423,2694887.3974235,-1383.6239630848,2772425.4580634,42.442304230423,0,0
60.984033869186,-31.395651781123,37.246734673467,2694887.3974235,-1383.6239630848,2772425.4580634,42.446734673467,0,0
60.984034154402,-31.399325919384,37.251165116512,2694887.3974235,-1383.6239630848,2772425.4580634,42.451165116512,0,0
60.984034439618,-31.403000057646,37.255595559556,2694887.3974235,-1383.6239630848,2772425.4580634,42.455595559556,0,0
60.984034724834,-31.406674195907,37.2600260026,2694887.3974235,-1383.6239630848,2772425.4580634,42.4600260026,0,0
60.98403501005,-31.410348334168,37.264456445645,2694887.3974235,-1383.6239630848,2772425.4580634,42.464456445645,0,0
60.984035295266,-31.414022472429,37.268886888689,2694887.3974235,-1383.6239630848,2772425.4580634,42.468886888689,0,0
60.984035580483,-31.41769661069,37.273317331733,2694887.3974235,-1383.6239630848,2772425.4580634,42.473317331733,0,0
60.984035865699,-31.421370748951,37.277747774777,2694887.3974235,-1383.6239630848,2772425.4580634,42.477747774777,0,0
60.984036150915,-31.425044887212,37.282178217822,2694887.3974235,-1383.6239630848,2772425.4580634,42.482178217822,0,0
60.984036436131,-31.428719025473,37.286608660866,2694887.3974235,-1383.6239630848,2772425.4580634,42.486608660866,0,0
60.984036721347,-31.432393163734,37.29103910391,2694887.3974235,-1383.6239630848,2772425.4580634,42.49103910391,0,0
60.984037006563,-31.436067301995,37.295469546955,2694887.3974235,-1383.6239630848,2772425.4580634,42.495469546955,0,0
60.984037291779,-31.439741440257,37.299899989999,2694887.3974235,-1383.6239630848,2772425.4580634,42.499899989999,0,0
60.984037576995,-31.443415578518,37.304330433043,2694887.3974235,-1383.6239630848,2772425.4580634,42.504330433043,0,0
60.984037862211,-31.447089716779,37.308760876088,2694887.3974235,-1383.6239630848,2772425.4580634,42.508760876088,0,0
60.984038147427,-31.45076385504,37.313191319132,2694887.3974235,-1383.6239630848,2772425.4580634,42.513191319132,0,0
60.984038432643,-31.454437993301,37.317621762176,2694887.3974235,-1383.6239630848,2772425.4580634,42.517621762176,0,0
60.984038717859,-31.458112131562,37.322052205221,2694887.3974235,-1383.6239630848,2772425.4580634,42.522052205221,0,0
60.984039003075,-31.461786269823,37.326482648265,2694887.3974235,-1383.6239630848,2772425.4580634,42.526482648265,0,0
60.984039288291,-31.465460408084,37.330913091309,2694887.3974235,-1383.6239630848,2772425.4580634,42.530913091309,0,0
60.984039573508,-31.469134546345,37.335343534353,2694887.3974235,-1383.6239630848,2772425.4580634,42.535343534353,0,0
60.984039858724,-31.472808684606,37.339773977398,2694887.3974235,-1383.6239630848,2772425.4580634,42.539773977398,0,0
60.98404014394,-31.476482822868,37.344204420442,2694887.3974235,-1383.6239630848,2772425.4580634,42.544204420442,0,0
60.984040429156,-31.480156961129,37.348634863486,2694887.3974235,-1383.6239630848,2772425.4580634,42.548634863486,0,0
60.984040714372,-31.48383109939,37.353065306531,2694887.3974235,-1383.6239630848,2772425.4580634,42.553065306531,0,0
60.984040999588,-31.487505237651,37.357495749575,2694887.3974235,-1383.6239630848,2772425.4580634,42.557495749575,0,0
60.984041284804,-31.491179375912,37.361926192619,2694887.3974235,-1383.6239630848,2772425.4580634,42.561926192619,0,0
60.98404157002,-31.494853514173,37.366356635664,2694887.3974235,-1383.6239630848,2772425.4580634,42.566356635664,0,0
60.984041855236,-31.498527652434,37.370787078708,2694887.3974235,-1383.6239630848,2772425.4580634,42.570787078708,0,0
60.984042140452,-31.502201790695,37.375217521752,2694887.3974235,-1383.6239630848,2772425.4580634,42.575217521752,0,0
60.984042425668,-31.505875928956,37.379647964796,2694887.3974235,-1383.6239630848,2772425.4580634,42.579647964796,0,0
60.984042710884,-31.509550067217,37.384078407841,2694887.3974235,-1383.6239630848,2772425.4580634,42.584078407841,0,0
60.9840429961,-31.513224205478,37.388508850885,2694887.3974235,-1383.6239630848,2772425.4580634,42.588508850885,0,0
60.984043281317,-31.51689834374,37.392939293929,2694887.3974235,-1383.6239630848,2772425.4580634,42.592939293929,0,0
60.984043566533,-31.520572482001,37.397369736974,2694887.3974235,-1383.6239630848,2772425.4580634,42.597369736974,0,0
60.984043851749,-31.524246620262,37.401800180018,2694887.3974235,-1383.6239630848,2772425.4580634,42.601800180018,0,0
60.984044136965,-31.527920758523,37.406230623062,2694887.3974235,-1383.6239630848,2772425.4580634,42.606230623062,0,0
60.984044422181,-31.531594896784,37.410661066107,2694887.3974235,-1383.6239630848,2772425.4580634,42.610661066107,0,0
60.984044707397,-31.535269035045,37.415091509151,2694887.3974235,-1383.6239630848,2772425.4580634,42.615091509151,0,0
60.984044992613,-31.538943173306,37.419521952195,2694887.3974235,-1383.6239630848,2772425.4580634,42.619521952195,0,0
60.984045277829,-31.542617311567,37.42395239524,2694887.3974235,-1383.6239630848,2772425.4580634,42.62395239524,0,0
60.984045563045,-31.546291449828,37.428382838284,2694887.3974235,-1383.6239630848,2772425.4580634,42.628382838284,0,0
60.984045848261,-31.549965588089,37.432813281328,2694887.3974235,-1383.6239630848,2772425.4580634,42.632813281328,0,0
60.984046133477,-31.553639726351,37.437243724372,2694887.3974235,-1383.6239630848,2772425.4580634,42.637243724372,0,0
60.984046418693,-31.557313864612,37.441674167417,2694887.3974235,-1383.6239630848,2772425.4580634,42.641674167417,0,0
60.984046703909,-31.560988002873,37.446104610461,2694887.3974235,-1383.6239630848,2772425.4580634,42.646104610461,0,0
60.984046989125,-31.564662141134,37.450535053505,2694887.3974235,-1383.6239630848,2772425.4580634,42.650535053505,0,0
60.984047274342,-31.568336279395,37.45496549655,2694887.3974235,-1383.6239630848,2772425.4580634,42.65496549655,0,0
60.984047559558,-31.572010417656,37.459395939594,2694887.3974235,-1383.6239630848,2772425.4580634,42.659395939594,0,0
60.984047844774,-31.575684555917,37.463826382638,2694887.3974235,-1383.6239630848,2772425.4580634,42.663826382638,0,0
60.98404812999,-31.579358694178,37.468256825683,2694887.3974235,-1383.6239630848,2772425.4580634,42.668256825683,0,0
60.984048415206,-31.583032832439,37.472687268727,2694887.3974235,-1383.6239630848,2772425.4580634,42.672687268727,0,0
60.984048700422,-31.5867069707,37.477117711771,2694887.3974235,-1383.6239630848,2772425.4580634,42.677117711771,0,0
60.984048985638,-31.590381108962,37.481548154815,2694887.3974235,-1383.6239630848,2772425.4580634,42.681548154815,0,0
60.984049270854,-31.594055247223,37.48597859786,2694887.3974235,-1383.6239630848,2772425.4580634,42.68597859786,0,0
60.98404955607,-31.597729385484,37.490409040904,2694887.3974235,-1383.6239630848,2772425.4580634,42.690409040904,0,0
60.984049841286,-31.601403523745,37.494839483948,2694887.3974235,-1383.6239630848,2772425.4580634,42.694839483948,0,0
60.984050126502,-31.605077662006,37.499269926993,2694887.3974235,-1383.6239630848,2772425.4580634,42.699269926993,0,0
60.984050411718,-31.608751800267,37.503700370037,2694887.3974235,-1383.6239630848,2772425.4580634,42.703700370037,0,0
60.984050696934,-31.612425938528,37.508130813081,2694887.3974235,-1383.6239630848,2772425.4580634,42.708130813081,0,0
60.984050982151,-31.616100076789,37.512561256126,2694887.3974235,-1383.6239630848,2772425.4580634,42.712561256126,0,0
60.984051267367,-31.61977421505,37.51699169917,2694887.3974235,-1383.6239630848,2772425.4580634,42.71699169917,0,0
60.984051552583,-31.623448353311,37.521422142214,2694887.3974235,-1383.6239630848,2772425.4580634,42.721422142214,0,0
60.984051837799,-31.627122491573,37.525852585259,2694887.3974235,-1383.6239630848,2772425.4580634,42.725852585259,0,0
60.984052123015,-31.630796629834,37.530283028303,2694887.3974235,-1383.6239630848,2772425.4580634,42.730283028303,0,0
60.984052408231,-31.634470768095,37.534713471347,2694887.3974235,-1383.6239630848,2772425.4580634,42.734713471347,0,0
60.984052693447,-31.638144906356,37.539143914391,2694887.3974235,-1383.6239630848,2772425.4580634,42.739143914391,0,0
60.984052978663,-31.641819044617,37.543574357436,2694887.3974235,-1383.6239630848,2772425.4580634,42.743574357436,0,0
60.984053263879,-31.645493182878,37.54800480048,2694887.3974235,-1383.6239630848,2772425.4580634,42.74800480048,0,0
60.984053549095,-31.649167321139,37.552435243524,2694887.3974235,-1383.6239630848,2772425.4580634,42.752435243524,0,0
60.984053834311,-31.6528414594,37.556865686569,2694887.3974235,-1383.6239630848,2772425.4580634,42.756865686569,0,0
60.984054119527,-31.656515597661,37.561296129613,2694887.3974235,-1383.6239630848,2772425.4580634,42.761296129613,0,0
60.984054404743,-31.660189735922,37.565726572657,2694887.3974235,-1383.6239630848,2772425.4580634,42.765726572657,0,0
60.984054689959,-31.663863874184,37.570157015702,2694887.3974235,-1383.6239630848,2772425.4580634,42.770157015702,0,0
60.984054975176,-31.667538012445,37.574587458746,2694887.3974235,-1383.6239630848,2772425.4580634,42.774587458746,0,0
60.984055260392,-31.671212150706,37.57901790179,2694887.3974235,-1383.6239630848,2772425.4580634,42.77901790179,0,0
60.984055545608,-31.674886288967,37.583448344834,2694887.3974235,-1383.6239630848,2772425.4580634,42.783448344834,0,0
60.984055830824,-31.678560427228,37.587878787879,2694887.3974235,-1383.6239630848,2772425.4580634,42.787878787879,0,0
60.98405611604,-31.682234565489,37.592309230923,2694887.3974235,-1383.6239630848,2772425.4580634,42.792309230923,0,0
60.984056401256,-31.68590870375,37.596739673967,2694887.3974235,-1383.6239630848,2772425.4580634,42.796739673967,0,0
60.984056686472,-31.689582842011,37.601170117012,2694887.3974235,-1383.6239630848,2772425.4580634,42.801170117012,0,0
60.984056971688,-31.693256980272,37.605600560056,2694887.3974235,-1383.6239630848,2772425.4580634,42.805600560056,0,0
60.984057256904,-31.696931118533,37.6100310031,2694887.3974235,-1383.6239630848,2772425.4580634,42.8100310031,0,0
60.98405754212,-31.700605256795,37.614461446145,2694887.3974235,-1383.6239630848,2772425.4580634,42.814461446145,0,0
60.984057827336,-31.704279395056,37.618891889189,2694887.3974235,-1383.6239630848,2772425.4580634,42.818891889189,0,0
60.984058112552,-31.707953533317,37.623322332233,2694887.3974235,-1383.6239630848,2772425.4580634,42.823322332233,0,0
60.984058397768,-31.711627671578,37.627752775278,2694887.3974235,-1383.6239630848,2772425.4580634,42.827752775278,0,0
60.984058682985,-31.715301809839,37.632183218322,2694887.3974235,-1383.6239630848,2772425.4580634,42.832183218322,0,0
60.984058968201,-31.7189759481,37.636613661366,2694887.3974235,-1383.6239630848,2772425.4580634,42.836613661366,0,0
60.984059253417,-31.722650086361,37.64104410441,2694887.3974235,-1383.6239630848,2772425.4580634,42.84104410441,0,0
60.984059538633,-31.726324224622,37.645474547455,2694887.3974235,-1383.6239630848,2772425.4580634,42.845474547455,0,0
60.984059823849,-31.729998362883,37.649904990499,2694887.3974235,-1383.6239630848,2772425.4580634,42.849904990499,0,0
60.984060109065,-31.733672501144,37.654335433543,2694887.3974235,-1383.6239630848,2772425.4580634,42.854335433543,0,0
60.984060394281,-31.737346639406,37.658765876588,2694887.3974235,-1383.6239630848,2772425.4580634,42.858765876588,0,0
60.984060679497,-31.741020777667,37.663196319632,2694887.3974235,-1383.6239630848,2772425.4580634,42.863196319632,0,0
60.984060964713,-31.744694915928,37.667626762676,2694887.3974235,-1383.6239630848,2772425.4580634,42.867626762676,0,0
60.984061249929,-31.748369054189,37.672057205721,2694887.3974235,-1383.6239630848,2772425.4580634,42.872057205721,0,0
60.984061535145,-31.75204319245,37.676487648765,2694887.3974235,-1383.6239630848,2772425.4580634,42.876487648765,0,0
60.984061820361,-31.755717330711,37.680918091809,2694887.3974235,-1383.6239630848,2772425.4580634,42.880918091809,0,0
60.984062105577,-31.759391468972,37.685348534853,2694887.3974235,-1383.6239630848,2772425.4580634,42.885348534853,0,0
60.984062390793,-31.763065607233,37.689778977898,2694887.3974235,-1383.6239630848,2772425.4580634,42.889778977898,0,0
60.98406267601,-31.766739745494,37.694209420942,2694887.3974235,-1383.6239630848,2772425.4580634,42.894209420942,0,0
60.984062961226,-31.770413883755,37.698639863986,2694887.3974235,-1383.6239630848,2772425.4580634,42.898639863986,0,0
60.984063246442,-31.774088022017,37.703070307031,2694887.3974235,-1383.6239630848,2772425.4580634,42.903070307031,0,0
60.984063531658,-31.777762160278,37.707500750075,2694887.3974235,-1383.6239630848,2772425.4580634,42.907500750075,0,0
60.984063816874,-31.781436298539,37.711931193119,2694887.3974235,-1383.6239630848,2772425.4580634,42.911931193119,0,0
60.98406410209,-31.7851104368,37.716361636164,2694887.3974235,-1383.6239630848,2772425.4580634,42.916361636164,0,0
60.984064387306,-31.788784575061,37.720792079208,2694887.3974235,-1383.6239630848,2772425.4580634,42.920792079208,0,0
60.984064672522,-31.792458713322,37.725222522252,2694887.3974235,-1383.6239630848,2772425.4580634,42.925222522252,0,0
60.984064957738,-31.796132851583,37.729652965297,2694887.3974235,-1383.6239630848,2772425.4580634,42.929652965297,0,0
60.984065242954,-31.799806989844,37.734083408341,2694887.3974235,-1383.6239630848,2772425.4580634,42.934083408341,0,0
60.98406552817,-31.803481128105,37.738513851385,2694887.3974235,-1383.6239630848,2772425.4580634,42.938513851385,0,0
60.984065813386,-31.807155266366,37.742944294429,2694887.3974235,-1383.6239630848,2772425.4580634,42.942944294429,0,0
60.984066098602,-31.810829404628,37.747374737474,2694887.3974235,-1383.6239630848,2772425.4580634,42.947374737474,0,0
60.984066383819,-31.814503542889,37.751805180518,2694887.3974235,-1383.6239630848,2772425.4580634,42.951805180518,0,0
60.984066669035,-31.81817768115,37.756235623562,2694887.3974235,-1383.6239630848,2772425.4580634,42.956235623562,0,0
60.984066954251,-31.821851819411,37.760666066607,2694887.3974235,-1383.6239630848,2772425.4580634,42.960666066607,0,0
60.984067239467,-31.825525957672,37.765096509651,2694887.3974235,-1383.6239630848,2772425.4580634,42.965096509651,0,0
60.984067524683,-31.829200095933,37.769526952695,2694887.3974235,-1383.6239630848,2772425.4580634,42.969526952695,0,0
60.984067809899,-31.832874234194,37.77395739574,2694887.3974235,-1383.6239630848,2772425.4580634,42.97395739574,0,0
60.984068095115,-31.836548372455,37.778387838784,2694887.3974235,-1383.6239630848,2772425.4580634,42.978387838784,0,0
60.984068380331,-31.840222510716,37.782818281828,2694887.3974235,-1383.6239630848,2772425.4580634,42.982818281828,0,0
60.984068665547,-31.843896648977,37.787248724872,2694887.3974235,-1383.6239630848,2772425.4580634,42.987248724872,0,0
60.984068950763,-31.847570787239,37.791679167917,2694887.3974235,-1383.6239630848,2772425.4580634,42.991679167917,0,0
60.984069235979,-31.8512449255,37.796109610961,2694887.3974235,-1383.6239630848,2772425.4580634,42.996109610961,0,0
60.984069521195,-31.854919063761,37.800540054005,2694887.3974235,-1383.6239630848,2772425.4580634,43.000540054005,0,0
60.984069806411,-31.858593202022,37.80497049705,2694887.3974235,-1383.6239630848,2772425.4580634,43.00497049705,0,0
60.984070091627,-31.862267340283,37.809400940094,2694887.3974235,-1383.6239630848,2772425.4580634,43.009400940094,0,0
60.984070376844,-31.865941478544,37.813831383138,2694887.3974235,-1383.6239630848,2772425.4580634,43.013831383138,0,0
60.98407066206,-31.869615616805,37.818261826183,2694887.3974235,-1383.6239630848,2772425.4580634,43.018261826183,0,0
60.984070947276,-31.873289755066,37.822692269227,2694887.3974235,-1383.6239630848,2772425.4580634,43.022692269227,0,0
60.984071232492,-31.876963893327,37.827122712271,2694887.3974235,-1383.6239630848,2772425.4580634,43.027122712271,0,0
60.984071517708,-31.880638031588,37.831553155316,2694887.3974235,-1383.6239630848,2772425.4580634,43.031553155316,0,0
60.984071802924,-31.88431216985,37.83598359836,2694887.3974235,-1383.6239630848,2772425.4580634,43.03598359836,0,0
60.98407208814,-31.887986308111,37.840414041404,2694887.3974235,-1383.6239630848,2772425.4580634,43.040414041404,0,0
60.984072373356,-31.891660446372,37.844844484448,2694887.3974235,-1383.6239630848,2772425.4580634,43.044844484448,0,0
60.984072658572,-31.895334584633,37.849274927493,2694887.3974235,-1383.6239630848,2772425.4580634,43.049274927493,0,0
60.984072943788,-31.899008722894,37.853705370537,2694887.3974235,-1383.6239630848,2772425.4580634,43.053705370537,0,0
60.984073229004,-31.902682861155,37.858135813581,2694887.3974235,-1383.6239630848,2772425.4580634,43.058135813581,0,0
60.98407351422,-31.906356999416,37.862566256626,2694887.3974235,-1383.6239630848,2772425.4580634,43.062566256626,0,0
60.984073799436,-31.910031137677,37.86699669967,2694887.3974235,-1383.6239630848,2772425.4580634,43.06699669967,0,0
60.984074084653,-31.913705275938,37.871427142714,2694887.3974235,-1383.6239630848,2772425.4580634,43.071427142714,0,0
60.984074369869,-31.917379414199,37.875857585759,2694887.3974235,-1383.6239630848,2772425.4580634,43.075857585759,0,0
60.984074655085,-31.921053552461,37.880288028803,2694887.3974235,-1383.6239630848,2772425.4580634,43.080288028803,0,0
60.984074940301,-31.924727690722,37.884718471847,2694887.3974235,-1383.6239630848,2772425.4580634,43.084718471847,0,0
60.984075225517,-31.928401828983,37.889148914891,2694887.3974235,-1383.6239630848,2772425.4580634,43.089148914891,0,0
60.984075510733,-31.932075967244,37.893579357936,2694887.3974235,-1383.6239630848,2772425.4580634,43.093579357936,0,0
60.984075795949,-31.935750105505,37.89800980098,2694887.3974235,-1383.6239630848,2772425.4580634,43.09800980098,0,0
60.984076081165,-31.939424243766,37.902440244024,2694887.3974235,-1383.6239630848,2772425.4580634,43.102440244024,0,0
60.984076366381,-31.943098382027,37.906870687069,2694887.3974235,-1383.6239630848,2772425.4580634,43.106870687069,0,0
60.984076651597,-31.946772520288,37.911301130113,2694887.3974235,-1383.6239630848,2772425.4580634,43.111301130113,0,0
60.984076936813,-31.950446658549,37.915731573157,2694887.3974235,-1383.6239630848,2772425.4580634,43.115731573157,0,0
60.984077222029,-31.95412079681,37.920162016202,2694887.3974235,-1383.6239630848,2772425.4580634,43.120162016202,0,0
60.984077507245,-31.957794935072,37.924592459246,2694887.3974235,-1383.6239630848,2772425.4580634,43.124592459246,0,0
60.984077792461,-31.961469073333,37.92902290229,2694887.3974235,-1383.6239630848,2772425.4580634,43.12902290229,0,0
60.984078077678,-31.965143211594,37.933453345335,2694887.3974235,-1383.6239630848,2772425.4580634,43.133453345335,0,0
60.984078362894,-31.968817349855,37.937883788379,2694887.3974235,-1383.6239630848,2772425.4580634,43.137883788379,0,0
60.98407864811,-31.972491488116,37.942314231423,2694887.3974235,-1383.6239630848,2772425.4580634,43.142314231423,0,0
60.984078933326,-31.976165626377,37.946744674467,2694887.3974235,-1383.6239630848,2772425.4580634,43.146744674467,0,0
60.984079218542,-31.979839764638,37.951175117512,2694887.3974235,-1383.6239630848,2772425.4580634,43.151175117512,0,0
60.984079503758,-31.983513902899,37.955605560556,2694887.3974235,-1383.6239630848,2772425.4580634,43.155605560556,0,0
60.984079788974,-31.98718804116,37.9600360036,2694887.3974235,-1383.6239630848,2772425.4580634,43.1600360036,0,0
60.98408007419,-31.990862179421,37.964466446645,2694887.3974235,-1383.6239630848,2772425.4580634,43.164466446645,0,0
60.984080359406,-31.994536317683,37.968896889689,2694887.3974235,-1383.6239630848,2772425.4580634,43.168896889689,0,0
60.984080644622,-31.998210455944,37.973327332733,2694887.3974235,-1383.6239630848,2772425.4580634,43.173327332733,0,0
60.984080929838,-32.001884594205,37.977757775778,2694887.3974235,-1383.6239630848,2772425.4580634,43.177757775778,0,0
60.984081215054,-32.005558732466,37.982188218822,2694887.3974235,-1383.6239630848,2772425.4580634,43.182188218822,0,0
60.98408150027,-32.009232870727,37.986618661866,2694887.3974235,-1383.6239630848,2772425.4580634,43.186618661866,0,0
60.984081785487,-32.012907008988,37.99104910491,2694887.3974235,-1383.6239630848,2772425.4580634,43.19104910491,0,0
60.984082070703,-32.016581147249,37.995479547955,2694887.3974235,-1383.6239630848,2772425.4580634,43.195479547955,0,0
60.984082355919,-32.02025528551,37.999909990999,2694887.3974235,-1383.6239630848,2772425.4580634,43.199909990999,0,0
60.984082641135,-32.023929423771,38.004340434043,2694887.3974235,-1383.6239630848,2772425.4580634,43.204340434043,0,0
60.984082926351,-32.027603562032,38.008770877088,2694887.3974235,-1383.6239630848,2772425.4580634,43.208770877088,0,0
60.984083211567,-32.031277700294,38.013201320132,2694887.3974235,-1383.6239630848,2772425.4580634,43.213201320132,0,0
60.984083496783,-32.034951838555,38.017631763176,2694887.3974235,-1383.6239630848,2772425.4580634,43.217631763176,0,0
60.984083781999,-32.038625976816,38.022062206221,2694887.3974235,-1383.6239630848,2772425.4580634,43.222062206221,0,0
60.984084067215,-32.042300115077,38.026492649265,2694887.3974235,-1383.6239630848,2772425.4580634,43.226492649265,0,0
60.984084352431,-32.045974253338,38.030923092309,2694887.3974235,-1383.6239630848,2772425.4580634,43.230923092309,0,0
60.984084637647,-32.049648391599,38.035353535354,2694887.3974235,-1383.6239630848,2772425.4580634,43.235353535354,0,0
60.984084922863,-32.05332252986,38.039783978398,2694887.3974235,-1383.6239630848,2772425.4580634,43.239783978398,0,0
60.984085208079,-32.056996668121,38.044214421442,2694887.3974235,-1383.6239630848,2772425.4580634,43.244214421442,0,0
60.984085493295,-32.060670806382,38.048644864486,2694887.3974235,-1383.6239630848,2772425.4580634,43.248644864486,0,0
60.984085778512,-32.064344944643,38.053075307531,2694887.3974235,-1383.6239630848,2772425.4580634,43.253075307531,0,0
60.984086063728,-32.068019082905,38.057505750575,2694887.3974235,-1383.6239630848,2772425.4580634,43.257505750575,0,0
60.984086348944,-32.071693221166,38.061936193619,2694887.3974235,-1383.6239630848,2772425.4580634,43.261936193619,0,0
60.98408663416,-32.075367359427,38.066366636664,2694887.3974235,-1383.6239630848,2772425.4580634,43.266366636664,0,0
60.984086919376,-32.079041497688,38.070797079708,2694887.3974235,-1383.6239630848,2772425.4580634,43.270797079708,0,0
60.984087204592,-32.082715635949,38.075227522752,2694887.3974235,-1383.6239630848,2772425.4580634,43.275227522752,0,0
60.984087489808,-32.08638977421,38.079657965797,2694887.3974235,-1383.6239630848,2772425.4580634,43.279657965797,0,0
60.984087775024,-32.090063912471,38.084088408841,2694887.3974235,-1383.6239630848,2772425.4580634,43.284088408841,0,0
60.98408806024,-32.093738050732,38.088518851885,2694887.3974235,-1383.6239630848,2772425.4580634,43.288518851885,0,0
60.984088345456,-32.097412188993,38.092949294929,2694887.3974235,-1383.6239630848,2772425.4580634,43.292949294929,0,0
60.984088630672,-32.101086327254,38.097379737974,2694887.3974235,-1383.6239630848,2772425.4580634,43.297379737974,0,0
60.984088915888,-32.104760465516,38.101810181018,2694887.3974235,-1383.6239630848,2772425.4580634,43.301810181018,0,0
60.984089201104,-32.108434603777,38.106240624062,2694887.3974235,-1383.6239630848,2772425.4580634,43.306240624062,0,0
60.984089486321,-32.112108742038,38.110671067107,2694887.3974235,-1383.6239630848,2772425.4580634,43.310671067107,0,0
60.984089771537,-32.115782880299,38.115101510151,2694887.3974235,-1383.6239630848,2772425.4580634,43.315101510151,0,0
60.984090056753,-32.11945701856,38.119531953195,2694887.3974235,-1383.6239630848,2772425.4580634,43.319531953195,0,0
60.984090341969,-32.123131156821,38.12396239624,2694887.3974235,-1383.6239630848,2772425.4580634,43.32396239624,0,0
60.984090627185,-32.126805295082,38.128392839284,2694887.3974235,-1383.6239630848,2772425.4580634,43.328392839284,0,0
60.984090912401,-32.130479433343,38.132823282328,2694887.3974235,-1383.6239630848,2772425.4580634,43.332823282328,0,0
60.984091197617,-32.134153571604,38.137253725373,2694887.3974235,-1383.6239630848,2772425.4580634,43.337253725373,0,0
60.984091482833,-32.137827709865,38.141684168417,2694887.3974235,-1383.6239630848,2772425.4580634,43.341684168417,0,0
60.984091768049,-32.141501848127,38.146114611461,2694887.3974235,-1383.6239630848,2772425.4580634,43.346114611461,0,0
60.984092053265,-32.145175986388,38.150545054505,2694887.3974235,-1383.6239630848,2772425.4580634,43.350545054505,0,0
60.984092338481,-32.148850124649,38.15497549755,2694887.3974235,-1383.6239630848,2772425.4580634,43.35497549755,0,0
60.984092623697,-32.15252426291,38.159405940594,2694887.3974235,-1383.6239630848,2772425.4580634,43.359405940594,0,0
60.984092908913,-32.156198401171,38.163836383638,2694887.3974235,-1383.6239630848,2772425.4580634,43.363836383638,0,0
60.984093194129,-32.159872539432,38.168266826683,2694887.3974235,-1383.6239630848,2772425.4580634,43.368266826683,0,0
60.984093479346,-32.163546677693,38.172697269727,2694887.3974235,-1383.6239630848,2772425.4580634,43.372697269727,0,0
60.984093764562,-32.167220815954,38.177127712771,2694887.3974235,-1383.6239630848,2772425.4580634,43.377127712771,0,0
60.984094049778,-32.170894954215,38.181558155816,2694887.3974235,-1383.6239630848,2772425.4580634,43.381558155816,0,0
60.984094334994,-32.174569092476,38.18598859886,2694887.3974235,-1383.6239630848,2772425.4580634,43.38598859886,0,0
60.98409462021,-32.178243230738,38.190419041904,2694887.3974235,-1383.6239630848,2772425.4580634,43.390419041904,0,0
60.984094905426,-32.181917368999,38.194849484948,2694887.3974235,-1383.6239630848,2772425.4580634,43.394849484948,0,0
60.984095190642,-32.18559150726,38.199279927993,2694887.3974235,-1383.6239630848,2772425.4580634,43.399279927993,0,0
60.984095475858,-32.189265645521,38.203710371037,2694887.3974235,-1383.6239630848,2772425.4580634,43.403710371037,0,0
60.984095761074,-32.192939783782,38.208140814081,2694887.3974235,-1383.6239630848,2772425.4580634,43.408140814081,0,0
60.98409604629,-32.196613922043,38.212571257126,2694887.3974235,-1383.6239630848,2772425.4580634,43.412571257126,0,0
60.984096331506,-32.200288060304,38.21700170017,2694887.3974235,-1383.6239630848,2772425.4580634,43.41700170017,0,0
60.984096616722,-32.203962198565,38.221432143214,2694887.3974235,-1383.6239630848,2772425.4580634,43.421432143214,0,0
60.984096901938,-32.207636336826,38.225862586259,2694887.3974235,-1383.6239630848,2772425.4580634,43.425862586259,0,0
60.984097187155,-32.211310475087,38.230293029303,2694887.3974235,-1383.6239630848,2772425.4580634,43.430293029303,0,0
60.984097472371,-32.214984613349,38.234723472347,2694887.3974235,-1383.6239630848,2772425.4580634,43.434723472347,0,0
60.984097757587,-32.21865875161,38.239153915392,2694887.3974235,-1383.6239630848,2772425.4580634,43.439153915392,0,0
60.984098042803,-32.222332889871,38.243584358436,2694887.3974235,-1383.6239630848,2772425.4580634,43.443584358436,0,0
60.984098328019,-32.226007028132,38.24801480148,2694887.3974235,-1383.6239630848,2772425.4580634,43.44801480148,0,0
60.984098613235,-32.229681166393,38.252445244524,2694887.3974235,-1383.6239630848,2772425.4580634,43.452445244524,0,0
60.984098898451,-32.233355304654,38.256875687569,2694887.3974235,-1383.6239630848,2772425.4580634,43.456875687569,0,0
60.984099183667,-32.237029442915,38.261306130613,2694887.3974235,-1383.6239630848,2772425.4580634,43.461306130613,0,0
60.984099468883,-32.240703581176,38.265736573657,2694887.3974235,-1383.6239630848,2772425.4580634,43.465736573657,0,0
60.984099754099,-32.244377719437,38.270167016702,2694887.3974235,-1383.6239630848,2772425.4580634,43.470167016702,0,0
60.984100039315,-32.248051857698,38.274597459746,2694887.3974235,-1383.6239630848,2772425.4580634,43.474597459746,0,0
60.984100324531,-32.25172599596,38.27902790279,2694887.3974235,-1383.6239630848,2772425.4580634,43.47902790279,0,0
60.984100609747,-32.255400134221,38.283458345835,2694887.3974235,-1383.6239630848,2772425.4580634,43.483458345835,0,0
60.984100894963,-32.259074272482,38.287888788879,2694887.3974235,-1383.6239630848,2772425.4580634,43.487888788879,0,0
60.98410118018,-32.262748410743,38.292319231923,2694887.3974235,-1383.6239630848,2772425.4580634,43.492319231923,0,0
60.984101465396,-32.266422549004,38.296749674967,2694887.3974235,-1383.6239630848,2772425.4580634,43.496749674967,0,0
60.984101750612,-32.270096687265,38.301180118012,2694887.3974235,-1383.6239630848,2772425.4580634,43.501180118012,0,0
60.984102035828,-32.273770825526,38.305610561056,2694887.3974235,-1383.6239630848,2772425.4580634,43.505610561056,0,0
60.984102321044,-32.277444963787,38.3100410041,2694887.3974235,-1383.6239630848,2772425.4580634,43.5100410041,0,0
60.98410260626,-32.281119102048,38.314471447145,2694887.3974235,-1383.6239630848,2772425.4580634,43.514471447145,0,0
60.984102891476,-32.284793240309,38.318901890189,2694887.3974235,-1383.6239630848,2772425.4580634,43.518901890189,0,0
60.984103176692,-32.288467378571,38.323332333233,2694887.3974235,-1383.6239630848,2772425.4580634,43.523332333233,0,0
60.984103461908,-32.292141516832,38.327762776278,2694887.3974235,-1383.6239630848,2772425.4580634,43.527762776278,0,0
60.984103747124,-32.295815655093,38.332193219322,2694887.3974235,-1383.6239630848,2772425.4580634,43.532193219322,0,0
60.98410403234,-32.299489793354,38.336623662366,2694887.3974235,-1383.6239630848,2772425.4580634,43.536623662366,0,0
60.984104317556,-32.303163931615,38.341054105411,2694887.3974235,-1383.6239630848,2772425.4580634,43.541054105411,0,0
60.984104602772,-32.306838069876,38.345484548455,2694887.3974235,-1383.6239630848,2772425.4580634,43.545484548455,0,0
60.984104887989,-32.310512208137,38.349914991499,2694887.3974235,-1383.6239630848,2772425.4580634,43.549914991499,0,0
60.984105173205,-32.314186346398,38.354345434543,2694887.3974235,-1383.6239630848,2772425.4580634,43.554345434543,0,0
60.984105458421,-32.317860484659,38.358775877588,2694887.3974235,-1383.6239630848,2772425.4580634,43.558775877588,0,0
60.984105743637,-32.32153462292,38.363206320632,2694887.3974235,-1383.6239630848,2772425.4580634,43.563206320632,0,0
60.984106028853,-32.325208761182,38.367636763676,2694887.3974235,-1383.6239630848,2772425.4580634,43.567636763676,0,0
60.984106314069,-32.328882899443,38.372067206721,2694887.3974235,-1383.6239630848,2772425.4580634,43.572067206721,0,0
60.984106599285,-32.332557037704,38.376497649765,2694887.3974235,-1383.6239630848,2772425.4580634,43.576497649765,0,0
60.984106884501,-32.336231175965,38.380928092809,2694887.3974235,-1383.6239630848,2772425.4580634,43.580928092809,0,0
60.984107169717,-32.339905314226,38.385358535854,2694887.3974235,-1383.6239630848,2772425.4580634,43.585358535854,0,0
60.984107454933,-32.343579452487,38.389788978898,2694887.3974235,-1383.6239630848,2772425.4580634,43.589788978898,0,0
60.984107740149,-32.347253590748,38.394219421942,2694887.3974235,-1383.6239630848,2772425.4580634,43.594219421942,0,0
60.984108025365,-32.350927729009,38.398649864986,2694887.3974235,-1383.6239630848,2772425.4580634,43.598649864986,0,0
60.984108310581,-32.35460186727,38.403080308031,2694887.3974235,-1383.6239630848,2772425.4580634,43.603080308031,0,0
60.984108595797,-32.358276005531,38.407510751075,2694887.3974235,-1383.6239630848,2772425.4580634,43.607510751075,0,0
60.984108881014,-32.361950143792,38.411941194119,2694887.3974235,-1383.6239630848,2772425.4580634,43.611941194119,0,0
60.98410916623,-32.365624282054,38.416371637164,2694887.3974235,-1383.6239630848,2772425.4580634,43.616371637164,0,0
60.984109451446,-32.369298420315,38.420802080208,2694887.3974235,-1383.6239630848,2772425.4580634,43.620802080208,0,0
60.984109736662,-32.372972558576,38.425232523252,2694887.3974235,-1383.6239630848,2772425.4580634,43.625232523252,0,0
60.984110021878,-32.376646696837,38.429662966297,2694887.3974235,-1383.6239630848,2772425.4580634,43.629662966297,0,0
60.984110307094,-32.380320835098,38.434093409341,2694887.3974235,-1383.6239630848,2772425.4580634,43.634093409341,0,0
60.98411059231,-32.383994973359,38.438523852385,2694887.3974235,-1383.6239630848,2772425.4580634,43.638523852385,0,0
60.984110877526,-32.38766911162,38.44295429543,2694887.3974235,-1383.6239630848,2772425.4580634,43.64295429543,0,0
60.984111162742,-32.391343249881,38.447384738474,2694887.3974235,-1383.6239630848,2772425.4580634,43.647384738474,0,0
60.984111447958,-32.395017388142,38.451815181518,2694887.3974235,-1383.6239630848,2772425.4580634,43.651815181518,0,0
60.984111733174,-32.398691526403,38.456245624562,2694887.3974235,-1383.6239630848,2772425.4580634,43.656245624562,0,0
60.98411201839,-32.402365664665,38.460676067607,2694887.3974235,-1383.6239630848,2772425.4580634,43.660676067607,0,0
60.984112303606,-32.406039802926,38.465106510651,2694887.3974235,-1383.6239630848,2772425.4580634,43.665106510651,0,0
60.984112588823,-32.409713941187,38.469536953695,2694887.3974235,-1383.6239630848,2772425.4580634,43.669536953695,0,0
60.984112874039,-32.413388079448,38.47396739674,2694887.3974235,-1383.6239630848,2772425.4580634,43.67396739674,0,0
60.984113159255,-32.417062217709,38.478397839784,2694887.3974235,-1383.6239630848,2772425.4580634,43.678397839784,0,0
60.984113444471,-32.42073635597,38.482828282828,2694887.3974235,-1383.6239630848,2772425.4580634,43.682828282828,0,0
60.984113729687,-32.424410494231,38.487258725873,2694887.3974235,-1383.6239630848,2772425.4580634,43.687258725873,0,0
60.984114014903,-32.428084632492,38.491689168917,2694887.3974235,-1383.6239630848,2772425.4580634,43.691689168917,0,0
60.984114300119,-32.431758770753,38.496119611961,2694887.3974235,-1383.6239630848,2772425.4580634,43.696119611961,0,0
60.984114585335,-32.435432909014,38.500550055005,2694887.3974235,-1383.6239630848,2772425.4580634,43.700550055006,0,0
60.984114870551,-32.439107047276,38.50498049805,2694887.3974235,-1383.6239630848,2772425.4580634,43.70498049805,0,0
60.984115155767,-32.442781185537,38.509410941094,2694887.3974235,-1383.6239630848,2772425.4580634,43.709410941094,0,0
60.984115440983,-32.446455323798,38.513841384138,2694887.3974235,-1383.6239630848,2772425.4580634,43.713841384138,0,0
60.984115726199,-32.450129462059,38.518271827183,2694887.3974235,-1383.6239630848,2772425.4580634,43.718271827183,0,0
60.984116011415,-32.45380360032,38.522702270227,2694887.3974235,-1383.6239630848,2772425.4580634,43.722702270227,0,0
60.984116296631,-32.457477738581,38.527132713271,2694887.3974235,-1383.6239630848,2772425.4580634,43.727132713271,0,0
60.984116581848,-32.461151876842,38.531563156316,2694887.3974235,-1383.6239630848,2772425.4580634,43.731563156316,0,0
60.984116867064,-32.464826015103,38.53599359936,2694887.3974235,-1383.6239630848,2772425.4580634,43.73599359936,0,0
60.98411715228,-32.468500153364,38.540424042404,2694887.3974235,-1383.6239630848,2772425.4580634,43.740424042404,0,0
60.984117437496,-32.472174291625,38.544854485449,2694887.3974235,-1383.6239630848,2772425.4580634,43.744854485449,0,0
60.984117722712,-32.475848429887,38.549284928493,2694887.3974235,-1383.6239630848,2772425.4580634,43.749284928493,0,0
60.984118007928,-32.479522568148,38.553715371537,2694887.3974235,-1383.6239630848,2772425.4580634,43.753715371537,0,0
60.984118293144,-32.483196706409,38.558145814581,2694887.3974235,-1383.6239630848,2772425.4580634,43.758145814581,0,0
60.98411857836,-32.48687084467,38.562576257626,2694887.3974235,-1383.6239630848,2772425.4580634,43.762576257626,0,0
60.984118863576,-32.490544982931,38.56700670067,2694887.3974235,-1383.6239630848,2772425.4580634,43.76700670067,0,0
60.984119148792,-32.494219121192,38.571437143714,2694887.3974235,-1383.6239630848,2772425.4580634,43.771437143714,0,0
60.984119434008,-32.497893259453,38.575867586759,2694887.3974235,-1383.6239630848,2772425.4580634,43.775867586759,0,0
60.984119719224,-32.501567397714,38.580298029803,2694887.3974235,-1383.6239630848,2772425.4580634,43.780298029803,0,0
60.98412000444,-32.505241535975,38.584728472847,2694887.3974235,-1383.6239630848,2772425.4580634,43.784728472847,0,0
60.984120289657,-32.508915674236,38.589158915892,2694887.3974235,-1383.6239630848,2772425.4580634,43.789158915892,0,0
60.984120574873,-32.512589812498,38.593589358936,2694887.3974235,-1383.6239630848,2772425.4580634,43.793589358936,0,0
60.984120860089,-32.516263950759,38.59801980198,2694887.3974235,-1383.6239630848,2772425.4580634,43.79801980198,0,0
60.984121145305,-32.51993808902,38.602450245024,2694887.3974235,-1383.6239630848,2772425.4580634,43.802450245025,0,0
60.984121430521,-32.523612227281,38.606880688069,2694887.3974235,-1383.6239630848,2772425.4580634,43.806880688069,0,0
60.984121715737,-32.527286365542,38.611311131113,2694887.3974235,-1383.6239630848,2772425.4580634,43.811311131113,0,0
60.984122000953,-32.530960503803,38.615741574157,2694887.3974235,-1383.6239630848,2772425.4580634,43.815741574157,0,0
60.984122286169,-32.534634642064,38.620172017202,2694887.3974235,-1383.6239630848,2772425.4580634,43.820172017202,0,0
60.984122571385,-32.538308780325,38.624602460246,2694887.3974235,-1383.6239630848,2772425.4580634,43.824602460246,0,0
60.984122856601,-32.541982918586,38.62903290329,2694887.3974235,-1383.6239630848,2772425.4580634,43.82903290329,0,0
60.984123141817,-32.545657056847,38.633463346335,2694887.3974235,-1383.6239630848,2772425.4580634,43.833463346335,0,0
60.984123427033,-32.549331195109,38.637893789379,2694887.3974235,-1383.6239630848,2772425.4580634,43.837893789379,0,0
60.984123712249,-32.55300533337,38.642324232423,2694887.3974235,-1383.6239630848,2772425.4580634,43.842324232423,0,0
60.984123997465,-32.556679471631,38.646754675468,2694887.3974235,-1383.6239630848,2772425.4580634,43.846754675468,0,0
60.984124282682,-32.560353609892,38.651185118512,2694887.3974235,-1383.6239630848,2772425.4580634,43.851185118512,0,0
60.984124567898,-32.564027748153,38.655615561556,2694887.3974235,-1383.6239630848,2772425.4580634,43.855615561556,0,0
60.984124853114,-32.567701886414,38.6600460046,2694887.3974235,-1383.6239630848,2772425.4580634,43.8600460046,0,0
60.98412513833,-32.571376024675,38.664476447645,2694887.3974235,-1383.6239630848,2772425.4580634,43.864476447645,0,0
60.984125423546,-32.575050162936,38.668906890689,2694887.3974235,-1383.6239630848,2772425.4580634,43.868906890689,0,0
60.984125708762,-32.578724301197,38.673337333733,2694887.3974235,-1383.6239630848,2772425.4580634,43.873337333733,0,0
60.984125993978,-32.582398439458,38.677767776778,2694887.3974235,-1383.6239630848,2772425.4580634,43.877767776778,0,0
60.984126279194,-32.58607257772,38.682198219822,2694887.3974235,-1383.6239630848,2772425.4580634,43.882198219822,0,0
60.98412656441,-32.589746715981,38.686628662866,2694887.3974235,-1383.6239630848,2772425.4580634,43.886628662866,0,0
60.984126849626,-32.593420854242,38.691059105911,2694887.3974235,-1383.6239630848,2772425.4580634,43.891059105911,0,0
60.984127134842,-32.597094992503,38.695489548955,2694887.3974235,-1383.6239630848,2772425.4580634,43.895489548955,0,0
60.984127420058,-32.600769130764,38.699919991999,2694887.3974235,-1383.6239630848,2772425.4580634,43.899919991999,0,0
60.984127705274,-32.604443269025,38.704350435044,2694887.3974235,-1383.6239630848,2772425.4580634,43.904350435044,0,0
60.984127990491,-32.608117407286,38.708780878088,2694887.3974235,-1383.6239630848,2772425.4580634,43.908780878088,0,0
60.984128275707,-32.611791545547,38.713211321132,2694887.3974235,-1383.6239630848,2772425.4580634,43.913211321132,0,0
60.984128560926,-32.615465683811,38.717641764176,2695067.4517822,-1392.133609761,2772383.0871907,43.917641764176,0,0
60.984128846158,-32.619139822085,38.722072207221,2695067.4517822,-1392.133609761,2772383.0871907,43.922072207221,0,0
60.98412913139,-32.622813960358,38.726502650265,2695067.4517822,-1392.133609761,2772383.0871907,43.926502650265,0,0
60.984129416621,-32.626488098631,38.730933093309,2695067.4517822,-1392.133609761,2772383.0871907,43.930933093309,0,0
60.984129701853,-32.630162236905,38.735363536354,2695067.4517822,-1392.133609761,2772383.0871907,43.935363536354,0,0
60.984129987084,-32.633836375178,38.739793979398,2695067.4517822,-1392.133609761,2772383.0871907,43.939793979398,0,0
60.984130272436,-32.637510513442,38.744224422442,2697118.5318048,-1658.9403066746,2772998.5661325,43.944224422442,0,0
60.984130557815,-32.641184651703,38.748654865487,2697118.5318048,-1658.9403066746,2772998.5661325,43.948654865487,0,0
60.984130843194,-32.644858789965,38.753085308531,2697118.5318048,-1658.9403066746,2772998.5661325,43.953085308531,0,0
60.984131128573,-32.648532928226,38.757515751575,2697118.5318048,-1658.9403066746,2772998.5661325,43.957515751575,0,0
60.984131413952,-32.652207066488,38.761946194619,2697118.5318048,-1658.9403066746,2772998.5661325,43.961946194619,0,0
60.984131699331,-32.65588120475,38.766376637664,2697118.5318048,-1658.9403066746,2772998.5661325,43.966376637664,0,0
60.98413198471,-32.659555343011,38.770807080708,2697118.5318048,-1658.9403066746,2772998.5661325,43.970807080708,0,0
60.98413227009,-32.663229481273,38.775237523752,2697118.5318048,-1658.9403066746,2772998.5661325,43.975237523752,0,0
60.984132555469,-32.666903619534,38.779667966797,2697118.5318048,-1658.9403066746,2772998.5661325,43.979667966797,0,0
60.984132840848,-32.670577757796,38.784098409841,2697118.5318048,-1658.9403066746,2772998.5661325,43.984098409841,0,0
60.984133126227,-32.674251896057,38.788528852885,2697118.5318048,-1658.9403066746,2772998.5661325,43.988528852885,0,0
60.984133411606,-32.677926034319,38.79295929593,2697118.5318048,-1658.9403066746,2772998.5661325,43.99295929593,0,0
60.984133696985,-32.681600172581,38.797389738974,2697118.5318048,-1658.9403066746,2772998.5661325,43.997389738974,0,0
60.984133982364,-32.685274310842,38.801820182018,2697118.5318048,-1658.9403066746,2772998.5661325,44.001820182018,0,0
60.984134267743,-32.688948449104,38.806250625063,2697118.5318048,-1658.9403066746,2772998.5661325,44.006250625063,0,0
60.984134553122,-32.692622587365,38.810681068107,2697118.5318048,-1658.9403066746,2772998.5661325,44.010681068107,0,0
60.984134838501,-32.696296725627,38.815111511151,2697118.5318048,-1658.9403066746,2772998.5661325,44.015111511151,0,0
60.98413512388,-32.699970863889,38.819541954195,2697118.5318048,-1658.9403066746,2772998.5661325,44.019541954195,0,0
60.984135409259,-32.70364500215,38.82397239724,2697118.5318048,-1658.9403066746,2772998.5661325,44.02397239724,0,0
60.984135694638,-32.707319140412,38.828402840284,2697118.5318048,-1658.9403066746,2772998.5661325,44.028402840284,0,0
60.984135980017,-32.710993278673,38.832833283328,2697118.5318048,-1658.9403066746,2772998.5661325,44.032833283328,0,0
60.984136265396,-32.714667416935,38.837263726373,2697118.5318048,-1658.9403066746,2772998.5661325,44.037263726373,0,0
60.984136550775,-32.718341555196,38.841694169417,2697118.5318048,-1658.9403066746,2772998.5661325,44.041694169417,0,0
60.984136836154,-32.722015693458,38.846124612461,2697118.5318048,-1658.9403066746,2772998.5661325,44.046124612461,0,0
60.984137121533,-32.72568983172,38.850555055506,2697118.5318048,-1658.9403066746,2772998.5661325,44.050555055506,0,0
60.984137406912,-32.729363969981,38.85498549855,2697118.5318048,-1658.9403066746,2772998.5661325,44.05498549855,0,0
60.984137692291,-32.733038108243,38.859415941594,2697118.5318048,-1658.9403066746,2772998.5661325,44.059415941594,0,0
60.98413797767,-32.736712246504,38.863846384638,2697118.5318048,-1658.9403066746,2772998.5661325,44.063846384638,0,0
60.984138263049,-32.740386384766,38.868276827683,2697118.5318048,-1658.9403066746,2772998.5661325,44.068276827683,0,0
60.984138548428,-32.744060523028,38.872707270727,2697118.5318048,-1658.9403066746,2772998.5661325,44.072707270727,0,0
60.984138833807,-32.747734661289,38.877137713771,2697118.5318048,-1658.9403066746,2772998.5661325,44.077137713771,0,0
60.984139119186,-32.751408799551,38.881568156816,2697118.5318048,-1658.9403066746,2772998.5661325,44.081568156816,0,0
60.984139404565,-32.755082937812,38.88599859986,2697118.5318048,-1658.9403066746,2772998.5661325,44.08599859986,0,0
60.984139689944,-32.758757076074,38.890429042904,2697118.5318048,-1658.9403066746,2772998.5661325,44.090429042904,0,0
60.984139975323,-32.762431214336,38.894859485949,2697118.5318048,-1658.9403066746,2772998.5661325,44.094859485949,0,0
60.984140260702,-32.766105352597,38.899289928993,2697118.5318048,-1658.9403066746,2772998.5661325,44.099289928993,0,0
60.984140546081,-32.769779490859,38.903720372037,2697118.5318048,-1658.9403066746,2772998.5661325,44.103720372037,0,0
60.98414083146,-32.77345362912,38.908150815082,2697118.5318048,-1658.9403066746,2772998.5661325,44.108150815082,0,0
60.984141116839,-32.777127767382,38.912581258126,2697118.5318048,-1658.9403066746,2772998.5661325,44.112581258126,0,0
60.984141402218,-32.780801905643,38.91701170117,2697118.5318048,-1658.9403066746,2772998.5661325,44.11701170117,0,0
60.984141687597,-32.784476043905,38.921442144214,2697118.5318048,-1658.9403066746,2772998.5661325,44.121442144214,0,0
60.984141972976,-32.788150182167,38.925872587259,2697118.5318048,-1658.9403066746,2772998.5661325,44.125872587259,0,0
60.984142258355,-32.791824320428,38.930303030303,2697118.5318048,-1658.9403066746,2772998.5661325,44.130303030303,0,0
60.984142543735,-32.79549845869,38.934733473347,2697118.5318048,-1658.9403066746,2772998.5661325,44.134733473347,0,0
60.984142829114,-32.799172596951,38.939163916392,2697118.5318048,-1658.9403066746,2772998.5661325,44.139163916392,0,0
60.984143114493,-32.802846735213,38.943594359436,2697118.5318048,-1658.9403066746,2772998.5661325,44.143594359436,0,0
60.984143399872,-32.806520873475,38.94802480248,2697118.5318048,-1658.9403066746,2772998.5661325,44.14802480248,0,0
60.984143685251,-32.810195011736,38.952455245525,2697118.5318048,-1658.9403066746,2772998.5661325,44.152455245525,0,0
60.98414397063,-32.813869149998,38.956885688569,2697118.5318048,-1658.9403066746,2772998.5661325,44.156885688569,0,0
60.984144256009,-32.817543288259,38.961316131613,2697118.5318048,-1658.9403066746,2772998.5661325,44.161316131613,0,0
60.984144541388,-32.821217426521,38.965746574657,2697118.5318048,-1658.9403066746,2772998.5661325,44.165746574657,0,0
60.984144826767,-32.824891564782,38.970177017702,2697118.5318048,-1658.9403066746,2772998.5661325,44.170177017702,0,0
60.984145112146,-32.828565703044,38.974607460746,2697118.5318048,-1658.9403066746,2772998.5661325,44.174607460746,0,0
60.984145397525,-32.832239841306,38.97903790379,2697118.5318048,-1658.9403066746,2772998.5661325,44.17903790379,0,0
60.984145682904,-32.835913979567,38.983468346835,2697118.5318048,-1658.9403066746,2772998.5661325,44.183468346835,0,0
60.984145968283,-32.839588117829,38.987898789879,2697118.5318048,-1658.9403066746,2772998.5661325,44.187898789879,0,0
60.984146253662,-32.84326225609,38.992329232923,2697118.5318048,-1658.9403066746,2772998.5661325,44.192329232923,0,0
60.984146539041,-32.846936394352,38.996759675968,2697118.5318048,-1658.9403066746,2772998.5661325,44.196759675968,0,0
60.98414682442,-32.850610532614,39.001190119012,2697118.5318048,-1658.9403066746,2772998.5661325,44.201190119012,0,0
60.984147109799,-32.854284670875,39.005620562056,2697118.5318048,-1658.9403066746,2772998.5661325,44.205620562056,0,0
60.984147395178,-32.857958809137,39.010051005101,2697118.5318048,-1658.9403066746,2772998.5661325,44.210051005101,0,0
60.984147680557,-32.861632947398,39.014481448145,2697118.5318048,-1658.9403066746,2772998.5661325,44.214481448145,0,0
60.984147965936,-32.86530708566,39.018911891189,2697118.5318048,-1658.9403066746,2772998.5661325,44.218911891189,0,0
60.984148251315,-32.868981223921,39.023342334233,2697118.5318048,-1658.9403066746,2772998.5661325,44.223342334233,0,0
60.984148536694,-32.872655362183,39.027772777278,2697118.5318048,-1658.9403066746,2772998.5661325,44.227772777278,0,0
60.984148822073,-32.876329500445,39.032203220322,2697118.5318048,-1658.9403066746,2772998.5661325,44.232203220322,0,0
60.984149107452,-32.880003638706,39.036633663366,2697118.5318048,-1658.9403066746,2772998.5661325,44.236633663366,0,0
60.984149392831,-32.883677776968,39.041064106411,2697118.5318048,-1658.9403066746,2772998.5661325,44.241064106411,0,0
60.98414967821,-32.887351915229,39.045494549455,2697118.5318048,-1658.9403066746,2772998.5661325,44.245494549455,0,0
60.984149963589,-32.891026053491,39.049924992499,2697118.5318048,-1658.9403066746,2772998.5661325,44.249924992499,0,0
60.984150248968,-32.894700191753,39.054355435544,2697118.5318048,-1658.9403066746,2772998.5661325,44.254355435544,0,0
60.984150534347,-32.898374330014,39.058785878588,2697118.5318048,-1658.9403066746,2772998.5661325,44.258785878588,0,0
60.984150819726,-32.902048468276,39.063216321632,2697118.5318048,-1658.9403066746,2772998.5661325,44.263216321632,0,0
60.984151105105,-32.905722606537,39.067646764676,2697118.5318048,-1658.9403066746,2772998.5661325,44.267646764676,0,0
60.984151390484,-32.909396744799,39.072077207721,2697118.5318048,-1658.9403066746,2772998.5661325,44.272077207721,0,0
60.984151675863,-32.91307088306,39.076507650765,2697118.5318048,-1658.9403066746,2772998.5661325,44.276507650765,0,0
60.984151961242,-32.916745021322,39.080938093809,2697118.5318048,-1658.9403066746,2772998.5661325,44.280938093809,0,0
60.984152246621,-32.920419159584,39.085368536854,2697118.5318048,-1658.9403066746,2772998.5661325,44.285368536854,0,0
60.984152532001,-32.924093297845,39.089798979898,2697118.5318048,-1658.9403066746,2772998.5661325,44.289798979898,0,0
60.98415281738,-32.927767436107,39.094229422942,2697118.5318048,-1658.9403066746,2772998.5661325,44.294229422942,0,0
60.984153102759,-32.931441574368,39.098659865987,2697118.5318048,-1658.9403066746,2772998.5661325,44.298659865987,0,0
60.984153388138,-32.93511571263,39.103090309031,2697118.5318048,-1658.9403066746,2772998.5661325,44.303090309031,0,0
60.984153673517,-32.938789850892,39.107520752075,2697118.5318048,-1658.9403066746,2772998.5661325,44.307520752075,0,0
60.984153958896,-32.942463989153,39.11195119512,2697118.5318048,-1658.9403066746,2772998.5661325,44.31195119512,0,0
60.984154244275,-32.946138127415,39.116381638164,2697118.5318048,-1658.9403066746,2772998.5661325,44.316381638164,0,0
60.984154529654,-32.949812265676,39.120812081208,2697118.5318048,-1658.9403066746,2772998.5661325,44.320812081208,0,0
60.984154815033,-32.953486403938,39.125242524252,2697118.5318048,-1658.9403066746,2772998.5661325,44.325242524252,0,0
60.984155100412,-32.9571605422,39.129672967297,2697118.5318048,-1658.9403066746,2772998.5661325,44.329672967297,0,0
60.984155385791,-32.960834680461,39.134103410341,2697118.5318048,-1658.9403066746,2772998.5661325,44.334103410341,0,0
60.98415567117,-32.964508818723,39.138533853385,2697118.5318048,-1658.9403066746,2772998.5661325,44.338533853385,0,0
60.984155956549,-32.968182956984,39.14296429643,2697118.5318048,-1658.9403066746,2772998.5661325,44.34296429643,0,0
60.984156241928,-32.971857095246,39.147394739474,2697118.5318048,-1658.9403066746,2772998.5661325,44.347394739474,0,0
60.984156527307,-32.975531233507,39.151825182518,2697118.5318048,-1658.9403066746,2772998.5661325,44.351825182518,0,0
60.984156812686,-32.979205371769,39.156255625563,2697118.5318048,-1658.9403066746,2772998.5661325,44.356255625563,0,0
60.984157098065,-32.982879510031,39.160686068607,2697118.5318048,-1658.9403066746,2772998.5661325,44.360686068607,0,0
60.984157383444,-32.986553648292,39.165116511651,2697118.5318048,-1658.9403066746,2772998.5661325,44.365116511651,0,0
60.984157668823,-32.990227786554,39.169546954695,2697118.5318048,-1658.9403066746,2772998.5661325,44.369546954695,0,0
60.984157954202,-32.993901924815,39.17397739774,2697118.5318048,-1658.9403066746,2772998.5661325,44.37397739774,0,0
60.984158239581,-32.997576063077,39.178407840784,2697118.5318048,-1658.9403066746,2772998.5661325,44.378407840784,0,0
60.98415852496,-33.001250201339,39.182838283828,2697118.5318048,-1658.9403066746,2772998.5661325,44.382838283828,0,0
60.984158810339,-33.0049243396,39.187268726873,2697118.5318048,-1658.9403066746,2772998.5661325,44.387268726873,0,0
60.984159095718,-33.008598477862,39.191699169917,2697118.5318048,-1658.9403066746,2772998.5661325,44.391699169917,0,0
60.984159381097,-33.012272616123,39.196129612961,2697118.5318048,-1658.9403066746,2772998.5661325,44.396129612961,0,0
60.984159666476,-33.015946754385,39.200560056006,2697118.5318048,-1658.9403066746,2772998.5661325,44.400560056006,0,0
60.984159951855,-33.019620892646,39.20499049905,2697118.5318048,-1658.9403066746,2772998.5661325,44.40499049905,0,0
60.984160237234,-33.023295030908,39.209420942094,2697118.5318048,-1658.9403066746,2772998.5661325,44.409420942094,0,0
60.984160522613,-33.02696916917,39.213851385139,2697118.5318048,-1658.9403066746,2772998.5661325,44.413851385139,0,0
60.984160807992,-33.030643307431,39.218281828183,2697118.5318048,-1658.9403066746,2772998.5661325,44.418281828183,0,0
60.984161093371,-33.034317445693,39.222712271227,2697118.5318048,-1658.9403066746,2772998.5661325,44.422712271227,0,0
60.98416137875,-33.037991583954,39.227142714271,2697118.5318048,-1658.9403066746,2772998.5661325,44.427142714271,0,0
60.984161664129,-33.041665722216,39.231573157316,2697118.5318048,-1658.9403066746,2772998.5661325,44.431573157316,0,0
60.984161949508,-33.045339860478,39.23600360036,2697118.5318048,-1658.9403066746,2772998.5661325,44.43600360036,0,0
60.984162234887,-33.049013998739,39.240434043404,2697118.5318048,-1658.9403066746,2772998.5661325,44.440434043404,0,0
60.984162520267,-33.052688137001,39.244864486449,2697118.5318048,-1658.9403066746,2772998.5661325,44.444864486449,0,0
60.984162805646,-33.056362275262,39.249294929493,2697118.5318048,-1658.9403066746,2772998.5661325,44.449294929493,0,0
60.984163091025,-33.060036413524,39.253725372537,2697118.5318048,-1658.9403066746,2772998.5661325,44.453725372537,0,0
60.984163376404,-33.063710551786,39.258155815582,2697118.5318048,-1658.9403066746,2772998.5661325,44.458155815582,0,0
60.984163661783,-33.067384690047,39.262586258626,2697118.5318048,-1658.9403066746,2772998.5661325,44.462586258626,0,0
60.984163947162,-33.071058828309,39.26701670167,2697118.5318048,-1658.9403066746,2772998.5661325,44.46701670167,0,0
60.984164232541,-33.07473296657,39.271447144714,2697118.5318048,-1658.9403066746,2772998.5661325,44.471447144714,0,0
60.98416451792,-33.078407104832,39.275877587759,2697118.5318048,-1658.9403066746,2772998.5661325,44.475877587759,0,0
60.984164803299,-33.082081243093,39.280308030803,2697118.5318048,-1658.9403066746,2772998.5661325,44.480308030803,0,0
60.984165088678,-33.085755381355,39.284738473847,2697118.5318048,-1658.9403066746,2772998.5661325,44.484738473847,0,0
60.984165374057,-33.089429519617,39.289168916892,2697118.5318048,-1658.9403066746,2772998.5661325,44.489168916892,0,0
60.984165659436,-33.093103657878,39.293599359936,2697118.5318048,-1658.9403066746,2772998.5661325,44.493599359936,0,0
60.984165944815,-33.09677779614,39.29802980298,2697118.5318048,-1658.9403066746,2772998.5661325,44.49802980298,0,0
60.984166230194,-33.100451934401,39.302460246025,2697118.5318048,-1658.9403066746,2772998.5661325,44.502460246025,0,0
60.984166515573,-33.104126072663,39.306890689069,2697118.5318048,-1658.9403066746,2772998.5661325,44.506890689069,0,0
60.984166800952,-33.107800210925,39.311321132113,2697118.5318048,-1658.9403066746,2772998.5661325,44.511321132113,0,0
60.984167086331,-33.111474349186,39.315751575158,2697118.5318048,-1658.9403066746,2772998.5661325,44.515751575158,0,0
60.98416737171,-33.115148487448,39.320182018202,2697118.5318048,-1658.9403066746,2772998.5661325,44.520182018202,0,0
60.984167657089,-33.118822625709,39.324612461246,2697118.5318048,-1658.9403066746,2772998.5661325,44.524612461246,0,0
60.984167942468,-33.122496763971,39.32904290429,2697118.5318048,-1658.9403066746,2772998.5661325,44.52904290429,0,0
60.984168227826,-33.126170902233,39.333473347335,2696859.8853999,1565.8080507365,2773135.9520929,44.533473347335,0,0
60.984168513181,-33.129845040495,39.337903790379,2696859.8853999,1565.8080507365,2773135.9520929,44.537903790379,0,0
60.984168798536,-33.133519178757,39.342334233423,2696859.8853999,1565.8080507365,2773135.9520929,44.542334233423,0,0
60.98416908389,-33.13719331702,39.346764676468,2696859.8853999,1565.8080507365,2773135.9520929,44.546764676468,0,0
60.984169369245,-33.140867455282,39.351195119512,2696859.8853999,1565.8080507365,2773135.9520929,44.551195119512,0,0
60.9841696546,-33.144541593544,39.355625562556,2696859.8853999,1565.8080507365,2773135.9520929,44.555625562556,0,0
60.984169939954,-33.148215731806,39.360056005601,2696859.8853999,1565.8080507365,2773135.9520929,44.560056005601,0,0
60.984170225309,-33.151889870069,39.364486448645,2696859.8853999,1565.8080507365,2773135.9520929,44.564486448645,0,0
60.984170510664,-33.155564008331,39.368916891689,2696859.8853999,1565.8080507365,2773135.9520929,44.568916891689,0,0
60.984170796019,-33.159238146593,39.373347334733,2696859.8853999,1565.8080507365,2773135.9520929,44.573347334733,0,0
60.984171081373,-33.162912284855,39.377777777778,2696859.8853999,1565.8080507365,2773135.9520929,44.577777777778,0,0
60.984171366728,-33.166586423117,39.382208220822,2696859.8853999,1565.8080507365,2773135.9520929,44.582208220822,0,0
60.984171652083,-33.17026056138,39.386638663866,2696859.8853999,1565.8080507365,2773135.9520929,44.586638663866,0,0
60.984171937437,-33.173934699642,39.391069106911,2696859.8853999,1565.8080507365,2773135.9520929,44.591069106911,0,0
60.984172222792,-33.177608837904,39.395499549955,2696859.8853999,1565.8080507365,2773135.9520929,44.595499549955,0,0
60.984172508147,-33.181282976166,39.399929992999,2696859.8853999,1565.8080507365,2773135.9520929,44.599929992999,0,0
60.984172793502,-33.184957114428,39.404360436044,2696859.8853999,1565.8080507365,2773135.9520929,44.604360436044,0,0
60.984173078856,-33.188631252691,39.408790879088,2696859.8853999,1565.8080507365,2773135.9520929,44.608790879088,0,0
60.984173364211,-33.192305390953,39.413221322132,2696859.8853999,1565.8080507365,2773135.9520929,44.613221322132,0,0
60.984173649566,-33.195979529215,39.417651765177,2696859.8853999,1565.8080507365,2773135.9520929,44.617651765177,0,0
60.98417393492,-33.199653667477,39.422082208221,2696859.8853999,1565.8080507365,2773135.9520929,44.622082208221,0,0
60.984174220275,-33.20332780574,39.426512651265,2696859.8853999,1565.8080507365,2773135.9520929,44.626512651265,0,0
60.98417450563,-33.207001944002,39.430943094309,2696859.8853999,1565.8080507365,2773135.9520929,44.630943094309,0,0
60.984174790985,-33.210676082264,39.435373537354,2696859.8853999,1565.8080507365,2773135.9520929,44.635373537354,0,0
60.984175076339,-33.214350220526,39.439803980398,2696859.8853999,1565.8080507365,2773135.9520929,44.639803980398,0,0
60.984175361694,-33.218024358788,39.444234423442,2696859.8853999,1565.8080507365,2773135.9520929,44.644234423442,0,0
60.984175647049,-33.221698497051,39.448664866487,2696859.8853999,1565.8080507365,2773135.9520929,44.648664866487,0,0
60.984175932403,-33.225372635313,39.453095309531,2696859.8853999,1565.8080507365,2773135.9520929,44.653095309531,0,0
60.984176217758,-33.229046773575,39.457525752575,2696859.8853999,1565.8080507365,2773135.9520929,44.657525752575,0,0
60.984176503113,-33.232720911837,39.46195619562,2696859.8853999,1565.8080507365,2773135.9520929,44.66195619562,0,0
60.984176788467,-33.2363950501,39.466386638664,2696859.8853999,1565.8080507365,2773135.9520929,44.666386638664,0,0
60.984177073822,-33.240069188362,39.470817081708,2696859.8853999,1565.8080507365,2773135.9520929,44.670817081708,0,0
60.984177359177,-33.243743326624,39.475247524752,2696859.8853999,1565.8080507365,2773135.9520929,44.675247524752,0,0
60.984177644532,-33.247417464886,39.479677967797,2696859.8853999,1565.8080507365,2773135.9520929,44.679677967797,0,0
60.984177929886,-33.251091603148,39.484108410841,2696859.8853999,1565.8080507365,2773135.9520929,44.684108410841,0,0
60.984178215241,-33.254765741411,39.488538853885,2696859.8853999,1565.8080507365,2773135.9520929,44.688538853885,0,0
60.984178500596,-33.258439879673,39.49296929693,2696859.8853999,1565.8080507365,2773135.9520929,44.69296929693,0,0
60.98417878595,-33.262114017935,39.497399739974,2696859.8853999,1565.8080507365,2773135.9520929,44.697399739974,0,0
60.984179071305,-33.265788156197,39.501830183018,2696859.8853999,1565.8080507365,2773135.9520929,44.701830183018,0,0
60.98417935666,-33.269462294459,39.506260626063,2696859.8853999,1565.8080507365,2773135.9520929,44.706260626063,0,0
60.984179642015,-33.273136432722,39.510691069107,2696859.8853999,1565.8080507365,2773135.9520929,44.710691069107,0,0
60.984179927369,-33.276810570984,39.515121512151,2696859.8853999,1565.8080507365,2773135.9520929,44.715121512151,0,0
60.984180212724,-33.280484709246,39.519551955196,2696859.8853999,1565.8080507365,2773135.9520929,44.719551955196,0,0
60.984180498079,-33.284158847508,39.52398239824,2696859.8853999,1565.8080507365,2773135.9520929,44.72398239824,0,0
60.984180783433,-33.287832985771,39.528412841284,2696859.8853999,1565.8080507365,2773135.9520929,44.728412841284,0,0
60.984181068788,-33.291507124033,39.532843284328,2696859.8853999,1565.8080507365,2773135.9520929,44.732843284328,0,0
60.984181354143,-33.295181262295,39.537273727373,2696859.8853999,1565.8080507365,2773135.9520929,44.737273727373,0,0
60.984181639498,-33.298855400557,39.541704170417,2696859.8853999,1565.8080507365,2773135.9520929,44.741704170417,0,0
60.984181924852,-33.302529538819,39.546134613461,2696859.8853999,1565.8080507365,2773135.9520929,44.746134613461,0,0
60.984182210207,-33.306203677082,39.550565056506,2696859.8853999,1565.8080507365,2773135.9520929,44.750565056506,0,0
60.984182495562,-33.309877815344,39.55499549955,2696859.8853999,1565.8080507365,2773135.9520929,44.75499549955,0,0
60.984182780916,-33.313551953606,39.559425942594,2696859.8853999,1565.8080507365,2773135.9520929,44.759425942594,0,0
60.984183066271,-33.317226091868,39.563856385639,2696859.8853999,1565.8080507365,2773135.9520929,44.763856385639,0,0
60.984183351626,-33.320900230131,39.568286828683,2696859.8853999,1565.8080507365,2773135.9520929,44.768286828683,0,0
60.984183636981,-33.324574368393,39.572717271727,2696859.8853999,1565.8080507365,2773135.9520929,44.772717271727,0,0
60.984183922335,-33.328248506655,39.577147714771,2696859.8853999,1565.8080507365,2773135.9520929,44.777147714771,0,0
60.98418420769,-33.331922644917,39.581578157816,2696859.8853999,1565.8080507365,2773135.9520929,44.781578157816,0,0
60.984184493045,-33.335596783179,39.58600860086,2696859.8853999,1565.8080507365,2773135.9520929,44.78600860086,0,0
60.984184778399,-33.339270921442,39.590439043904,2696859.8853999,1565.8080507365,2773135.9520929,44.790439043904,0,0
60.984185063754,-33.342945059704,39.594869486949,2696859.8853999,1565.8080507365,2773135.9520929,44.794869486949,0,0
60.984185349109,-33.346619197966,39.599299929993,2696859.8853999,1565.8080507365,2773135.9520929,44.799299929993,0,0
60.984185634464,-33.350293336228,39.603730373037,2696859.8853999,1565.8080507365,2773135.9520929,44.803730373037,0,0
60.984185919818,-33.35396747449,39.608160816082,2696859.8853999,1565.8080507365,2773135.9520929,44.808160816082,0,0
60.984186205173,-33.357641612753,39.612591259126,2696859.8853999,1565.8080507365,2773135.9520929,44.812591259126,0,0
60.984186490528,-33.361315751015,39.61702170217,2696859.8853999,1565.8080507365,2773135.9520929,44.81702170217,0,0
60.984186775882,-33.364989889277,39.621452145215,2696859.8853999,1565.8080507365,2773135.9520929,44.821452145215,0,0
60.984187061237,-33.368664027539,39.625882588259,2696859.8853999,1565.8080507365,2773135.9520929,44.825882588259,0,0
60.984187346592,-33.372338165802,39.630313031303,2696859.8853999,1565.8080507365,2773135.9520929,44.830313031303,0,0
60.984187631947,-33.376012304064,39.634743474347,2696859.8853999,1565.8080507365,2773135.9520929,44.834743474347,0,0
60.984187917301,-33.379686442326,39.639173917392,2696859.8853999,1565.8080507365,2773135.9520929,44.839173917392,0,0
60.984188202656,-33.383360580588,39.643604360436,2696859.8853999,1565.8080507365,2773135.9520929,44.843604360436,0,0
60.984188488011,-33.38703471885,39.64803480348,2696859.8853999,1565.8080507365,2773135.9520929,44.84803480348,0,0
60.984188773365,-33.390708857113,39.652465246525,2696859.8853999,1565.8080507365,2773135.9520929,44.852465246525,0,0
60.98418905872,-33.394382995375,39.656895689569,2696859.8853999,1565.8080507365,2773135.9520929,44.856895689569,0,0
60.984189344075,-33.398057133637,39.661326132613,2696859.8853999,1565.8080507365,2773135.9520929,44.861326132613,0,0
60.984189629429,-33.401731271899,39.665756575658,2696859.8853999,1565.8080507365,2773135.9520929,44.865756575658,0,0
60.984189914784,-33.405405410162,39.670187018702,2696859.8853999,1565.8080507365,2773135.9520929,44.870187018702,0,0
60.984190200139,-33.409079548424,39.674617461746,2696859.8853999,1565.8080507365,2773135.9520929,44.874617461746,0,0
60.984190485494,-33.412753686686,39.67904790479,2696859.8853999,1565.8080507365,2773135.9520929,44.87904790479,0,0
60.984190770848,-33.416427824948,39.683478347835,2696859.8853999,1565.8080507365,2773135.9520929,44.883478347835,0,0
60.984191056203,-33.42010196321,39.687908790879,2696859.8853999,1565.8080507365,2773135.9520929,44.887908790879,0,0
60.984191341558,-33.423776101473,39.692339233923,2696859.8853999,1565.8080507365,2773135.9520929,44.892339233923,0,0
60.984191626912,-33.427450239735,39.696769676968,2696859.8853999,1565.8080507365,2773135.9520929,44.896769676968,0,0
60.984191912267,-33.431124377997,39.701200120012,2696859.8853999,1565.8080507365,2773135.9520929,44.901200120012,0,0
60.984192197622,-33.434798516259,39.705630563056,2696859.8853999,1565.8080507365,2773135.9520929,44.905630563056,0,0
60.984192482977,-33.438472654521,39.710061006101,2696859.8853999,1565.8080507365,2773135.9520929,44.910061006101,0,0
60.984192768331,-33.442146792784,39.714491449145,2696859.8853999,1565.8080507365,2773135.9520929,44.914491449145,0,0
60.984193053686,-33.445820931046,39.718921892189,2696859.8853999,1565.8080507365,2773135.9520929,44.918921892189,0,0
60.984193339041,-33.449495069308,39.723352335234,2696859.8853999,1565.8080507365,2773135.9520929,44.923352335234,0,0
60.984193624395,-33.45316920757,39.727782778278,2696859.8853999,1565.8080507365,2773135.9520929,44.927782778278,0,0
60.98419390975,-33.456843345833,39.732213221322,2696859.8853999,1565.8080507365,2773135.9520929,44.932213221322,0,0
60.984194195105,-33.460517484095,39.736643664366,2696859.8853999,1565.8080507365,2773135.9520929,44.936643664366,0,0
60.98419448046,-33.464191622357,39.741074107411,2696859.8853999,1565.8080507365,2773135.9520929,44.941074107411,0,0
60.984194765814,-33.467865760619,39.745504550455,2696859.8853999,1565.8080507365,2773135.9520929,44.945504550455,0,0
60.984195051169,-33.471539898881,39.749934993499,2696859.8853999,1565.8080507365,2773135.9520929,44.949934993499,0,0
60.984195336524,-33.475214037144,39.754365436544,2696859.8853999,1565.8080507365,2773135.9520929,44.954365436544,0,0
60.984195621878,-33.478888175406,39.758795879588,2696859.8853999,1565.8080507365,2773135.9520929,44.958795879588,0,0
60.984195907233,-33.482562313668,39.763226322632,2696859.8853999,1565.8080507365,2773135.9520929,44.963226322632,0,0
60.984196192588,-33.48623645193,39.767656765677,2696859.8853999,1565.8080507365,2773135.9520929,44.967656765677,0,0
60.984196477943,-33.489910590192,39.772087208721,2696859.8853999,1565.8080507365,2773135.9520929,44.972087208721,0,0
60.984196763297,-33.493584728455,39.776517651765,2696859.8853999,1565.8080507365,2773135.9520929,44.976517651765,0,0
60.984197048652,-33.497258866717,39.780948094809,2696859.8853999,1565.8080507365,2773135.9520929,44.980948094809,0,0
60.984197334007,-33.500933004979,39.785378537854,2696859.8853999,1565.8080507365,2773135.9520929,44.985378537854,0,0
60.984197619361,-33.504607143241,39.789808980898,2696859.8853999,1565.8080507365,2773135.9520929,44.989808980898,0,0
60.984197904716,-33.508281281504,39.794239423942,2696859.8853999,1565.8080507365,2773135.9520929,44.994239423942,0,0
60.984198190071,-33.511955419766,39.798669866987,2696859.8853999,1565.8080507365,2773135.9520929,44.998669866987,0,0
60.984198475426,-33.515629558028,39.803100310031,2696859.8853999,1565.8080507365,2773135.9520929,45.003100310031,0,0
60.98419876078,-33.51930369629,39.807530753075,2696859.8853999,1565.8080507365,2773135.9520929,45.007530753075,0,0
60.984199046135,-33.522977834552,39.81196119612,2696859.8853999,1565.8080507365,2773135.9520929,45.01196119612,0,0
60.98419933149,-33.526651972815,39.816391639164,2696859.8853999,1565.8080507365,2773135.9520929,45.016391639164,0,0
60.984199616844,-33.530326111077,39.820822082208,2696859.8853999,1565.8080507365,2773135.9520929,45.020822082208,0,0
60.984199902199,-33.534000249339,39.825252525253,2696859.8853999,1565.8080507365,2773135.9520929,45.025252525253,0,0
60.984200187554,-33.537674387601,39.829682968297,2696859.8853999,1565.8080507365,2773135.9520929,45.029682968297,0,0
60.984200472909,-33.541348525864,39.834113411341,2696859.8853999,1565.8080507365,2773135.9520929,45.034113411341,0,0
60.984200758263,-33.545022664126,39.838543854385,2696859.8853999,1565.8080507365,2773135.9520929,45.038543854385,0,0
60.984201043618,-33.548696802388,39.84297429743,2696859.8853999,1565.8080507365,2773135.9520929,45.04297429743,0,0
60.984201328973,-33.55237094065,39.847404740474,2696859.8853999,1565.8080507365,2773135.9520929,45.047404740474,0,0
60.984201614327,-33.556045078912,39.851835183518,2696859.8853999,1565.8080507365,2773135.9520929,45.051835183518,0,0
60.984201899682,-33.559719217175,39.856265626563,2696859.8853999,1565.8080507365,2773135.9520929,45.056265626563,0,0
60.984202185037,-33.563393355437,39.860696069607,2696859.8853999,1565.8080507365,2773135.9520929,45.060696069607,0,0
60.984202470391,-33.567067493699,39.865126512651,2696859.8853999,1565.8080507365,2773135.9520929,45.065126512651,0,0
60.984202755746,-33.570741631961,39.869556955696,2696859.8853999,1565.8080507365,2773135.9520929,45.069556955696,0,0
60.984203041101,-33.574415770223,39.87398739874,2696859.8853999,1565.8080507365,2773135.9520929,45.07398739874,0,0
60.984203326456,-33.578089908486,39.878417841784,2696859.8853999,1565.8080507365,2773135.9520929,45.078417841784,0,0
60.98420361181,-33.581764046748,39.882848284828,2696859.8853999,1565.8080507365,2773135.9520929,45.082848284828,0,0
60.984203897165,-33.58543818501,39.887278727873,2696859.8853999,1565.8080507365,2773135.9520929,45.087278727873,0,0
60.98420418252,-33.589112323272,39.891709170917,2696859.8853999,1565.8080507365,2773135.9520929,45.091709170917,0,0
60.984204467874,-33.592786461535,39.896139613961,2696859.8853999,1565.8080507365,2773135.9520929,45.096139613961,0,0
60.984204753229,-33.596460599797,39.900570057006,2696859.8853999,1565.8080507365,2773135.9520929,45.100570057006,0,0
60.984205038584,-33.600134738059,39.90500050005,2696859.8853999,1565.8080507365,2773135.9520929,45.10500050005,0,0
60.984205323939,-33.603808876321,39.909430943094,2696859.8853999,1565.8080507365,2773135.9520929,45.109430943094,0,0
60.984205609293,-33.607483014583,39.913861386139,2696859.8853999,1565.8080507365,2773135.9520929,45.113861386139,0,0
60.984205894648,-33.611157152846,39.918291829183,2696859.8853999,1565.8080507365,2773135.9520929,45.118291829183,0,0
60.984206180003,-33.614831291108,39.922722272227,2696859.8853999,1565.8080507365,2773135.9520929,45.122722272227,0,0
60.984206465357,-33.61850542937,39.927152715272,2696859.8853999,1565.8080507365,2773135.9520929,45.127152715272,0,0
60.984206750712,-33.622179567632,39.931583158316,2696859.8853999,1565.8080507365,2773135.9520929,45.131583158316,0,0
60.984207036067,-33.625853705895,39.93601360136,2696859.8853999,1565.8080507365,2773135.9520929,45.13601360136,0,0
60.984207321422,-33.629527844157,39.940444044404,2696859.8853999,1565.8080507365,2773135.9520929,45.140444044404,0,0
60.984207606776,-33.633201982419,39.944874487449,2696859.8853999,1565.8080507365,2773135.9520929,45.144874487449,0,0
60.984207892131,-33.636876120681,39.949304930493,2696859.8853999,1565.8080507365,2773135.9520929,45.149304930493,0,0
60.984208177486,-33.640550258943,39.953735373537,2696859.8853999,1565.8080507365,2773135.9520929,45.153735373537,0,0
60.98420846284,-33.644224397206,39.958165816582,2696859.8853999,1565.8080507365,2773135.9520929,45.158165816582,0,0
60.984208748195,-33.647898535468,39.962596259626,2696859.8853999,1565.8080507365,2773135.9520929,45.162596259626,0,0
60.98420903355,-33.65157267373,39.96702670267,2696859.8853999,1565.8080507365,2773135.9520929,45.16702670267,0,0
60.984209318905,-33.655246811992,39.971457145715,2696859.8853999,1565.8080507365,2773135.9520929,45.171457145715,0,0
60.984209604259,-33.658920950254,39.975887588759,2696859.8853999,1565.8080507365,2773135.9520929,45.175887588759,0,0
60.984209889614,-33.662595088517,39.980318031803,2696859.8853999,1565.8080507365,2773135.9520929,45.180318031803,0,0
60.984210174969,-33.666269226779,39.984748474847,2696859.8853999,1565.8080507365,2773135.9520929,45.184748474847,0,0
60.984210460323,-33.669943365041,39.989178917892,2696859.8853999,1565.8080507365,2773135.9520929,45.189178917892,0,0
60.984210745678,-33.673617503303,39.993609360936,2696859.8853999,1565.8080507365,2773135.9520929,45.193609360936,0,0
60.984211031033,-33.677291641566,39.99803980398,2696859.8853999,1565.8080507365,2773135.9520929,45.19803980398,0,0
60.984211316388,-33.680965779828,40.002470247025,2696859.8853999,1565.8080507365,2773135.9520929,45.202470247025,0,0
60.984211601742,-33.68463991809,40.006900690069,2696859.8853999,1565.8080507365,2773135.9520929,45.206900690069,0,0
60.984211887097,-33.688314056352,40.011331133113,2696859.8853999,1565.8080507365,2773135.9520929,45.211331133113,0,0
60.984212172452,-33.691988194614,40.015761576158,2696859.8853999,1565.8080507365,2773135.9520929,45.215761576158,0,0
60.984212457806,-33.695662332877,40.020192019202,2696859.8853999,1565.8080507365,2773135.9520929,45.220192019202,0,0
60.984212743161,-33.699336471139,40.024622462246,2696859.8853999,1565.8080507365,2773135.9520929,45.224622462246,0,0
60.984213028516,-33.703010609401,40.029052905291,2696859.8853999,1565.8080507365,2773135.9520929,45.229052905291,0,0
60.98421331387,-33.706684747663,40.033483348335,2696859.8853999,1565.8080507365,2773135.9520929,45.233483348335,0,0
60.984213599225,-33.710358885926,40.037913791379,2696859.8853999,1565.8080507365,2773135.9520929,45.237913791379,0,0
60.98421388458,-33.714033024188,40.042344234423,2696859.8853999,1565.8080507365,2773135.9520929,45.242344234423,0,0
60.984214169935,-33.71770716245,40.046774677468,2696859.8853999,1565.8080507365,2773135.9520929,45.246774677468,0,0
60.984214455289,-33.721381300712,40.051205120512,2696859.8853999,1565.8080507365,2773135.9520929,45.251205120512,0,0
60.984214740644,-33.725055438974,40.055635563556,2696859.8853999,1565.8080507365,2773135.9520929,45.255635563556,0,0
60.984215025999,-33.728729577237,40.060066006601,2696859.8853999,1565.8080507365,2773135.9520929,45.260066006601,0,0
60.984215311353,-33.732403715499,40.064496449645,2696859.8853999,1565.8080507365,2773135.9520929,45.264496449645,0,0
60.984215596708,-33.736077853761,40.068926892689,2696859.8853999,1565.8080507365,2773135.9520929,45.268926892689,0,0
60.984215882063,-33.739751992023,40.073357335734,2696859.8853999,1565.8080507365,2773135.9520929,45.273357335734,0,0
60.984216167418,-33.743426130285,40.077787778778,2696859.8853999,1565.8080507365,2773135.9520929,45.277787778778,0,0
60.984216452772,-33.747100268548,40.082218221822,2696859.8853999,1565.8080507365,2773135.9520929,45.282218221822,0,0
60.984216738127,-33.75077440681,40.086648664866,2696859.8853999,1565.8080507365,2773135.9520929,45.286648664866,0,0
60.984217023482,-33.754448545072,40.091079107911,2696859.8853999,1565.8080507365,2773135.9520929,45.291079107911,0,0
60.984217308836,-33.758122683334,40.095509550955,2696859.8853999,1565.8080507365,2773135.9520929,45.295509550955,0,0
60.984217594191,-33.761796821597,40.099939993999,2696859.8853999,1565.8080507365,2773135.9520929,45.299939993999,0,0
60.984217879546,-33.765470959859,40.104370437044,2696859.8853999,1565.8080507365,2773135.9520929,45.304370437044,0,0
60.984218164901,-33.769145098121,40.108800880088,2696859.8853999,1565.8080507365,2773135.9520929,45.308800880088,0,0
60.984218450255,-33.772819236383,40.113231323132,2696859.8853999,1565.8080507365,2773135.9520929,45.313231323132,0,0
60.98421873561,-33.776493374645,40.117661766177,2696859.8853999,1565.8080507365,2773135.9520929,45.317661766177,0,0
60.984219020965,-33.780167512908,40.122092209221,2696859.8853999,1565.8080507365,2773135.9520929,45.322092209221,0,0
60.984219306319,-33.78384165117,40.126522652265,2696859.8853999,1565.8080507365,2773135.9520929,45.326522652265,0,0
60.984219591674,-33.787515789432,40.13095309531,2696859.8853999,1565.8080507365,2773135.9520929,45.33095309531,0,0
60.984219877029,-33.791189927694,40.135383538354,2696859.8853999,1565.8080507365,2773135.9520929,45.335383538354,0,0
60.984220162384,-33.794864065957,40.139813981398,2696859.8853999,1565.8080507365,2773135.9520929,45.339813981398,0,0
60.984220447738,-33.798538204219,40.144244424442,2696859.8853999,1565.8080507365,2773135.9520929,45.344244424442,0,0
60.984220733093,-33.802212342481,40.148674867487,2696859.8853999,1565.8080507365,2773135.9520929,45.348674867487,0,0
60.984221018448,-33.805886480743,40.153105310531,2696859.8853999,1565.8080507365,2773135.9520929,45.353105310531,0,0
60.984221303802,-33.809560619005,40.157535753575,2696859.8853999,1565.8080507365,2773135.9520929,45.357535753575,0,0
60.984221589157,-33.813234757268,40.16196619662,2696859.8853999,1565.8080507365,2773135.9520929,45.36196619662,0,0
60.984221874512,-33.81690889553,40.166396639664,2696859.8853999,1565.8080507365,2773135.9520929,45.366396639664,0,0
60.984222159867,-33.820583033792,40.170827082708,2696859.8853999,1565.8080507365,2773135.9520929,45.370827082708,0,0
60.984222445221,-33.824257172054,40.175257525753,2696859.8853999,1565.8080507365,2773135.9520929,45.375257525753,0,0
60.984222730576,-33.827931310316,40.179687968797,2696859.8853999,1565.8080507365,2773135.9520929,45.379687968797,0,0
60.984223015931,-33.831605448579,40.184118411841,2696859.8853999,1565.8080507365,2773135.9520929,45.384118411841,0,0
60.984223301285,-33.835279586841,40.188548854885,2696859.8853999,1565.8080507365,2773135.9520929,45.388548854885,0,0
60.98422358664,-33.838953725103,40.19297929793,2696859.8853999,1565.8080507365,2773135.9520929,45.39297929793,0,0
60.984223871995,-33.842627863365,40.197409740974,2696859.8853999,1565.8080507365,2773135.9520929,45.397409740974,0,0
60.98422415735,-33.846302001628,40.201840184018,2696859.8853999,1565.8080507365,2773135.9520929,45.401840184018,0,0
60.984224442704,-33.84997613989,40.206270627063,2696859.8853999,1565.8080507365,2773135.9520929,45.406270627063,0,0
60.984224728059,-33.853650278152,40.210701070107,2696859.8853999,1565.8080507365,2773135.9520929,45.410701070107,0,0
60.984225013414,-33.857324416414,40.215131513151,2696859.8853999,1565.8080507365,2773135.9520929,45.415131513151,0,0
60.984225298768,-33.860998554676,40.219561956196,2696859.8853999,1565.8080507365,2773135.9520929,45.419561956196,0,0
60.984225584123,-33.864672692939,40.22399239924,2696859.8853999,1565.8080507365,2773135.9520929,45.42399239924,0,0
60.984225869478,-33.868346831201,40.228422842284,2696859.8853999,1565.8080507365,2773135.9520929,45.428422842284,0,0
60.984226154832,-33.872020969463,40.232853285329,2696859.8853999,1565.8080507365,2773135.9520929,45.432853285329,0,0
60.984226440187,-33.875695107725,40.237283728373,2696859.8853999,1565.8080507365,2773135.9520929,45.437283728373,0,0
60.984226725542,-33.879369245988,40.241714171417,2696859.8853999,1565.8080507365,2773135.9520929,45.441714171417,0,0
60.984227010897,-33.88304338425,40.246144614461,2696859.8853999,1565.8080507365,2773135.9520929,45.446144614461,0,0
60.984227296251,-33.886717522512,40.250575057506,2696859.8853999,1565.8080507365,2773135.9520929,45.450575057506,0,0
60.984227581606,-33.890391660774,40.25500550055,2696859.8853999,1565.8080507365,2773135.9520929,45.45500550055,0,0
60.984227866961,-33.894065799036,40.259435943594,2696859.8853999,1565.8080507365,2773135.9520929,45.459435943594,0,0
60.984228152315,-33.897739937299,40.263866386639,2696859.8853999,1565.8080507365,2773135.9520929,45.463866386639,0,0
60.98422843767,-33.901414075561,40.268296829683,2696859.8853999,1565.8080507365,2773135.9520929,45.468296829683,0,0
60.984228723025,-33.905088213823,40.272727272727,2696859.8853999,1565.8080507365,2773135.9520929,45.472727272727,0,0
60.98422900838,-33.908762352085,40.277157715772,2696859.8853999,1565.8080507365,2773135.9520929,45.477157715772,0,0
60.984229293734,-33.912436490347,40.281588158816,2696859.8853999,1565.8080507365,2773135.9520929,45.481588158816,0,0
60.984229579089,-33.91611062861,40.28601860186,2696859.8853999,1565.8080507365,2773135.9520929,45.48601860186,0,0
60.984229864444,-33.919784766872,40.290449044904,2696859.8853999,1565.8080507365,2773135.9520929,45.490449044904,0,0
60.984230149798,-33.923458905134,40.294879487949,2696859.8853999,1565.8080507365,2773135.9520929,45.494879487949,0,0
60.984230435153,-33.927133043396,40.299309930993,2696859.8853999,1565.8080507365,2773135.9520929,45.499309930993,0,0
60.984230720508,-33.930807181659,40.303740374037,2696859.8853999,1565.8080507365,2773135.9520929,45.503740374037,0,0
60.984231005863,-33.934481319921,40.308170817082,2696859.8853999,1565.8080507365,2773135.9520929,45.508170817082,0,0
60.984231291217,-33.938155458183,40.312601260126,2696859.8853999,1565.8080507365,2773135.9520929,45.512601260126,0,0
60.984231576572,-33.941829596445,40.31703170317,2696859.8853999,1565.8080507365,2773135.9520929,45.51703170317,0,0
60.984231861927,-33.945503734707,40.321462146215,2696859.8853999,1565.8080507365,2773135.9520929,45.521462146215,0,0
60.984232147281,-33.94917787297,40.325892589259,2696859.8853999,1565.8080507365,2773135.9520929,45.525892589259,0,0
60.984232432636,-33.952852011232,40.330323032303,2696859.8853999,1565.8080507365,2773135.9520929,45.530323032303,0,0
60.984232717991,-33.956526149494,40.334753475348,2696859.8853999,1565.8080507365,2773135.9520929,45.534753475348,0,0
60.984233003346,-33.960200287756,40.339183918392,2696859.8853999,1565.8080507365,2773135.9520929,45.539183918392,0,0
60.9842332887,-33.963874426019,40.343614361436,2696859.8853999,1565.8080507365,2773135.9520929,45.543614361436,0,0
60.984233574055,-33.967548564281,40.34804480448,2696859.8853999,1565.8080507365,2773135.9520929,45.54804480448,0,0
60.98423385941,-33.971222702543,40.352475247525,2696859.8853999,1565.8080507365,2773135.9520929,45.552475247525,0,0
60.984234144764,-33.974896840805,40.356905690569,2696859.8853999,1565.8080507365,2773135.9520929,45.556905690569,0,0
60.984234430119,-33.978570979067,40.361336133613,2696859.8853999,1565.8080507365,2773135.9520929,45.561336133613,0,0
60.984234715474,-33.98224511733,40.365766576658,2696859.8853999,1565.8080507365,2773135.9520929,45.565766576658,0,0
60.984235000829,-33.985919255592,40.370197019702,2696859.8853999,1565.8080507365,2773135.9520929,45.570197019702,0,0
60.984235286183,-33.989593393854,40.374627462746,2696859.8853999,1565.8080507365,2773135.9520929,45.574627462746,0,0
60.984235571538,-33.993267532116,40.379057905791,2696859.8853999,1565.8080507365,2773135.9520929,45.579057905791,0,0
60.984235856893,-33.996941670378,40.383488348835,2696859.8853999,1565.8080507365,2773135.9520929,45.583488348835,0,0
60.984236142247,-34.000615808641,40.387918791879,2696859.8853999,1565.8080507365,2773135.9520929,45.587918791879,0,0
60.984236427602,-34.004289946903,40.392349234923,2696859.8853999,1565.8080507365,2773135.9520929,45.592349234923,0,0
60.984236712957,-34.007964085165,40.396779677968,2696859.8853999,1565.8080507365,2773135.9520929,45.596779677968,0,0
60.984236998312,-34.011638223427,40.401210121012,2696859.8853999,1565.8080507365,2773135.9520929,45.601210121012,0,0
60.984237283666,-34.01531236169,40.405640564056,2696859.8853999,1565.8080507365,2773135.9520929,45.605640564056,0,0
60.984237569021,-34.018986499952,40.410071007101,2696859.8853999,1565.8080507365,2773135.9520929,45.610071007101,0,0
60.984237854376,-34.022660638214,40.414501450145,2696859.8853999,1565.8080507365,2773135.9520929,45.614501450145,0,0
60.98423813973,-34.026334776476,40.418931893189,2696859.8853999,1565.8080507365,2773135.9520929,45.618931893189,0,0
60.984238425085,-34.030008914738,40.423362336234,2696859.8853999,1565.8080507365,2773135.9520929,45.623362336234,0,0
60.98423871044,-34.033683053001,40.427792779278,2696859.8853999,1565.8080507365,2773135.9520929,45.627792779278,0,0
60.984238995794,-34.037357191263,40.432223222322,2696859.8853999,1565.8080507365,2773135.9520929,45.632223222322,0,0
60.984239281149,-34.041031329525,40.436653665367,2696859.8853999,1565.8080507365,2773135.9520929,45.636653665367,0,0
60.984239566504,-34.044705467787,40.441084108411,2696859.8853999,1565.8080507365,2773135.9520929,45.641084108411,0,0
60.984239851859,-34.048379606049,40.445514551455,2696859.8853999,1565.8080507365,2773135.9520929,45.645514551455,0,0
60.984240137213,-34.052053744312,40.449944994499,2696859.8853999,1565.8080507365,2773135.9520929,45.649944994499,0,0
60.984240422568,-34.055727882574,40.454375437544,2696859.8853999,1565.8080507365,2773135.9520929,45.654375437544,0,0
60.984240707923,-34.059402020836,40.458805880588,2696859.8853999,1565.8080507365,2773135.9520929,45.658805880588,0,0
60.984240993277,-34.063076159098,40.463236323632,2696859.8853999,1565.8080507365,2773135.9520929,45.663236323632,0,0
60.984241278632,-34.066750297361,40.467666766677,2696859.8853999,1565.8080507365,2773135.9520929,45.667666766677,0,0
60.984241563987,-34.070424435623,40.472097209721,2696859.8853999,1565.8080507365,2773135.9520929,45.672097209721,0,0
60.984241849342,-34.074098573885,40.476527652765,2696859.8853999,1565.8080507365,2773135.9520929,45.676527652765,0,0
60.984242134696,-34.077772712147,40.48095809581,2696859.8853999,1565.8080507365,2773135.9520929,45.68095809581,0,0
60.984242420051,-34.081446850409,40.485388538854,2696859.8853999,1565.8080507365,2773135.9520929,45.685388538854,0,0
60.984242705406,-34.085120988672,40.489818981898,2696859.8853999,1565.8080507365,2773135.9520929,45.689818981898,0,0
60.98424299076,-34.088795126934,40.494249424942,2696859.8853999,1565.8080507365,2773135.9520929,45.694249424942,0,0
60.984243276115,-34.092469265196,40.498679867987,2696859.8853999,1565.8080507365,2773135.9520929,45.698679867987,0,0
60.98424356147,-34.096143403458,40.503110311031,2696859.8853999,1565.8080507365,2773135.9520929,45.703110311031,0,0
60.984243846825,-34.099817541721,40.507540754075,2696859.8853999,1565.8080507365,2773135.9520929,45.707540754075,0,0
60.984244132179,-34.103491679983,40.51197119712,2696859.8853999,1565.8080507365,2773135.9520929,45.71197119712,0,0
60.984244417534,-34.107165818245,40.516401640164,2696859.8853999,1565.8080507365,2773135.9520929,45.716401640164,0,0
60.984244702889,-34.110839956507,40.520832083208,2696859.8853999,1565.8080507365,2773135.9520929,45.720832083208,0,0
60.984244988243,-34.114514094769,40.525262526253,2696859.8853999,1565.8080507365,2773135.9520929,45.725262526253,0,0
60.984245273598,-34.118188233032,40.529692969297,2696859.8853999,1565.8080507365,2773135.9520929,45.729692969297,0,0
60.984245558953,-34.121862371294,40.534123412341,2696859.8853999,1565.8080507365,2773135.9520929,45.734123412341,0,0
60.984245844308,-34.125536509556,40.538553855386,2696859.8853999,1565.8080507365,2773135.9520929,45.738553855386,0,0
60.984246129662,-34.129210647818,40.54298429843,2696859.8853999,1565.8080507365,2773135.9520929,45.74298429843,0,0
60.984246415017,-34.13288478608,40.547414741474,2696859.8853999,1565.8080507365,2773135.9520929,45.747414741474,0,0
60.984246700372,-34.136558924343,40.551845184518,2696859.8853999,1565.8080507365,2773135.9520929,45.751845184518,0,0
60.984246985726,-34.140233062605,40.556275627563,2696859.8853999,1565.8080507365,2773135.9520929,45.756275627563,0,0
60.984247271081,-34.143907200867,40.560706070607,2696859.8853999,1565.8080507365,2773135.9520929,45.760706070607,0,0
60.984247556436,-34.147581339129,40.565136513651,2696859.8853999,1565.8080507365,2773135.9520929,45.765136513651,0,0
60.984247841791,-34.151255477392,40.569566956696,2696859.8853999,1565.8080507365,2773135.9520929,45.769566956696,0,0
60.984248127145,-34.154929615654,40.57399739974,2696859.8853999,1565.8080507365,2773135.9520929,45.77399739974,0,0
60.9842484125,-34.158603753916,40.578427842784,2696859.8853999,1565.8080507365,2773135.9520929,45.778427842784,0,0
60.984248697855,-34.162277892178,40.582858285829,2696859.8853999,1565.8080507365,2773135.9520929,45.782858285829,0,0
60.984248983209,-34.16595203044,40.587288728873,2696859.8853999,1565.8080507365,2773135.9520929,45.787288728873,0,0
60.984249268564,-34.169626168703,40.591719171917,2696859.8853999,1565.8080507365,2773135.9520929,45.791719171917,0,0
60.984249553919,-34.173300306965,40.596149614961,2696859.8853999,1565.8080507365,2773135.9520929,45.796149614961,0,0
60.984249839274,-34.176974445227,40.600580058006,2696859.8853999,1565.8080507365,2773135.9520929,45.800580058006,0,0
60.984250124628,-34.180648583489,40.60501050105,2696859.8853999,1565.8080507365,2773135.9520929,45.80501050105,0,0
60.984250409983,-34.184322721752,40.609440944094,2696859.8853999,1565.8080507365,2773135.9520929,45.809440944094,0,0
60.984250695338,-34.187996860014,40.613871387139,2696859.8853999,1565.8080507365,2773135.9520929,45.813871387139,0,0
60.984250980692,-34.191670998276,40.618301830183,2696859.8853999,1565.8080507365,2773135.9520929,45.818301830183,0,0
60.984251266047,-34.195345136538,40.622732273227,2696859.8853999,1565.8080507365,2773135.9520929,45.822732273227,0,0
60.984251551402,-34.1990192748,40.627162716272,2696859.8853999,1565.8080507365,2773135.9520929,45.827162716272,0,0
60.984251836756,-34.202693413063,40.631593159316,2696859.8853999,1565.8080507365,2773135.9520929,45.831593159316,0,0
60.984252122111,-34.206367551325,40.63602360236,2696859.8853999,1565.8080507365,2773135.9520929,45.83602360236,0,0
60.984252407466,-34.210041689587,40.640454045405,2696859.8853999,1565.8080507365,2773135.9520929,45.840454045405,0,0
60.984252692821,-34.213715827849,40.644884488449,2696859.8853999,1565.8080507365,2773135.9520929,45.844884488449,0,0
60.984252978175,-34.217389966111,40.649314931493,2696859.8853999,1565.8080507365,2773135.9520929,45.849314931493,0,0
60.98425326353,-34.221064104374,40.653745374537,2696859.8853999,1565.8080507365,2773135.9520929,45.853745374537,0,0
60.984253548885,-34.224738242636,40.658175817582,2696859.8853999,1565.8080507365,2773135.9520929,45.858175817582,0,0
60.984253834239,-34.228412380898,40.662606260626,2696859.8853999,1565.8080507365,2773135.9520929,45.862606260626,0,0
60.984254119594,-34.23208651916,40.66703670367,2696859.8853999,1565.8080507365,2773135.9520929,45.86703670367,0,0
60.984254404949,-34.235760657423,40.671467146715,2696859.8853999,1565.8080507365,2773135.9520929,45.871467146715,0,0
60.984254690304,-34.239434795685,40.675897589759,2696859.8853999,1565.8080507365,2773135.9520929,45.875897589759,0,0
60.984254975658,-34.243108933947,40.680328032803,2696859.8853999,1565.8080507365,2773135.9520929,45.880328032803,0,0
60.984255261013,-34.246783072209,40.684758475848,2696859.8853999,1565.8080507365,2773135.9520929,45.884758475848,0,0
60.984255546368,-34.250457210471,40.689188918892,2696859.8853999,1565.8080507365,2773135.9520929,45.889188918892,0,0
60.984255831722,-34.254131348734,40.693619361936,2696859.8853999,1565.8080507365,2773135.9520929,45.893619361936,0,0
60.984256117077,-34.257805486996,40.69804980498,2696859.8853999,1565.8080507365,2773135.9520929,45.89804980498,0,0
60.984256402432,-34.261479625258,40.702480248025,2696859.8853999,1565.8080507365,2773135.9520929,45.902480248025,0,0
60.984256687787,-34.26515376352,40.706910691069,2696859.8853999,1565.8080507365,2773135.9520929,45.906910691069,0,0
60.984256973141,-34.268827901783,40.711341134113,2696859.8853999,1565.8080507365,2773135.9520929,45.911341134113,0,0
60.984257258496,-34.272502040045,40.715771577158,2696859.8853999,1565.8080507365,2773135.9520929,45.915771577158,0,0
60.984257543851,-34.276176178307,40.720202020202,2696859.8853999,1565.8080507365,2773135.9520929,45.920202020202,0,0
60.984257829205,-34.279850316569,40.724632463246,2696859.8853999,1565.8080507365,2773135.9520929,45.924632463246,0,0
60.98425811456,-34.283524454831,40.729062906291,2696859.8853999,1565.8080507365,2773135.9520929,45.929062906291,0,0
60.984258399915,-34.287198593094,40.733493349335,2696859.8853999,1565.8080507365,2773135.9520929,45.933493349335,0,0
60.98425868527,-34.290872731356,40.737923792379,2696859.8853999,1565.8080507365,2773135.9520929,45.937923792379,0,0
60.984258970624,-34.294546869618,40.742354235424,2696859.8853999,1565.8080507365,2773135.9520929,45.942354235424,0,0
60.984259255979,-34.29822100788,40.746784678468,2696859.8853999,1565.8080507365,2773135.9520929,45.946784678468,0,0
60.984259541334,-34.301895146142,40.751215121512,2696859.8853999,1565.8080507365,2773135.9520929,45.951215121512,0,0
60.984259826688,-34.305569284405,40.755645564556,2696859.8853999,1565.8080507365,2773135.9520929,45.955645564556,0,0
60.984260112043,-34.309243422667,40.760076007601,2696859.8853999,1565.8080507365,2773135.9520929,45.960076007601,0,0
60.984260397398,-34.312917560929,40.764506450645,2696859.8853999,1565.8080507365,2773135.9520929,45.964506450645,0,0
60.984260682753,-34.316591699191,40.768936893689,2696859.8853999,1565.8080507365,2773135.9520929,45.968936893689,0,0
60.984260968107,-34.320265837454,40.773367336734,2696859.8853999,1565.8080507365,2773135.9520929,45.973367336734,0,0
60.984261253462,-34.323939975716,40.777797779778,2696859.8853999,1565.8080507365,2773135.9520929,45.977797779778,0,0
60.984261538817,-34.327614113978,40.782228222822,2696859.8853999,1565.8080507365,2773135.9520929,45.982228222822,0,0
60.984261824171,-34.33128825224,40.786658665867,2696859.8853999,1565.8080507365,2773135.9520929,45.986658665867,0,0
60.984262109526,-34.334962390502,40.791089108911,2696859.8853999,1565.8080507365,2773135.9520929,45.991089108911,0,0
60.984262394881,-34.338636528765,40.795519551955,2696859.8853999,1565.8080507365,2773135.9520929,45.995519551955,0,0
60.984262680236,-34.342310667027,40.799949994999,2696859.8853999,1565.8080507365,2773135.9520929,45.999949994999,0,0
60.98426296559,-34.345984805289,40.804380438044,2696859.8853999,1565.8080507365,2773135.9520929,46.004380438044,0,0
60.984263250945,-34.349658943551,40.808810881088,2696859.8853999,1565.8080507365,2773135.9520929,46.008810881088,0,0
60.9842635363,-34.353333081814,40.813241324132,2696859.8853999,1565.8080507365,2773135.9520929,46.013241324132,0,0
60.984263821654,-34.357007220076,40.817671767177,2696859.8853999,1565.8080507365,2773135.9520929,46.017671767177,0,0
60.984264107009,-34.360681358338,40.822102210221,2696859.8853999,1565.8080507365,2773135.9520929,46.022102210221,0,0
60.984264392364,-34.3643554966,40.826532653265,2696859.8853999,1565.8080507365,2773135.9520929,46.026532653265,0,0
60.984264677718,-34.368029634862,40.83096309631,2696859.8853999,1565.8080507365,2773135.9520929,46.03096309631,0,0
60.984264963073,-34.371703773125,40.835393539354,2696859.8853999,1565.8080507365,2773135.9520929,46.035393539354,0,0
60.984265248428,-34.375377911387,40.839823982398,2696859.8853999,1565.8080507365,2773135.9520929,46.039823982398,0,0
60.984265533783,-34.379052049649,40.844254425443,2696859.8853999,1565.8080507365,2773135.9520929,46.044254425443,0,0
60.984265819137,-34.382726187911,40.848684868487,2696859.8853999,1565.8080507365,2773135.9520929,46.048684868487,0,0
60.984266104492,-34.386400326173,40.853115311531,2696859.8853999,1565.8080507365,2773135.9520929,46.053115311531,0,0
60.984266389847,-34.390074464436,40.857545754575,2696859.8853999,1565.8080507365,2773135.9520929,46.057545754575,0,0
60.984266675201,-34.393748602698,40.86197619762,2696859.8853999,1565.8080507365,2773135.9520929,46.06197619762,0,0
60.984266960556,-34.39742274096,40.866406640664,2696859.8853999,1565.8080507365,2773135.9520929,46.066406640664,0,0
60.984267245911,-34.401096879222,40.870837083708,2696859.8853999,1565.8080507365,2773135.9520929,46.070837083708,0,0
60.984267531266,-34.404771017485,40.875267526753,2696859.8853999,1565.8080507365,2773135.9520929,46.075267526753,0,0
60.98426781662,-34.408445155747,40.879697969797,2696859.8853999,1565.8080507365,2773135.9520929,46.079697969797,0,0
60.984268101975,-34.412119294009,40.884128412841,2696859.8853999,1565.8080507365,2773135.9520929,46.084128412841,0,0
60.98426838733,-34.415793432271,40.888558855886,2696859.8853999,1565.8080507365,2773135.9520929,46.088558855886,0,0
60.984268672782,-34.419467570614,40.89298929893,2700123.9656941,410.1622459075,2774953.0143795,46.09298929893,0,0
60.984268958349,-34.423141709052,40.897419741974,2700123.9656941,410.1622459075,2774953.0143795,46.097419741974,0,0
60.984269243916,-34.42681584749,40.901850185018,2700123.9656941,410.1622459075,2774953.0143795,46.101850185018,0,0
60.984269529483,-34.430489985929,40.906280628063,2700123.9656941,410.1622459075,2774953.0143795,46.106280628063,0,0
60.98426981505,-34.434164124367,40.910711071107,2700123.9656941,410.1622459075,2774953.0143795,46.110711071107,0,0
60.984270100617,-34.437838262805,40.915141514151,2700123.9656941,410.1622459075,2774953.0143795,46.115141514151,0,0
60.984270386185,-34.441512401243,40.919571957196,2700123.9656941,410.1622459075,2774953.0143795,46.119571957196,0,0
60.984270671752,-34.445186539681,40.92400240024,2700123.9656941,410.1622459075,2774953.0143795,46.12400240024,0,0
60.984270957319,-34.448860678119,40.928432843284,2700123.9656941,410.1622459075,2774953.0143795,46.128432843284,0,0
60.984271242886,-34.452534816557,40.932863286329,2700123.9656941,410.1622459075,2774953.0143795,46.132863286329,0,0
60.984271528453,-34.456208954995,40.937293729373,2700123.9656941,410.1622459075,2774953.0143795,46.137293729373,0,0
60.98427181402,-34.459883093433,40.941724172417,2700123.9656941,410.1622459075,2774953.0143795,46.141724172417,0,0
60.984272099587,-34.463557231871,40.946154615462,2700123.9656941,410.1622459075,2774953.0143795,46.146154615462,0,0
60.984272385154,-34.467231370309,40.950585058506,2700123.9656941,410.1622459075,2774953.0143795,46.150585058506,0,0
60.984272670721,-34.470905508747,40.95501550155,2700123.9656941,410.1622459075,2774953.0143795,46.15501550155,0,0
60.984272956288,-34.474579647185,40.959445944594,2700123.9656941,410.1622459075,2774953.0143795,46.159445944594,0,0
60.984273241855,-34.478253785623,40.963876387639,2700123.9656941,410.1622459075,2774953.0143795,46.163876387639,0,0
60.984273527422,-34.481927924061,40.968306830683,2700123.9656941,410.1622459075,2774953.0143795,46.168306830683,0,0
60.984273812989,-34.485602062499,40.972737273727,2700123.9656941,410.1622459075,2774953.0143795,46.172737273727,0,0
60.984274098352,-34.489276200816,40.977167716772,2697217.1134305,-287.38247545446,2776283.5445629,46.177167716772,0,0
60.984274383652,-34.492950339094,40.981598159816,2697217.1134305,-287.38247545446,2776283.5445629,46.181598159816,0,0
60.984274668951,-34.496624477373,40.98602860286,2697217.1134305,-287.38247545446,2776283.5445629,46.18602860286,0,0
60.98427495425,-34.500298615651,40.990459045905,2697217.1134305,-287.38247545446,2776283.5445629,46.190459045905,0,0
60.98427523955,-34.50397275393,40.994889488949,2697217.1134305,-287.38247545446,2776283.5445629,46.194889488949,0,0
60.984275524849,-34.507646892208,40.999319931993,2697217.1134305,-287.38247545446,2776283.5445629,46.199319931993,0,0
60.984275810149,-34.511321030487,41.003750375037,2697217.1134305,-287.38247545446,2776283.5445629,46.203750375038,0,0
60.984276095448,-34.514995168765,41.008180818082,2697217.1134305,-287.38247545446,2776283.5445629,46.208180818082,0,0
60.984276380748,-34.518669307044,41.012611261126,2697217.1134305,-287.38247545446,2776283.5445629,46.212611261126,0,0
60.984276666047,-34.522343445322,41.01704170417,2697217.1134305,-287.38247545446,2776283.5445629,46.21704170417,0,0
60.984276951347,-34.526017583601,41.021472147215,2697217.1134305,-287.38247545446,2776283.5445629,46.221472147215,0,0
60.984277236646,-34.529691721879,41.025902590259,2697217.1134305,-287.38247545446,2776283.5445629,46.225902590259,0,0
60.984277521945,-34.533365860158,41.030333033303,2697217.1134305,-287.38247545446,2776283.5445629,46.230333033303,0,0
60.984277807245,-34.537039998436,41.034763476348,2697217.1134305,-287.38247545446,2776283.5445629,46.234763476348,0,0
60.984278092544,-34.540714136715,41.039193919392,2697217.1134305,-287.38247545446,2776283.5445629,46.239193919392,0,0
60.984278377844,-34.544388274993,41.043624362436,2697217.1134305,-287.38247545446,2776283.5445629,46.243624362436,0,0
60.984278663143,-34.548062413272,41.048054805481,2697217.1134305,-287.38247545446,2776283.5445629,46.248054805481,0,0
60.984278948443,-34.55173655155,41.052485248525,2697217.1134305,-287.38247545446,2776283.5445629,46.252485248525,0,0
60.984279233742,-34.555410689829,41.056915691569,2697217.1134305,-287.38247545446,2776283.5445629,46.256915691569,0,0
60.984279519041,-34.559084828107,41.061346134613,2697217.1134305,-287.38247545446,2776283.5445629,46.261346134613,0,0
60.984279804341,-34.562758966386,41.065776577658,2697217.1134305,-287.38247545446,2776283.5445629,46.265776577658,0,0
60.98428008964,-34.566433104664,41.070207020702,2697217.1134305,-287.38247545446,2776283.5445629,46.270207020702,0,0
60.98428037494,-34.570107242943,41.074637463746,2697217.1134305,-287.38247545446,2776283.5445629,46.274637463746,0,0
60.984280660239,-34.573781381222,41.079067906791,2697217.1134305,-287.38247545446,2776283.5445629,46.279067906791,0,0
60.984280945539,-34.5774555195,41.083498349835,2697217.1134305,-287.38247545446,2776283.5445629,46.283498349835,0,0
60.984281230838,-34.581129657779,41.087928792879,2697217.1134305,-287.38247545446,2776283.5445629,46.287928792879,0,0
60.984281516138,-34.584803796057,41.092359235924,2697217.1134305,-287.38247545446,2776283.5445629,46.292359235924,0,0
60.984281801437,-34.588477934336,41.096789678968,2697217.1134305,-287.38247545446,2776283.5445629,46.296789678968,0,0
60.984282086736,-34.592152072614,41.101220122012,2697217.1134305,-287.38247545446,2776283.5445629,46.301220122012,0,0
60.984282372036,-34.595826210893,41.105650565057,2697217.1134305,-287.38247545446,2776283.5445629,46.305650565057,0,0
60.984282657335,-34.599500349171,41.110081008101,2697217.1134305,-287.38247545446,2776283.5445629,46.310081008101,0,0
60.984282942635,-34.60317448745,41.114511451145,2697217.1134305,-287.38247545446,2776283.5445629,46.314511451145,0,0
60.984283227934,-34.606848625728,41.118941894189,2697217.1134305,-287.38247545446,2776283.5445629,46.318941894189,0,0
60.984283513234,-34.610522764007,41.123372337234,2697217.1134305,-287.38247545446,2776283.5445629,46.323372337234,0,0
60.984283798533,-34.614196902285,41.127802780278,2697217.1134305,-287.38247545446,2776283.5445629,46.327802780278,0,0
60.984284083833,-34.617871040564,41.132233223322,2697217.1134305,-287.38247545446,2776283.5445629,46.332233223322,0,0
60.984284369132,-34.621545178842,41.136663666367,2697217.1134305,-287.38247545446,2776283.5445629,46.336663666367,0,0
60.984284654431,-34.625219317121,41.141094109411,2697217.1134305,-287.38247545446,2776283.5445629,46.341094109411,0,0
60.984284939731,-34.628893455399,41.145524552455,2697217.1134305,-287.38247545446,2776283.5445629,46.345524552455,0,0
60.98428522503,-34.632567593678,41.1499549955,2697217.1134305,-287.38247545446,2776283.5445629,46.3499549955,0,0
60.98428551033,-34.636241731956,41.154385438544,2697217.1134305,-287.38247545446,2776283.5445629,46.354385438544,0,0
60.984285795629,-34.639915870235,41.158815881588,2697217.1134305,-287.38247545446,2776283.5445629,46.358815881588,0,0
60.984286080929,-34.643590008513,41.163246324632,2697217.1134305,-287.38247545446,2776283.5445629,46.363246324632,0,0
60.984286366228,-34.647264146792,41.167676767677,2697217.1134305,-287.38247545446,2776283.5445629,46.367676767677,0,0
60.984286651527,-34.65093828507,41.172107210721,2697217.1134305,-287.38247545446,2776283.5445629,46.372107210721,0,0
60.984286936827,-34.654612423349,41.176537653765,2697217.1134305,-287.38247545446,2776283.5445629,46.376537653765,0,0
60.984287222126,-34.658286561627,41.18096809681,2697217.1134305,-287.38247545446,2776283.5445629,46.38096809681,0,0
60.984287507426,-34.661960699906,41.185398539854,2697217.1134305,-287.38247545446,2776283.5445629,46.385398539854,0,0
60.984287792725,-34.665634838184,41.189828982898,2697217.1134305,-287.38247545446,2776283.5445629,46.389828982898,0,0
60.984288078025,-34.669308976463,41.194259425943,2697217.1134305,-287.38247545446,2776283.5445629,46.394259425943,0,0
60.984288363324,-34.672983114741,41.198689868987,2697217.1134305,-287.38247545446,2776283.5445629,46.398689868987,0,0
60.984288648624,-34.67665725302,41.203120312031,2697217.1134305,-287.38247545446,2776283.5445629,46.403120312031,0,0
60.984288933923,-34.680331391299,41.207550755076,2697217.1134305,-287.38247545446,2776283.5445629,46.407550755076,0,0
60.984289219222,-34.684005529577,41.21198119812,2697217.1134305,-287.38247545446,2776283.5445629,46.41198119812,0,0
60.984289504522,-34.687679667856,41.216411641164,2697217.1134305,-287.38247545446,2776283.5445629,46.416411641164,0,0
60.984289789821,-34.691353806134,41.220842084208,2697217.1134305,-287.38247545446,2776283.5445629,46.420842084208,0,0
60.984290075121,-34.695027944413,41.225272527253,2697217.1134305,-287.38247545446,2776283.5445629,46.425272527253,0,0
60.98429036042,-34.698702082691,41.229702970297,2697217.1134305,-287.38247545446,2776283.5445629,46.429702970297,0,0
60.98429064572,-34.70237622097,41.234133413341,2697217.1134305,-287.38247545446,2776283.5445629,46.434133413341,0,0
60.984290931019,-34.706050359248,41.238563856386,2697217.1134305,-287.38247545446,2776283.5445629,46.438563856386,0,0
60.984291216318,-34.709724497527,41.24299429943,2697217.1134305,-287.38247545446,2776283.5445629,46.44299429943,0,0
60.984291501618,-34.713398635805,41.247424742474,2697217.1134305,-287.38247545446,2776283.5445629,46.447424742474,0,0
60.984291786917,-34.717072774084,41.251855185519,2697217.1134305,-287.38247545446,2776283.5445629,46.451855185519,0,0
60.984292072217,-34.720746912362,41.256285628563,2697217.1134305,-287.38247545446,2776283.5445629,46.456285628563,0,0
60.984292357516,-34.724421050641,41.260716071607,2697217.1134305,-287.38247545446,2776283.5445629,46.460716071607,0,0
60.984292642816,-34.728095188919,41.265146514651,2697217.1134305,-287.38247545446,2776283.5445629,46.465146514651,0,0
60.984292928115,-34.731769327198,41.269576957696,2697217.1134305,-287.38247545446,2776283.5445629,46.469576957696,0,0
60.984293213415,-34.735443465476,41.27400740074,2697217.1134305,-287.38247545446,2776283.5445629,46.47400740074,0,0
60.984293498714,-34.739117603755,41.278437843784,2697217.1134305,-287.38247545446,2776283.5445629,46.478437843784,0,0
60.984293784013,-34.742791742033,41.282868286829,2697217.1134305,-287.38247545446,2776283.5445629,46.482868286829,0,0
60.984294069313,-34.746465880312,41.287298729873,2697217.1134305,-287.38247545446,2776283.5445629,46.487298729873,0,0
60.984294354612,-34.75014001859,41.291729172917,2697217.1134305,-287.38247545446,2776283.5445629,46.491729172917,0,0
60.984294639912,-34.753814156869,41.296159615962,2697217.1134305,-287.38247545446,2776283.5445629,46.496159615962,0,0
60.984294925211,-34.757488295147,41.300590059006,2697217.1134305,-287.38247545446,2776283.5445629,46.500590059006,0,0
60.984295210511,-34.761162433426,41.30502050205,2697217.1134305,-287.38247545446,2776283.5445629,46.50502050205,0,0
60.98429549581,-34.764836571704,41.309450945095,2697217.1134305,-287.38247545446,2776283.5445629,46.509450945095,0,0
60.98429578111,-34.768510709983,41.313881388139,2697217.1134305,-287.38247545446,2776283.5445629,46.513881388139,0,0
60.984296066409,-34.772184848261,41.318311831183,2697217.1134305,-287.38247545446,2776283.5445629,46.518311831183,0,0
60.984296351708,-34.77585898654,41.322742274227,2697217.1134305,-287.38247545446,2776283.5445629,46.522742274227,0,0
60.984296637008,-34.779533124818,41.327172717272,2697217.1134305,-287.38247545446,2776283.5445629,46.527172717272,0,0
60.984296922307,-34.783207263097,41.331603160316,2697217.1134305,-287.38247545446,2776283.5445629,46.531603160316,0,0
60.984297207607,-34.786881401376,41.33603360336,2697217.1134305,-287.38247545446,2776283.5445629,46.53603360336,0,0
60.984297492906,-34.790555539654,41.340464046405,2697217.1134305,-287.38247545446,2776283.5445629,46.540464046405,0,0
60.984297778206,-34.794229677933,41.344894489449,2697217.1134305,-287.38247545446,2776283.5445629,46.544894489449,0,0
60.984298063505,-34.797903816211,41.349324932493,2697217.1134305,-287.38247545446,2776283.5445629,46.549324932493,0,0
60.984298348804,-34.80157795449,41.353755375538,2697217.1134305,-287.38247545446,2776283.5445629,46.553755375538,0,0
60.984298634104,-34.805252092768,41.358185818582,2697217.1134305,-287.38247545446,2776283.5445629,46.558185818582,0,0
60.984298919403,-34.808926231047,41.362616261626,2697217.1134305,-287.38247545446,2776283.5445629,46.562616261626,0,0
60.984299204703,-34.812600369325,41.36704670467,2697217.1134305,-287.38247545446,2776283.5445629,46.56704670467,0,0
60.984299490002,-34.816274507604,41.371477147715,2697217.1134305,-287.38247545446,2776283.5445629,46.571477147715,0,0
60.984299775302,-34.819948645882,41.375907590759,2697217.1134305,-287.38247545446,2776283.5445629,46.575907590759,0,0
60.984300060601,-34.823622784161,41.380338033803,2697217.1134305,-287.38247545446,2776283.5445629,46.580338033803,0,0
60.984300345901,-34.827296922439,41.384768476848,2697217.1134305,-287.38247545446,2776283.5445629,46.584768476848,0,0
60.9843006312,-34.830971060718,41.389198919892,2697217.1134305,-287.38247545446,2776283.5445629,46.589198919892,0,0
60.984300916499,-34.834645198996,41.393629362936,2697217.1134305,-287.38247545446,2776283.5445629,46.593629362936,0,0
60.984301201799,-34.838319337275,41.398059805981,2697217.1134305,-287.38247545446,2776283.5445629,46.598059805981,0,0
60.984301487098,-34.841993475553,41.402490249025,2697217.1134305,-287.38247545446,2776283.5445629,46.602490249025,0,0
60.984301772398,-34.845667613832,41.406920692069,2697217.1134305,-287.38247545446,2776283.5445629,46.606920692069,0,0
60.984302057697,-34.84934175211,41.411351135114,2697217.1134305,-287.38247545446,2776283.5445629,46.611351135114,0,0
60.984302342997,-34.853015890389,41.415781578158,2697217.1134305,-287.38247545446,2776283.5445629,46.615781578158,0,0
60.984302628296,-34.856690028667,41.420212021202,2697217.1134305,-287.38247545446,2776283.5445629,46.620212021202,0,0
60.984302913596,-34.860364166946,41.424642464246,2697217.1134305,-287.38247545446,2776283.5445629,46.624642464246,0,0
60.984303198895,-34.864038305224,41.429072907291,2697217.1134305,-287.38247545446,2776283.5445629,46.629072907291,0,0
60.984303484194,-34.867712443503,41.433503350335,2697217.1134305,-287.38247545446,2776283.5445629,46.633503350335,0,0
60.984303769494,-34.871386581781,41.437933793379,2697217.1134305,-287.38247545446,2776283.5445629,46.637933793379,0,0
60.984304054793,-34.87506072006,41.442364236424,2697217.1134305,-287.38247545446,2776283.5445629,46.642364236424,0,0
60.984304340093,-34.878734858338,41.446794679468,2697217.1134305,-287.38247545446,2776283.5445629,46.646794679468,0,0
60.984304625392,-34.882408996617,41.451225122512,2697217.1134305,-287.38247545446,2776283.5445629,46.651225122512,0,0
60.984304910692,-34.886083134895,41.455655565557,2697217.1134305,-287.38247545446,2776283.5445629,46.655655565557,0,0
60.984305195991,-34.889757273174,41.460086008601,2697217.1134305,-287.38247545446,2776283.5445629,46.660086008601,0,0
60.98430548129,-34.893431411452,41.464516451645,2697217.1134305,-287.38247545446,2776283.5445629,46.664516451645,0,0
60.98430576659,-34.897105549731,41.468946894689,2697217.1134305,-287.38247545446,2776283.5445629,46.668946894689,0,0
60.984306051889,-34.90077968801,41.473377337734,2697217.1134305,-287.38247545446,2776283.5445629,46.673377337734,0,0
60.984306337189,-34.904453826288,41.477807780778,2697217.1134305,-287.38247545446,2776283.5445629,46.677807780778,0,0
60.984306622488,-34.908127964567,41.482238223822,2697217.1134305,-287.38247545446,2776283.5445629,46.682238223822,0,0
60.984306907788,-34.911802102845,41.486668666867,2697217.1134305,-287.38247545446,2776283.5445629,46.686668666867,0,0
60.984307193087,-34.915476241124,41.491099109911,2697217.1134305,-287.38247545446,2776283.5445629,46.691099109911,0,0
60.984307478387,-34.919150379402,41.495529552955,2697217.1134305,-287.38247545446,2776283.5445629,46.695529552955,0,0
60.984307763686,-34.922824517681,41.499959996,2697217.1134305,-287.38247545446,2776283.5445629,46.699959996,0,0
60.984308048985,-34.926498655959,41.504390439044,2697217.1134305,-287.38247545446,2776283.5445629,46.704390439044,0,0
60.984308334285,-34.930172794238,41.508820882088,2697217.1134305,-287.38247545446,2776283.5445629,46.708820882088,0,0
60.984308619584,-34.933846932516,41.513251325133,2697217.1134305,-287.38247545446,2776283.5445629,46.713251325133,0,0
60.984308904884,-34.937521070795,41.517681768177,2697217.1134305,-287.38247545446,2776283.5445629,46.717681768177,0,0
60.984309190183,-34.941195209073,41.522112211221,2697217.1134305,-287.38247545446,2776283.5445629,46.722112211221,0,0
60.984309475483,-34.944869347352,41.526542654265,2697217.1134305,-287.38247545446,2776283.5445629,46.726542654265,0,0
60.984309760782,-34.94854348563,41.53097309731,2697217.1134305,-287.38247545446,2776283.5445629,46.73097309731,0,0
60.984310046081,-34.952217623909,41.535403540354,2697217.1134305,-287.38247545446,2776283.5445629,46.735403540354,0,0
60.984310331381,-34.955891762187,41.539833983398,2697217.1134305,-287.38247545446,2776283.5445629,46.739833983398,0,0
60.98431061668,-34.959565900466,41.544264426443,2697217.1134305,-287.38247545446,2776283.5445629,46.744264426443,0,0
60.98431090198,-34.963240038744,41.548694869487,2697217.1134305,-287.38247545446,2776283.5445629,46.748694869487,0,0
60.984311187279,-34.966914177023,41.553125312531,2697217.1134305,-287.38247545446,2776283.5445629,46.753125312531,0,0
60.984311472579,-34.970588315301,41.557555755576,2697217.1134305,-287.38247545446,2776283.5445629,46.757555755576,0,0
60.984311757878,-34.97426245358,41.56198619862,2697217.1134305,-287.38247545446,2776283.5445629,46.76198619862,0,0
60.984312043178,-34.977936591858,41.566416641664,2697217.1134305,-287.38247545446,2776283.5445629,46.766416641664,0,0
60.984312328477,-34.981610730137,41.570847084708,2697217.1134305,-287.38247545446,2776283.5445629,46.770847084708,0,0
60.984312613776,-34.985284868415,41.575277527753,2697217.1134305,-287.38247545446,2776283.5445629,46.775277527753,0,0
60.984312899076,-34.988959006694,41.579707970797,2697217.1134305,-287.38247545446,2776283.5445629,46.779707970797,0,0
60.984313184375,-34.992633144972,41.584138413841,2697217.1134305,-287.38247545446,2776283.5445629,46.784138413841,0,0
60.984313469675,-34.996307283251,41.588568856886,2697217.1134305,-287.38247545446,2776283.5445629,46.788568856886,0,0
60.984313754974,-34.999981421529,41.59299929993,2697217.1134305,-287.38247545446,2776283.5445629,46.79299929993,0,0
60.984314040274,-35.003655559808,41.597429742974,2697217.1134305,-287.38247545446,2776283.5445629,46.797429742974,0,0
60.984314325573,-35.007329698087,41.601860186019,2697217.1134305,-287.38247545446,2776283.5445629,46.801860186019,0,0
60.984314610873,-35.011003836365,41.606290629063,2697217.1134305,-287.38247545446,2776283.5445629,46.806290629063,0,0
60.984314896172,-35.014677974644,41.610721072107,2697217.1134305,-287.38247545446,2776283.5445629,46.810721072107,0,0
60.984315181471,-35.018352112922,41.615151515152,2697217.1134305,-287.38247545446,2776283.5445629,46.815151515152,0,0
60.984315466771,-35.022026251201,41.619581958196,2697217.1134305,-287.38247545446,2776283.5445629,46.819581958196,0,0
60.98431575207,-35.025700389479,41.62401240124,2697217.1134305,-287.38247545446,2776283.5445629,46.82401240124,0,0
60.98431603737,-35.029374527758,41.628442844284,2697217.1134305,-287.38247545446,2776283.5445629,46.828442844284,0,0
60.984316322669,-35.033048666036,41.632873287329,2697217.1134305,-287.38247545446,2776283.5445629,46.832873287329,0,0
60.984316607969,-35.036722804315,41.637303730373,2697217.1134305,-287.38247545446,2776283.5445629,46.837303730373,0,0
60.984316893268,-35.040396942593,41.641734173417,2697217.1134305,-287.38247545446,2776283.5445629,46.841734173417,0,0
60.984317178567,-35.044071080872,41.646164616462,2697217.1134305,-287.38247545446,2776283.5445629,46.846164616462,0,0
60.984317463867,-35.04774521915,41.650595059506,2697217.1134305,-287.38247545446,2776283.5445629,46.850595059506,0,0
60.984317749166,-35.051419357429,41.65502550255,2697217.1134305,-287.38247545446,2776283.5445629,46.85502550255,0,0
60.984318034466,-35.055093495707,41.659455945595,2697217.1134305,-287.38247545446,2776283.5445629,46.859455945595,0,0
60.984318319765,-35.058767633986,41.663886388639,2697217.1134305,-287.38247545446,2776283.5445629,46.863886388639,0,0
60.984318605065,-35.062441772264,41.668316831683,2697217.1134305,-287.38247545446,2776283.5445629,46.868316831683,0,0
60.984318890364,-35.066115910543,41.672747274727,2697217.1134305,-287.38247545446,2776283.5445629,46.872747274727,0,0
60.984319175664,-35.069790048821,41.677177717772,2697217.1134305,-287.38247545446,2776283.5445629,46.877177717772,0,0
60.984319460963,-35.0734641871,41.681608160816,2697217.1134305,-287.38247545446,2776283.5445629,46.881608160816,0,0
60.984319746262,-35.077138325378,41.68603860386,2697217.1134305,-287.38247545446,2776283.5445629,46.88603860386,0,0
60.984320031562,-35.080812463657,41.690469046905,2697217.1134305,-287.38247545446,2776283.5445629,46.890469046905,0,0
60.984320316861,-35.084486601935,41.694899489949,2697217.1134305,-287.38247545446,2776283.5445629,46.894899489949,0,0
60.984320602161,-35.088160740214,41.699329932993,2697217.1134305,-287.38247545446,2776283.5445629,46.899329932993,0,0
60.98432088746,-35.091834878492,41.703760376038,2697217.1134305,-287.38247545446,2776283.5445629,46.903760376038,0,0
60.98432117276,-35.095509016771,41.708190819082,2697217.1134305,-287.38247545446,2776283.5445629,46.908190819082,0,0
60.984321458059,-35.099183155049,41.712621262126,2697217.1134305,-287.38247545446,2776283.5445629,46.912621262126,0,0
60.984321743359,-35.102857293328,41.717051705171,2697217.1134305,-287.38247545446,2776283.5445629,46.917051705171,0,0
60.984322028658,-35.106531431606,41.721482148215,2697217.1134305,-287.38247545446,2776283.5445629,46.921482148215,0,0
60.984322313957,-35.110205569885,41.725912591259,2697217.1134305,-287.38247545446,2776283.5445629,46.925912591259,0,0
60.984322599257,-35.113879708164,41.730343034303,2697217.1134305,-287.38247545446,2776283.5445629,46.930343034303,0,0
60.984322884556,-35.117553846442,41.734773477348,2697217.1134305,-287.38247545446,2776283.5445629,46.934773477348,0,0
60.984323169856,-35.121227984721,41.739203920392,2697217.1134305,-287.38247545446,2776283.5445629,46.939203920392,0,0
60.984323455155,-35.124902122999,41.743634363436,2697217.1134305,-287.38247545446,2776283.5445629,46.943634363436,0,0
60.984323740455,-35.128576261278,41.748064806481,2697217.1134305,-287.38247545446,2776283.5445629,46.948064806481,0,0
60.984324025754,-35.132250399556,41.752495249525,2697217.1134305,-287.38247545446,2776283.5445629,46.952495249525,0,0
60.984324311053,-35.135924537835,41.756925692569,2697217.1134305,-287.38247545446,2776283.5445629,46.956925692569,0,0
60.984324596353,-35.139598676113,41.761356135614,2697217.1134305,-287.38247545446,2776283.5445629,46.961356135614,0,0
60.984324881652,-35.143272814392,41.765786578658,2697217.1134305,-287.38247545446,2776283.5445629,46.965786578658,0,0
60.984325166952,-35.14694695267,41.770217021702,2697217.1134305,-287.38247545446,2776283.5445629,46.970217021702,0,0
60.984325452251,-35.150621090949,41.774647464746,2697217.1134305,-287.38247545446,2776283.5445629,46.974647464746,0,0
60.984325737551,-35.154295229227,41.779077907791,2697217.1134305,-287.38247545446,2776283.5445629,46.979077907791,0,0
60.98432602285,-35.157969367506,41.783508350835,2697217.1134305,-287.38247545446,2776283.5445629,46.983508350835,0,0
60.98432630815,-35.161643505784,41.787938793879,2697217.1134305,-287.38247545446,2776283.5445629,46.987938793879,0,0
60.984326593449,-35.165317644063,41.792369236924,2697217.1134305,-287.38247545446,2776283.5445629,46.992369236924,0,0
60.984326878748,-35.168991782341,41.796799679968,2697217.1134305,-287.38247545446,2776283.5445629,46.996799679968,0,0
60.984327164048,-35.17266592062,41.801230123012,2697217.1134305,-287.38247545446,2776283.5445629,47.001230123012,0,0
60.984327449347,-35.176340058898,41.805660566057,2697217.1134305,-287.38247545446,2776283.5445629,47.005660566057,0,0
60.984327734647,-35.180014197177,41.810091009101,2697217.1134305,-287.38247545446,2776283.5445629,47.010091009101,0,0
60.984328019946,-35.183688335455,41.814521452145,2697217.1134305,-287.38247545446,2776283.5445629,47.014521452145,0,0
60.984328305246,-35.187362473734,41.81895189519,2697217.1134305,-287.38247545446,2776283.5445629,47.01895189519,0,0
60.984328590545,-35.191036612012,41.823382338234,2697217.1134305,-287.38247545446,2776283.5445629,47.023382338234,0,0
60.984328875844,-35.194710750291,41.827812781278,2697217.1134305,-287.38247545446,2776283.5445629,47.027812781278,0,0
60.984329161144,-35.198384888569,41.832243224322,2697217.1134305,-287.38247545446,2776283.5445629,47.032243224322,0,0
60.984329446443,-35.202059026848,41.836673667367,2697217.1134305,-287.38247545446,2776283.5445629,47.036673667367,0,0
60.984329731743,-35.205733165126,41.841104110411,2697217.1134305,-287.38247545446,2776283.5445629,47.041104110411,0,0
60.984330017042,-35.209407303405,41.845534553455,2697217.1134305,-287.38247545446,2776283.5445629,47.045534553455,0,0
60.984330302342,-35.213081441683,41.8499649965,2697217.1134305,-287.38247545446,2776283.5445629,47.0499649965,0,0
60.984330587641,-35.216755579962,41.854395439544,2697217.1134305,-287.38247545446,2776283.5445629,47.054395439544,0,0
60.984330872941,-35.220429718241,41.858825882588,2697217.1134305,-287.38247545446,2776283.5445629,47.058825882588,0,0
60.98433115824,-35.224103856519,41.863256325633,2697217.1134305,-287.38247545446,2776283.5445629,47.063256325633,0,0
60.984331443539,-35.227777994798,41.867686768677,2697217.1134305,-287.38247545446,2776283.5445629,47.067686768677,0,0
60.984331728839,-35.231452133076,41.872117211721,2697217.1134305,-287.38247545446,2776283.5445629,47.072117211721,0,0
60.984332014138,-35.235126271355,41.876547654765,2697217.1134305,-287.38247545446,2776283.5445629,47.076547654765,0,0
60.984332299438,-35.238800409633,41.88097809781,2697217.1134305,-287.38247545446,2776283.5445629,47.08097809781,0,0
60.984332584737,-35.242474547912,41.885408540854,2697217.1134305,-287.38247545446,2776283.5445629,47.085408540854,0,0
60.984332870037,-35.24614868619,41.889838983898,2697217.1134305,-287.38247545446,2776283.5445629,47.089838983898,0,0
60.984333155336,-35.249822824469,41.894269426943,2697217.1134305,-287.38247545446,2776283.5445629,47.094269426943,0,0
60.984333440636,-35.253496962747,41.898699869987,2697217.1134305,-287.38247545446,2776283.5445629,47.098699869987,0,0
60.984333725935,-35.257171101026,41.903130313031,2697217.1134305,-287.38247545446,2776283.5445629,47.103130313031,0,0
60.984334011234,-35.260845239304,41.907560756076,2697217.1134305,-287.38247545446,2776283.5445629,47.107560756076,0,0
60.984334296534,-35.264519377583,41.91199119912,2697217.1134305,-287.38247545446,2776283.5445629,47.11199119912,0,0
60.984334581833,-35.268193515861,41.916421642164,2697217.1134305,-287.38247545446,2776283.5445629,47.116421642164,0,0
60.984334867133,-35.27186765414,41.920852085209,2697217.1134305,-287.38247545446,2776283.5445629,47.120852085209,0,0
60.984335152432,-35.275541792418,41.925282528253,2697217.1134305,-287.38247545446,2776283.5445629,47.125282528253,0,0
60.984335437732,-35.279215930697,41.929712971297,2697217.1134305,-287.38247545446,2776283.5445629,47.129712971297,0,0
60.984335723031,-35.282890068975,41.934143414341,2697217.1134305,-287.38247545446,2776283.5445629,47.134143414341,0,0
60.98433600833,-35.286564207254,41.938573857386,2697217.1134305,-287.38247545446,2776283.5445629,47.138573857386,0,0
60.98433629363,-35.290238345532,41.94300430043,2697217.1134305,-287.38247545446,2776283.5445629,47.14300430043,0,0
60.984336578929,-35.293912483811,41.947434743474,2697217.1134305,-287.38247545446,2776283.5445629,47.147434743474,0,0
60.984336864229,-35.297586622089,41.951865186519,2697217.1134305,-287.38247545446,2776283.5445629,47.151865186519,0,0
60.984337149528,-35.301260760368,41.956295629563,2697217.1134305,-287.38247545446,2776283.5445629,47.156295629563,0,0
60.984337434828,-35.304934898646,41.960726072607,2697217.1134305,-287.38247545446,2776283.5445629,47.160726072607,0,0
60.984337720127,-35.308609036925,41.965156515652,2697217.1134305,-287.38247545446,2776283.5445629,47.165156515652,0,0
60.984338005427,-35.312283175203,41.969586958696,2697217.1134305,-287.38247545446,2776283.5445629,47.169586958696,0,0
60.984338290726,-35.315957313482,41.97401740174,2697217.1134305,-287.38247545446,2776283.5445629,47.17401740174,0,0
60.984338576025,-35.31963145176,41.978447844784,2697217.1134305,-287.38247545446,2776283.5445629,47.178447844784,0,0
60.984338861325,-35.323305590039,41.982878287829,2697217.1134305,-287.38247545446,2776283.5445629,47.182878287829,0,0
60.984339146624,-35.326979728317,41.987308730873,2697217.1134305,-287.38247545446,2776283.5445629,47.187308730873,0,0
60.984339431924,-35.330653866596,41.991739173917,2697217.1134305,-287.38247545446,2776283.5445629,47.191739173917,0,0
60.984339717223,-35.334328004875,41.996169616962,2697217.1134305,-287.38247545446,2776283.5445629,47.196169616962,0,0
60.984340002523,-35.338002143153,42.000600060006,2697217.1134305,-287.38247545446,2776283.5445629,47.200600060006,0,0
60.984340287822,-35.341676281432,42.00503050305,2697217.1134305,-287.38247545446,2776283.5445629,47.20503050305,0,0
60.984340573122,-35.34535041971,42.009460946095,2697217.1134305,-287.38247545446,2776283.5445629,47.209460946095,0,0
60.984340858421,-35.349024557989,42.013891389139,2697217.1134305,-287.38247545446,2776283.5445629,47.213891389139,0,0
60.98434114372,-35.352698696267,42.018321832183,2697217.1134305,-287.38247545446,2776283.5445629,47.218321832183,0,0
60.98434142902,-35.356372834546,42.022752275228,2697217.1134305,-287.38247545446,2776283.5445629,47.222752275228,0,0
60.984341714319,-35.360046972824,42.027182718272,2697217.1134305,-287.38247545446,2776283.5445629,47.227182718272,0,0
60.984341999619,-35.363721111103,42.031613161316,2697217.1134305,-287.38247545446,2776283.5445629,47.231613161316,0,0
60.984342284918,-35.367395249381,42.03604360436,2697217.1134305,-287.38247545446,2776283.5445629,47.23604360436,0,0
60.984342570218,-35.37106938766,42.040474047405,2697217.1134305,-287.38247545446,2776283.5445629,47.240474047405,0,0
60.984342855517,-35.374743525938,42.044904490449,2697217.1134305,-287.38247545446,2776283.5445629,47.244904490449,0,0
60.984343140816,-35.378417664217,42.049334933493,2697217.1134305,-287.38247545446,2776283.5445629,47.249334933493,0,0
60.984343426116,-35.382091802495,42.053765376538,2697217.1134305,-287.38247545446,2776283.5445629,47.253765376538,0,0
60.984343711415,-35.385765940774,42.058195819582,2697217.1134305,-287.38247545446,2776283.5445629,47.258195819582,0,0
60.984343996715,-35.389440079052,42.062626262626,2697217.1134305,-287.38247545446,2776283.5445629,47.262626262626,0,0
60.984344282014,-35.393114217331,42.067056705671,2697217.1134305,-287.38247545446,2776283.5445629,47.267056705671,0,0
60.984344567314,-35.396788355609,42.071487148715,2697217.1134305,-287.38247545446,2776283.5445629,47.271487148715,0,0
60.984344852613,-35.400462493888,42.075917591759,2697217.1134305,-287.38247545446,2776283.5445629,47.275917591759,0,0
60.984345137913,-35.404136632166,42.080348034803,2697217.1134305,-287.38247545446,2776283.5445629,47.280348034803,0,0
60.984345423212,-35.407810770445,42.084778477848,2697217.1134305,-287.38247545446,2776283.5445629,47.284778477848,0,0
60.984345708511,-35.411484908723,42.089208920892,2697217.1134305,-287.38247545446,2776283.5445629,47.289208920892,0,0
60.984345993811,-35.415159047002,42.093639363936,2697217.1134305,-287.38247545446,2776283.5445629,47.293639363936,0,0
60.98434627911,-35.41883318528,42.098069806981,2697217.1134305,-287.38247545446,2776283.5445629,47.298069806981,0,0
60.98434656441,-35.422507323559,42.102500250025,2697217.1134305,-287.38247545446,2776283.5445629,47.302500250025,0,0
60.984346849709,-35.426181461837,42.106930693069,2697217.1134305,-287.38247545446,2776283.5445629,47.306930693069,0,0
60.984347135009,-35.429855600116,42.111361136114,2697217.1134305,-287.38247545446,2776283.5445629,47.311361136114,0,0
60.984347420308,-35.433529738394,42.115791579158,2697217.1134305,-287.38247545446,2776283.5445629,47.315791579158,0,0
60.984347705607,-35.437203876673,42.120222022202,2697217.1134305,-287.38247545446,2776283.5445629,47.320222022202,0,0
60.984347990907,-35.440878014952,42.124652465247,2697217.1134305,-287.38247545446,2776283.5445629,47.324652465247,0,0
60.984348276206,-35.44455215323,42.129082908291,2697217.1134305,-287.38247545446,2776283.5445629,47.329082908291,0,0
60.984348561506,-35.448226291509,42.133513351335,2697217.1134305,-287.38247545446,2776283.5445629,47.333513351335,0,0
60.984348846805,-35.451900429787,42.137943794379,2697217.1134305,-287.38247545446,2776283.5445629,47.337943794379,0,0
60.984349132105,-35.455574568066,42.142374237424,2697217.1134305,-287.38247545446,2776283.5445629,47.342374237424,0,0
60.984349417404,-35.459248706344,42.146804680468,2697217.1134305,-287.38247545446,2776283.5445629,47.346804680468,0,0
60.984349702704,-35.462922844623,42.151235123512,2697217.1134305,-287.38247545446,2776283.5445629,47.351235123512,0,0
60.984349988003,-35.466596982901,42.155665566557,2697217.1134305,-287.38247545446,2776283.5445629,47.355665566557,0,0
60.984350273302,-35.47027112118,42.160096009601,2697217.1134305,-287.38247545446,2776283.5445629,47.360096009601,0,0
60.984350558602,-35.473945259458,42.164526452645,2697217.1134305,-287.38247545446,2776283.5445629,47.364526452645,0,0
60.984350843901,-35.477619397737,42.16895689569,2697217.1134305,-287.38247545446,2776283.5445629,47.36895689569,0,0
60.984351129201,-35.481293536015,42.173387338734,2697217.1134305,-287.38247545446,2776283.5445629,47.373387338734,0,0
60.9843514145,-35.484967674294,42.177817781778,2697217.1134305,-287.38247545446,2776283.5445629,47.377817781778,0,0
60.9843516998,-35.488641812572,42.182248224822,2697217.1134305,-287.38247545446,2776283.5445629,47.382248224822,0,0
60.984351985099,-35.492315950851,42.186678667867,2697217.1134305,-287.38247545446,2776283.5445629,47.386678667867,0,0
60.984352270399,-35.495990089129,42.191109110911,2697217.1134305,-287.38247545446,2776283.5445629,47.391109110911,0,0
60.984352555698,-35.499664227408,42.195539553955,2697217.1134305,-287.38247545446,2776283.5445629,47.395539553955,0,0
60.984352840997,-35.503338365686,42.199969997,2697217.1134305,-287.38247545446,2776283.5445629,47.399969997,0,0
60.984353126297,-35.507012503965,42.204400440044,2697217.1134305,-287.38247545446,2776283.5445629,47.404400440044,0,0
60.984353411596,-35.510686642243,42.208830883088,2697217.1134305,-287.38247545446,2776283.5445629,47.408830883088,0,0
60.984353696896,-35.514360780522,42.213261326133,2697217.1134305,-287.38247545446,2776283.5445629,47.413261326133,0,0
60.984353982195,-35.5180349188,42.217691769177,2697217.1134305,-287.38247545446,2776283.5445629,47.417691769177,0,0
60.984354267495,-35.521709057079,42.222122212221,2697217.1134305,-287.38247545446,2776283.5445629,47.422122212221,0,0
60.984354552794,-35.525383195357,42.226552655266,2697217.1134305,-287.38247545446,2776283.5445629,47.426552655266,0,0
60.984354838093,-35.529057333636,42.23098309831,2697217.1134305,-287.38247545446,2776283.5445629,47.43098309831,0,0
60.984355123393,-35.532731471914,42.235413541354,2697217.1134305,-287.38247545446,2776283.5445629,47.435413541354,0,0
60.984355408692,-35.536405610193,42.239843984398,2697217.1134305,-287.38247545446,2776283.5445629,47.439843984398,0,0
60.984355693992,-35.540079748471,42.244274427443,2697217.1134305,-287.38247545446,2776283.5445629,47.444274427443,0,0
60.984355979291,-35.54375388675,42.248704870487,2697217.1134305,-287.38247545446,2776283.5445629,47.448704870487,0,0
60.984356264591,-35.547428025028,42.253135313531,2697217.1134305,-287.38247545446,2776283.5445629,47.453135313531,0,0
60.98435654989,-35.551102163307,42.257565756576,2697217.1134305,-287.38247545446,2776283.5445629,47.457565756576,0,0
60.98435683519,-35.554776301586,42.26199619962,2697217.1134305,-287.38247545446,2776283.5445629,47.46199619962,0,0
60.984357120489,-35.558450439864,42.266426642664,2697217.1134305,-287.38247545446,2776283.5445629,47.466426642664,0,0
60.984357405788,-35.562124578143,42.270857085709,2697217.1134305,-287.38247545446,2776283.5445629,47.470857085709,0,0
60.984357691088,-35.565798716421,42.275287528753,2697217.1134305,-287.38247545446,2776283.5445629,47.475287528753,0,0
60.984357976387,-35.5694728547,42.279717971797,2697217.1134305,-287.38247545446,2776283.5445629,47.479717971797,0,0
60.984358261687,-35.573146992978,42.284148414841,2697217.1134305,-287.38247545446,2776283.5445629,47.484148414841,0,0
60.984358546986,-35.576821131257,42.288578857886,2697217.1134305,-287.38247545446,2776283.5445629,47.488578857886,0,0
60.984358832286,-35.580495269535,42.29300930093,2697217.1134305,-287.38247545446,2776283.5445629,47.49300930093,0,0
60.984359117585,-35.584169407814,42.297439743974,2697217.1134305,-287.38247545446,2776283.5445629,47.497439743974,0,0
60.984359402885,-35.587843546092,42.301870187019,2697217.1134305,-287.38247545446,2776283.5445629,47.501870187019,0,0
60.984359688184,-35.591517684371,42.306300630063,2697217.1134305,-287.38247545446,2776283.5445629,47.506300630063,0,0
60.984359973483,-35.595191822649,42.310731073107,2697217.1134305,-287.38247545446,2776283.5445629,47.510731073107,0,0
60.984360258783,-35.598865960928,42.315161516152,2697217.1134305,-287.38247545446,2776283.5445629,47.515161516152,0,0
60.984360544082,-35.602540099206,42.319591959196,2697217.1134305,-287.38247545446,2776283.5445629,47.519591959196,0,0
60.984360829382,-35.606214237485,42.32402240224,2697217.1134305,-287.38247545446,2776283.5445629,47.52402240224,0,0
60.984361114681,-35.609888375763,42.328452845285,2697217.1134305,-287.38247545446,2776283.5445629,47.528452845285,0,0
60.984361399981,-35.613562514042,42.332883288329,2697217.1134305,-287.38247545446,2776283.5445629,47.532883288329,0,0
60.98436168528,-35.61723665232,42.337313731373,2697217.1134305,-287.38247545446,2776283.5445629,47.537313731373,0,0
60.984361970579,-35.620910790599,42.341744174417,2697217.1134305,-287.38247545446,2776283.5445629,47.541744174417,0,0
60.984362255879,-35.624584928877,42.346174617462,2697217.1134305,-287.38247545446,2776283.5445629,47.546174617462,0,0
60.984362541178,-35.628259067156,42.350605060506,2697217.1134305,-287.38247545446,2776283.5445629,47.550605060506,0,0
60.984362826478,-35.631933205434,42.35503550355,2697217.1134305,-287.38247545446,2776283.5445629,47.55503550355,0,0
60.984363111777,-35.635607343713,42.359465946595,2697217.1134305,-287.38247545446,2776283.5445629,47.559465946595,0,0
60.984363397077,-35.639281481991,42.363896389639,2697217.1134305,-287.38247545446,2776283.5445629,47.563896389639,0,0
60.984363682376,-35.64295562027,42.368326832683,2697217.1134305,-287.38247545446,2776283.5445629,47.568326832683,0,0
60.984363967676,-35.646629758548,42.372757275728,2697217.1134305,-287.38247545446,2776283.5445629,47.572757275728,0,0
60.984364252975,-35.650303896827,42.377187718772,2697217.1134305,-287.38247545446,2776283.5445629,47.577187718772,0,0
60.984364538274,-35.653978035105,42.381618161816,2697217.1134305,-287.38247545446,2776283.5445629,47.581618161816,0,0
60.984364823574,-35.657652173384,42.38604860486,2697217.1134305,-287.38247545446,2776283.5445629,47.58604860486,0,0
60.984365108873,-35.661326311663,42.390479047905,2697217.1134305,-287.38247545446,2776283.5445629,47.590479047905,0,0
60.984365394173,-35.665000449941,42.394909490949,2697217.1134305,-287.38247545446,2776283.5445629,47.594909490949,0,0
60.984365679472,-35.66867458822,42.399339933993,2697217.1134305,-287.38247545446,2776283.5445629,47.599339933993,0,0
60.984365964772,-35.672348726498,42.403770377038,2697217.1134305,-287.38247545446,2776283.5445629,47.603770377038,0,0
60.984366250071,-35.676022864777,42.408200820082,2697217.1134305,-287.38247545446,2776283.5445629,47.608200820082,0,0
60.984366535371,-35.679697003055,42.412631263126,2697217.1134305,-287.38247545446,2776283.5445629,47.612631263126,0,0
60.98436682067,-35.683371141334,42.417061706171,2697217.1134305,-287.38247545446,2776283.5445629,47.617061706171,0,0
60.984367105969,-35.687045279612,42.421492149215,2697217.1134305,-287.38247545446,2776283.5445629,47.621492149215,0,0
60.984367391269,-35.690719417891,42.425922592259,2697217.1134305,-287.38247545446,2776283.5445629,47.625922592259,0,0
60.984367676692,-35.694393556152,42.430353035304,2700351.5625681,-84.742952515156,2777349.4079797,47.630353035304,0,0
60.984367962214,-35.698067694399,42.434783478348,2700351.5625681,-84.742952515156,2777349.4079797,47.634783478348,0,0
60.984368247735,-35.701741832646,42.439213921392,2700351.5625681,-84.742952515156,2777349.4079797,47.639213921392,0,0
60.984368533257,-35.705415970894,42.443644364436,2700351.5625681,-84.742952515156,2777349.4079797,47.643644364436,0,0
60.984368818778,-35.709090109141,42.448074807481,2700351.5625681,-84.742952515156,2777349.4079797,47.648074807481,0,0
60.9843691043,-35.712764247388,42.452505250525,2700351.5625681,-84.742952515156,2777349.4079797,47.652505250525,0,0
60.984369389821,-35.716438385636,42.456935693569,2700351.5625681,-84.742952515156,2777349.4079797,47.656935693569,0,0
60.984369675342,-35.720112523883,42.461366136614,2700351.5625681,-84.742952515156,2777349.4079797,47.661366136614,0,0
60.984369960864,-35.72378666213,42.465796579658,2700351.5625681,-84.742952515156,2777349.4079797,47.665796579658,0,0
60.984370246385,-35.727460800378,42.470227022702,2700351.5625681,-84.742952515156,2777349.4079797,47.670227022702,0,0
60.984370531907,-35.731134938625,42.474657465747,2700351.5625681,-84.742952515156,2777349.4079797,47.674657465747,0,0
60.984370817428,-35.734809076872,42.479087908791,2700351.5625681,-84.742952515156,2777349.4079797,47.679087908791,0,0
60.98437110295,-35.73848321512,42.483518351835,2700351.5625681,-84.742952515156,2777349.4079797,47.683518351835,0,0
60.984371388471,-35.742157353367,42.487948794879,2700351.5625681,-84.742952515156,2777349.4079797,47.687948794879,0,0
60.984371673992,-35.745831491614,42.492379237924,2700351.5625681,-84.742952515156,2777349.4079797,47.692379237924,0,0
60.984371959514,-35.749505629861,42.496809680968,2700351.5625681,-84.742952515156,2777349.4079797,47.696809680968,0,0
60.984372245035,-35.753179768109,42.501240124012,2700351.5625681,-84.742952515156,2777349.4079797,47.701240124012,0,0
60.984372530557,-35.756853906356,42.505670567057,2700351.5625681,-84.742952515156,2777349.4079797,47.705670567057,0,0
60.984372816078,-35.760528044603,42.510101010101,2700351.5625681,-84.742952515156,2777349.4079797,47.710101010101,0,0
60.9843731016,-35.764202182851,42.514531453145,2700351.5625681,-84.742952515156,2777349.4079797,47.714531453145,0,0
60.984373387121,-35.767876321098,42.51896189619,2700351.5625681,-84.742952515156,2777349.4079797,47.71896189619,0,0
60.984373672642,-35.771550459345,42.523392339234,2700351.5625681,-84.742952515156,2777349.4079797,47.723392339234,0,0
60.984373958164,-35.775224597593,42.527822782278,2700351.5625681,-84.742952515156,2777349.4079797,47.727822782278,0,0
60.984374243685,-35.77889873584,42.532253225323,2700351.5625681,-84.742952515156,2777349.4079797,47.732253225323,0,0
60.984374529207,-35.782572874087,42.536683668367,2700351.5625681,-84.742952515156,2777349.4079797,47.736683668367,0,0
60.984374814728,-35.786247012335,42.541114111411,2700351.5625681,-84.742952515156,2777349.4079797,47.741114111411,0,0
60.98437510025,-35.789921150582,42.545544554455,2700351.5625681,-84.742952515156,2777349.4079797,47.745544554455,0,0
60.984375385771,-35.793595288829,42.5499749975,2700351.5625681,-84.742952515156,2777349.4079797,47.7499749975,0,0
60.984375671292,-35.797269427077,42.554405440544,2700351.5625681,-84.742952515156,2777349.4079797,47.754405440544,0,0
60.984375956814,-35.800943565324,42.558835883588,2700351.5625681,-84.742952515156,2777349.4079797,47.758835883588,0,0
60.984376242335,-35.804617703571,42.563266326633,2700351.5625681,-84.742952515156,2777349.4079797,47.763266326633,0,0
60.984376527857,-35.808291841818,42.567696769677,2700351.5625681,-84.742952515156,2777349.4079797,47.767696769677,0,0
60.984376813378,-35.811965980066,42.572127212721,2700351.5625681,-84.742952515156,2777349.4079797,47.772127212721,0,0
60.9843770989,-35.815640118313,42.576557655766,2700351.5625681,-84.742952515156,2777349.4079797,47.776557655766,0,0
60.984377384421,-35.81931425656,42.58098809881,2700351.5625681,-84.742952515156,2777349.4079797,47.78098809881,0,0
60.984377669942,-35.822988394808,42.585418541854,2700351.5625681,-84.742952515156,2777349.4079797,47.785418541854,0,0
60.984377955464,-35.826662533055,42.589848984898,2700351.5625681,-84.742952515156,2777349.4079797,47.789848984898,0,0
60.984378240985,-35.830336671302,42.594279427943,2700351.5625681,-84.742952515156,2777349.4079797,47.794279427943,0,0
60.984378526507,-35.83401080955,42.598709870987,2700351.5625681,-84.742952515156,2777349.4079797,47.798709870987,0,0
60.984378812028,-35.837684947797,42.603140314031,2700351.5625681,-84.742952515156,2777349.4079797,47.803140314031,0,0
60.98437909755,-35.841359086044,42.607570757076,2700351.5625681,-84.742952515156,2777349.4079797,47.807570757076,0,0
60.984379383071,-35.845033224292,42.61200120012,2700351.5625681,-84.742952515156,2777349.4079797,47.81200120012,0,0
60.984379668592,-35.848707362539,42.616431643164,2700351.5625681,-84.742952515156,2777349.4079797,47.816431643164,0,0
60.984379954114,-35.852381500786,42.620862086209,2700351.5625681,-84.742952515156,2777349.4079797,47.820862086209,0,0
60.984380239635,-35.856055639034,42.625292529253,2700351.5625681,-84.742952515156,2777349.4079797,47.825292529253,0,0
60.984380525157,-35.859729777281,42.629722972297,2700351.5625681,-84.742952515156,2777349.4079797,47.829722972297,0,0
60.984380810678,-35.863403915528,42.634153415342,2700351.5625681,-84.742952515156,2777349.4079797,47.834153415342,0,0
60.9843810962,-35.867078053776,42.638583858386,2700351.5625681,-84.742952515156,2777349.4079797,47.838583858386,0,0
60.984381381721,-35.870752192023,42.64301430143,2700351.5625681,-84.742952515156,2777349.4079797,47.84301430143,0,0
60.984381667242,-35.87442633027,42.647444744474,2700351.5625681,-84.742952515156,2777349.4079797,47.847444744474,0,0
60.984381952764,-35.878100468517,42.651875187519,2700351.5625681,-84.742952515156,2777349.4079797,47.851875187519,0,0
60.984382238285,-35.881774606765,42.656305630563,2700351.5625681,-84.742952515156,2777349.4079797,47.856305630563,0,0
60.984382523807,-35.885448745012,42.660736073607,2700351.5625681,-84.742952515156,2777349.4079797,47.860736073607,0,0
60.984382809328,-35.889122883259,42.665166516652,2700351.5625681,-84.742952515156,2777349.4079797,47.865166516652,0,0
60.98438309485,-35.892797021507,42.669596959696,2700351.5625681,-84.742952515156,2777349.4079797,47.869596959696,0,0
60.984383380371,-35.896471159754,42.67402740274,2700351.5625681,-84.742952515156,2777349.4079797,47.87402740274,0,0
60.984383665892,-35.900145298001,42.678457845785,2700351.5625681,-84.742952515156,2777349.4079797,47.878457845785,0,0
60.984383951414,-35.903819436249,42.682888288829,2700351.5625681,-84.742952515156,2777349.4079797,47.882888288829,0,0
60.984384236935,-35.907493574496,42.687318731873,2700351.5625681,-84.742952515156,2777349.4079797,47.887318731873,0,0
60.984384522457,-35.911167712743,42.691749174917,2700351.5625681,-84.742952515156,2777349.4079797,47.891749174917,0,0
60.984384807978,-35.914841850991,42.696179617962,2700351.5625681,-84.742952515156,2777349.4079797,47.896179617962,0,0
60.9843850935,-35.918515989238,42.700610061006,2700351.5625681,-84.742952515156,2777349.4079797,47.900610061006,0,0
60.984385379021,-35.922190127485,42.70504050405,2700351.5625681,-84.742952515156,2777349.4079797,47.90504050405,0,0
60.984385664542,-35.925864265733,42.709470947095,2700351.5625681,-84.742952515156,2777349.4079797,47.909470947095,0,0
60.984385950064,-35.92953840398,42.713901390139,2700351.5625681,-84.742952515156,2777349.4079797,47.913901390139,0,0
60.984386235585,-35.933212542227,42.718331833183,2700351.5625681,-84.742952515156,2777349.4079797,47.918331833183,0,0
60.984386521107,-35.936886680475,42.722762276228,2700351.5625681,-84.742952515156,2777349.4079797,47.922762276228,0,0
60.984386806628,-35.940560818722,42.727192719272,2700351.5625681,-84.742952515156,2777349.4079797,47.927192719272,0,0
60.984387092149,-35.944234956969,42.731623162316,2700351.5625681,-84.742952515156,2777349.4079797,47.931623162316,0,0
60.984387377671,-35.947909095216,42.736053605361,2700351.5625681,-84.742952515156,2777349.4079797,47.936053605361,0,0
60.984387663192,-35.951583233464,42.740484048405,2700351.5625681,-84.742952515156,2777349.4079797,47.940484048405,0,0
60.984387948714,-35.955257371711,42.744914491449,2700351.5625681,-84.742952515156,2777349.4079797,47.944914491449,0,0
60.984388234235,-35.958931509958,42.749344934493,2700351.5625681,-84.742952515156,2777349.4079797,47.949344934493,0,0
60.984388519757,-35.962605648206,42.753775377538,2700351.5625681,-84.742952515156,2777349.4079797,47.953775377538,0,0
60.984388805278,-35.966279786453,42.758205820582,2700351.5625681,-84.742952515156,2777349.4079797,47.958205820582,0,0
60.984389090799,-35.9699539247,42.762636263626,2700351.5625681,-84.742952515156,2777349.4079797,47.962636263626,0,0
60.984389376321,-35.973628062948,42.767066706671,2700351.5625681,-84.742952515156,2777349.4079797,47.967066706671,0,0
60.984389661842,-35.977302201195,42.771497149715,2700351.5625681,-84.742952515156,2777349.4079797,47.971497149715,0,0
60.984389947364,-35.980976339442,42.775927592759,2700351.5625681,-84.742952515156,2777349.4079797,47.975927592759,0,0
60.984390232885,-35.98465047769,42.780358035804,2700351.5625681,-84.742952515156,2777349.4079797,47.980358035804,0,0
60.984390518407,-35.988324615937,42.784788478848,2700351.5625681,-84.742952515156,2777349.4079797,47.984788478848,0,0
60.984390803928,-35.991998754184,42.789218921892,2700351.5625681,-84.742952515156,2777349.4079797,47.989218921892,0,0
60.984391089449,-35.995672892432,42.793649364936,2700351.5625681,-84.742952515156,2777349.4079797,47.993649364936,0,0
60.984391374971,-35.999347030679,42.798079807981,2700351.5625681,-84.742952515156,2777349.4079797,47.998079807981,0,0
60.984391660492,-36.003021168926,42.802510251025,2700351.5625681,-84.742952515156,2777349.4079797,48.002510251025,0,0
60.984391946014,-36.006695307173,42.806940694069,2700351.5625681,-84.742952515156,2777349.4079797,48.006940694069,0,0
60.984392231535,-36.010369445421,42.811371137114,2700351.5625681,-84.742952515156,2777349.4079797,48.011371137114,0,0
60.984392517057,-36.014043583668,42.815801580158,2700351.5625681,-84.742952515156,2777349.4079797,48.015801580158,0,0
60.984392802578,-36.017717721915,42.820232023202,2700351.5625681,-84.742952515156,2777349.4079797,48.020232023202,0,0
60.984393088099,-36.021391860163,42.824662466247,2700351.5625681,-84.742952515156,2777349.4079797,48.024662466247,0,0
60.984393373621,-36.02506599841,42.829092909291,2700351.5625681,-84.742952515156,2777349.4079797,48.029092909291,0,0
60.984393659142,-36.028740136657,42.833523352335,2700351.5625681,-84.742952515156,2777349.4079797,48.033523352335,0,0
60.984393944664,-36.032414274905,42.83795379538,2700351.5625681,-84.742952515156,2777349.4079797,48.03795379538,0,0
60.984394230185,-36.036088413152,42.842384238424,2700351.5625681,-84.742952515156,2777349.4079797,48.042384238424,0,0
60.984394515707,-36.039762551399,42.846814681468,2700351.5625681,-84.742952515156,2777349.4079797,48.046814681468,0,0
60.984394801228,-36.043436689647,42.851245124512,2700351.5625681,-84.742952515156,2777349.4079797,48.051245124512,0,0
60.984395086749,-36.047110827894,42.855675567557,2700351.5625681,-84.742952515156,2777349.4079797,48.055675567557,0,0
60.984395372271,-36.050784966141,42.860106010601,2700351.5625681,-84.742952515156,2777349.4079797,48.060106010601,0,0
60.984395657792,-36.054459104389,42.864536453645,2700351.5625681,-84.742952515156,2777349.4079797,48.064536453645,0,0
60.984395943314,-36.058133242636,42.86896689669,2700351.5625681,-84.742952515156,2777349.4079797,48.06896689669,0,0
60.984396228835,-36.061807380883,42.873397339734,2700351.5625681,-84.742952515156,2777349.4079797,48.073397339734,0,0
60.984396514357,-36.065481519131,42.877827782778,2700351.5625681,-84.742952515156,2777349.4079797,48.077827782778,0,0
60.984396799878,-36.069155657378,42.882258225823,2700351.5625681,-84.742952515156,2777349.4079797,48.082258225823,0,0
60.984397085399,-36.072829795625,42.886688668867,2700351.5625681,-84.742952515156,2777349.4079797,48.086688668867,0,0
60.984397370921,-36.076503933872,42.891119111911,2700351.5625681,-84.742952515156,2777349.4079797,48.091119111911,0,0
60.984397656442,-36.08017807212,42.895549554955,2700351.5625681,-84.742952515156,2777349.4079797,48.095549554955,0,0
60.984397941964,-36.083852210367,42.899979998,2700351.5625681,-84.742952515156,2777349.4079797,48.099979998,0,0
60.984398227485,-36.087526348614,42.904410441044,2700351.5625681,-84.742952515156,2777349.4079797,48.104410441044,0,0
60.984398513007,-36.091200486862,42.908840884088,2700351.5625681,-84.742952515156,2777349.4079797,48.108840884088,0,0
60.984398798528,-36.094874625109,42.913271327133,2700351.5625681,-84.742952515156,2777349.4079797,48.113271327133,0,0
60.984399084049,-36.098548763356,42.917701770177,2700351.5625681,-84.742952515156,2777349.4079797,48.117701770177,0,0
60.984399369571,-36.102222901604,42.922132213221,2700351.5625681,-84.742952515156,2777349.4079797,48.122132213221,0,0
60.984399655092,-36.105897039851,42.926562656266,2700351.5625681,-84.742952515156,2777349.4079797,48.126562656266,0,0
60.984399940614,-36.109571178098,42.93099309931,2700351.5625681,-84.742952515156,2777349.4079797,48.13099309931,0,0
60.984400226135,-36.113245316346,42.935423542354,2700351.5625681,-84.742952515156,2777349.4079797,48.135423542354,0,0
60.984400511657,-36.116919454593,42.939853985399,2700351.5625681,-84.742952515156,2777349.4079797,48.139853985399,0,0
60.984400797178,-36.12059359284,42.944284428443,2700351.5625681,-84.742952515156,2777349.4079797,48.144284428443,0,0
60.984401082699,-36.124267731088,42.948714871487,2700351.5625681,-84.742952515156,2777349.4079797,48.148714871487,0,0
60.984401368221,-36.127941869335,42.953145314531,2700351.5625681,-84.742952515156,2777349.4079797,48.153145314531,0,0
60.984401653742,-36.131616007582,42.957575757576,2700351.5625681,-84.742952515156,2777349.4079797,48.157575757576,0,0
60.984401939264,-36.13529014583,42.96200620062,2700351.5625681,-84.742952515156,2777349.4079797,48.16200620062,0,0
60.984402224785,-36.138964284077,42.966436643664,2700351.5625681,-84.742952515156,2777349.4079797,48.166436643664,0,0
60.984402510307,-36.142638422324,42.970867086709,2700351.5625681,-84.742952515156,2777349.4079797,48.170867086709,0,0
60.984402795828,-36.146312560571,42.975297529753,2700351.5625681,-84.742952515156,2777349.4079797,48.175297529753,0,0
60.984403081349,-36.149986698819,42.979727972797,2700351.5625681,-84.742952515156,2777349.4079797,48.179727972797,0,0
60.984403366871,-36.153660837066,42.984158415842,2700351.5625681,-84.742952515156,2777349.4079797,48.184158415842,0,0
60.984403652392,-36.157334975313,42.988588858886,2700351.5625681,-84.742952515156,2777349.4079797,48.188588858886,0,0
60.984403937914,-36.161009113561,42.99301930193,2700351.5625681,-84.742952515156,2777349.4079797,48.19301930193,0,0
60.984404223435,-36.164683251808,42.997449744974,2700351.5625681,-84.742952515156,2777349.4079797,48.197449744974,0,0
60.984404508957,-36.168357390055,43.001880188019,2700351.5625681,-84.742952515156,2777349.4079797,48.201880188019,0,0
60.984404794478,-36.172031528303,43.006310631063,2700351.5625681,-84.742952515156,2777349.4079797,48.206310631063,0,0
60.984405079999,-36.17570566655,43.010741074107,2700351.5625681,-84.742952515156,2777349.4079797,48.210741074107,0,0
60.984405365521,-36.179379804797,43.015171517152,2700351.5625681,-84.742952515156,2777349.4079797,48.215171517152,0,0
60.984405651042,-36.183053943045,43.019601960196,2700351.5625681,-84.742952515156,2777349.4079797,48.219601960196,0,0
60.984405936564,-36.186728081292,43.02403240324,2700351.5625681,-84.742952515156,2777349.4079797,48.22403240324,0,0
60.984406222085,-36.190402219539,43.028462846285,2700351.5625681,-84.742952515156,2777349.4079797,48.228462846285,0,0
60.984406507607,-36.194076357787,43.032893289329,2700351.5625681,-84.742952515156,2777349.4079797,48.232893289329,0,0
60.984406793128,-36.197750496034,43.037323732373,2700351.5625681,-84.742952515156,2777349.4079797,48.237323732373,0,0
60.984407078649,-36.201424634281,43.041754175418,2700351.5625681,-84.742952515156,2777349.4079797,48.241754175418,0,0
60.984407364171,-36.205098772528,43.046184618462,2700351.5625681,-84.742952515156,2777349.4079797,48.246184618462,0,0
60.984407649692,-36.208772910776,43.050615061506,2700351.5625681,-84.742952515156,2777349.4079797,48.250615061506,0,0
60.984407935214,-36.212447049023,43.05504550455,2700351.5625681,-84.742952515156,2777349.4079797,48.25504550455,0,0
60.984408220735,-36.21612118727,43.059475947595,2700351.5625681,-84.742952515156,2777349.4079797,48.259475947595,0,0
60.984408506257,-36.219795325518,43.063906390639,2700351.5625681,-84.742952515156,2777349.4079797,48.263906390639,0,0
60.984408791778,-36.223469463765,43.068336833683,2700351.5625681,-84.742952515156,2777349.4079797,48.268336833683,0,0
60.984409077299,-36.227143602012,43.072767276728,2700351.5625681,-84.742952515156,2777349.4079797,48.272767276728,0,0
60.984409362821,-36.23081774026,43.077197719772,2700351.5625681,-84.742952515156,2777349.4079797,48.277197719772,0,0
60.984409648342,-36.234491878507,43.081628162816,2700351.5625681,-84.742952515156,2777349.4079797,48.281628162816,0,0
60.984409933864,-36.238166016754,43.086058605861,2700351.5625681,-84.742952515156,2777349.4079797,48.286058605861,0,0
60.984410219385,-36.241840155002,43.090489048905,2700351.5625681,-84.742952515156,2777349.4079797,48.290489048905,0,0
60.984410504907,-36.245514293249,43.094919491949,2700351.5625681,-84.742952515156,2777349.4079797,48.294919491949,0,0
60.984410790428,-36.249188431496,43.099349934993,2700351.5625681,-84.742952515156,2777349.4079797,48.299349934994,0,0
60.984411075949,-36.252862569744,43.103780378038,2700351.5625681,-84.742952515156,2777349.4079797,48.303780378038,0,0
60.984411361471,-36.256536707991,43.108210821082,2700351.5625681,-84.742952515156,2777349.4079797,48.308210821082,0,0
60.984411646992,-36.260210846238,43.112641264126,2700351.5625681,-84.742952515156,2777349.4079797,48.312641264126,0,0
60.984411932514,-36.263884984486,43.117071707171,2700351.5625681,-84.742952515156,2777349.4079797,48.317071707171,0,0
60.984412218035,-36.267559122733,43.121502150215,2700351.5625681,-84.742952515156,2777349.4079797,48.321502150215,0,0
60.984412503557,-36.27123326098,43.125932593259,2700351.5625681,-84.742952515156,2777349.4079797,48.325932593259,0,0
60.984412789078,-36.274907399227,43.130363036304,2700351.5625681,-84.742952515156,2777349.4079797,48.330363036304,0,0
60.984413074599,-36.278581537475,43.134793479348,2700351.5625681,-84.742952515156,2777349.4079797,48.334793479348,0,0
60.984413360121,-36.282255675722,43.139223922392,2700351.5625681,-84.742952515156,2777349.4079797,48.339223922392,0,0
60.984413645642,-36.285929813969,43.143654365437,2700351.5625681,-84.742952515156,2777349.4079797,48.343654365437,0,0
60.984413931164,-36.289603952217,43.148084808481,2700351.5625681,-84.742952515156,2777349.4079797,48.348084808481,0,0
60.984414216685,-36.293278090464,43.152515251525,2700351.5625681,-84.742952515156,2777349.4079797,48.352515251525,0,0
60.984414502206,-36.296952228711,43.156945694569,2700351.5625681,-84.742952515156,2777349.4079797,48.356945694569,0,0
60.984414787728,-36.300626366959,43.161376137614,2700351.5625681,-84.742952515156,2777349.4079797,48.361376137614,0,0
60.984415073249,-36.304300505206,43.165806580658,2700351.5625681,-84.742952515156,2777349.4079797,48.365806580658,0,0
60.984415358771,-36.307974643453,43.170237023702,2700351.5625681,-84.742952515156,2777349.4079797,48.370237023702,0,0
60.984415644292,-36.311648781701,43.174667466747,2700351.5625681,-84.742952515156,2777349.4079797,48.374667466747,0,0
60.984415929814,-36.315322919948,43.179097909791,2700351.5625681,-84.742952515156,2777349.4079797,48.379097909791,0,0
60.984416215335,-36.318997058195,43.183528352835,2700351.5625681,-84.742952515156,2777349.4079797,48.383528352835,0,0
60.984416500856,-36.322671196443,43.18795879588,2700351.5625681,-84.742952515156,2777349.4079797,48.38795879588,0,0
60.984416786378,-36.32634533469,43.192389238924,2700351.5625681,-84.742952515156,2777349.4079797,48.392389238924,0,0
60.984417071899,-36.330019472937,43.196819681968,2700351.5625681,-84.742952515156,2777349.4079797,48.396819681968,0,0
60.984417357421,-36.333693611185,43.201250125012,2700351.5625681,-84.742952515156,2777349.4079797,48.401250125013,0,0
60.984417642942,-36.337367749432,43.205680568057,2700351.5625681,-84.742952515156,2777349.4079797,48.405680568057,0,0
60.984417928464,-36.341041887679,43.210111011101,2700351.5625681,-84.742952515156,2777349.4079797,48.410111011101,0,0
60.984418213985,-36.344716025926,43.214541454145,2700351.5625681,-84.742952515156,2777349.4079797,48.414541454145,0,0
60.984418499506,-36.348390164174,43.21897189719,2700351.5625681,-84.742952515156,2777349.4079797,48.41897189719,0,0
60.984418785028,-36.352064302421,43.223402340234,2700351.5625681,-84.742952515156,2777349.4079797,48.423402340234,0,0
60.984419070549,-36.355738440668,43.227832783278,2700351.5625681,-84.742952515156,2777349.4079797,48.427832783278,0,0
60.984419356071,-36.359412578916,43.232263226323,2700351.5625681,-84.742952515156,2777349.4079797,48.432263226323,0,0
60.984419641592,-36.363086717163,43.236693669367,2700351.5625681,-84.742952515156,2777349.4079797,48.436693669367,0,0
60.984419927114,-36.36676085541,43.241124112411,2700351.5625681,-84.742952515156,2777349.4079797,48.441124112411,0,0
60.984420212635,-36.370434993658,43.245554555456,2700351.5625681,-84.742952515156,2777349.4079797,48.445554555456,0,0
60.984420498156,-36.374109131905,43.2499849985,2700351.5625681,-84.742952515156,2777349.4079797,48.4499849985,0,0
60.984420783678,-36.377783270152,43.254415441544,2700351.5625681,-84.742952515156,2777349.4079797,48.454415441544,0,0
60.984421069199,-36.3814574084,43.258845884588,2700351.5625681,-84.742952515156,2777349.4079797,48.458845884588,0,0
60.984421354721,-36.385131546647,43.263276327633,2700351.5625681,-84.742952515156,2777349.4079797,48.463276327633,0,0
60.984421640242,-36.388805684894,43.267706770677,2700351.5625681,-84.742952515156,2777349.4079797,48.467706770677,0,0
60.984421925764,-36.392479823142,43.272137213721,2700351.5625681,-84.742952515156,2777349.4079797,48.472137213721,0,0
60.984422211285,-36.396153961389,43.276567656766,2700351.5625681,-84.742952515156,2777349.4079797,48.476567656766,0,0
60.984422496806,-36.399828099636,43.28099809981,2700351.5625681,-84.742952515156,2777349.4079797,48.48099809981,0,0
60.984422782328,-36.403502237884,43.285428542854,2700351.5625681,-84.742952515156,2777349.4079797,48.485428542854,0,0
60.984423067849,-36.407176376131,43.289858985899,2700351.5625681,-84.742952515156,2777349.4079797,48.489858985899,0,0
60.984423353371,-36.410850514378,43.294289428943,2700351.5625681,-84.742952515156,2777349.4079797,48.494289428943,0,0
60.984423638892,-36.414524652625,43.298719871987,2700351.5625681,-84.742952515156,2777349.4079797,48.498719871987,0,0
60.984423924414,-36.418198790873,43.303150315032,2700351.5625681,-84.742952515156,2777349.4079797,48.503150315032,0,0
60.984424209935,-36.42187292912,43.307580758076,2700351.5625681,-84.742952515156,2777349.4079797,48.507580758076,0,0
60.984424495456,-36.425547067367,43.31201120112,2700351.5625681,-84.742952515156,2777349.4079797,48.51201120112,0,0
60.984424780978,-36.429221205615,43.316441644164,2700351.5625681,-84.742952515156,2777349.4079797,48.516441644164,0,0
60.984425066499,-36.432895343862,43.320872087209,2700351.5625681,-84.742952515156,2777349.4079797,48.520872087209,0,0
60.984425352021,-36.436569482109,43.325302530253,2700351.5625681,-84.742952515156,2777349.4079797,48.525302530253,0,0
60.984425637542,-36.440243620357,43.329732973297,2700351.5625681,-84.742952515156,2777349.4079797,48.529732973297,0,0
60.984425923064,-36.443917758604,43.334163416342,2700351.5625681,-84.742952515156,2777349.4079797,48.534163416342,0,0
60.984426208585,-36.447591896851,43.338593859386,2700351.5625681,-84.742952515156,2777349.4079797,48.538593859386,0,0
60.984426494106,-36.451266035099,43.34302430243,2700351.5625681,-84.742952515156,2777349.4079797,48.54302430243,0,0
60.984426779628,-36.454940173346,43.347454745475,2700351.5625681,-84.742952515156,2777349.4079797,48.547454745475,0,0
60.984427065149,-36.458614311593,43.351885188519,2700351.5625681,-84.742952515156,2777349.4079797,48.551885188519,0,0
60.984427350671,-36.462288449841,43.356315631563,2700351.5625681,-84.742952515156,2777349.4079797,48.556315631563,0,0
60.984427636192,-36.465962588088,43.360746074607,2700351.5625681,-84.742952515156,2777349.4079797,48.560746074607,0,0
60.984427921714,-36.469636726335,43.365176517652,2700351.5625681,-84.742952515156,2777349.4079797,48.565176517652,0,0
60.984428207235,-36.473310864582,43.369606960696,2700351.5625681,-84.742952515156,2777349.4079797,48.569606960696,0,0
60.984428492756,-36.47698500283,43.37403740374,2700351.5625681,-84.742952515156,2777349.4079797,48.57403740374,0,0
60.984428778278,-36.480659141077,43.378467846785,2700351.5625681,-84.742952515156,2777349.4079797,48.578467846785,0,0
60.984429063799,-36.484333279324,43.382898289829,2700351.5625681,-84.742952515156,2777349.4079797,48.582898289829,0,0
60.984429349321,-36.488007417572,43.387328732873,2700351.5625681,-84.742952515156,2777349.4079797,48.587328732873,0,0
60.984429634842,-36.491681555819,43.391759175918,2700351.5625681,-84.742952515156,2777349.4079797,48.591759175918,0,0
60.984429920364,-36.495355694066,43.396189618962,2700351.5625681,-84.742952515156,2777349.4079797,48.596189618962,0,0
60.984430205885,-36.499029832314,43.400620062006,2700351.5625681,-84.742952515156,2777349.4079797,48.600620062006,0,0
60.984430491406,-36.502703970561,43.405050505051,2700351.5625681,-84.742952515156,2777349.4079797,48.605050505051,0,0
60.984430776928,-36.506378108808,43.409480948095,2700351.5625681,-84.742952515156,2777349.4079797,48.609480948095,0,0
60.984431062449,-36.510052247056,43.413911391139,2700351.5625681,-84.742952515156,2777349.4079797,48.613911391139,0,0
60.984431347971,-36.513726385303,43.418341834183,2700351.5625681,-84.742952515156,2777349.4079797,48.618341834183,0,0
60.984431633492,-36.51740052355,43.422772277228,2700351.5625681,-84.742952515156,2777349.4079797,48.622772277228,0,0
60.984431919014,-36.521074661798,43.427202720272,2700351.5625681,-84.742952515156,2777349.4079797,48.627202720272,0,0
60.984432204535,-36.524748800045,43.431633163316,2700351.5625681,-84.742952515156,2777349.4079797,48.631633163316,0,0
60.984432490056,-36.528422938292,43.436063606361,2700351.5625681,-84.742952515156,2777349.4079797,48.636063606361,0,0
60.984432775578,-36.53209707654,43.440494049405,2700351.5625681,-84.742952515156,2777349.4079797,48.640494049405,0,0
60.984433061099,-36.535771214787,43.444924492449,2700351.5625681,-84.742952515156,2777349.4079797,48.644924492449,0,0
60.984433346621,-36.539445353034,43.449354935494,2700351.5625681,-84.742952515156,2777349.4079797,48.649354935494,0,0
60.984433632142,-36.543119491281,43.453785378538,2700351.5625681,-84.742952515156,2777349.4079797,48.653785378538,0,0
60.984433917664,-36.546793629529,43.458215821582,2700351.5625681,-84.742952515156,2777349.4079797,48.658215821582,0,0
60.984434203185,-36.550467767776,43.462646264626,2700351.5625681,-84.742952515156,2777349.4079797,48.662646264626,0,0
60.984434488706,-36.554141906023,43.467076707671,2700351.5625681,-84.742952515156,2777349.4079797,48.667076707671,0,0
60.984434774228,-36.557816044271,43.471507150715,2700351.5625681,-84.742952515156,2777349.4079797,48.671507150715,0,0
60.984435059749,-36.561490182518,43.475937593759,2700351.5625681,-84.742952515156,2777349.4079797,48.675937593759,0,0
60.984435345271,-36.565164320765,43.480368036804,2700351.5625681,-84.742952515156,2777349.4079797,48.680368036804,0,0
60.984435630792,-36.568838459013,43.484798479848,2700351.5625681,-84.742952515156,2777349.4079797,48.684798479848,0,0
60.984435916314,-36.57251259726,43.489228922892,2700351.5625681,-84.742952515156,2777349.4079797,48.689228922892,0,0
60.984436201835,-36.576186735507,43.493659365937,2700351.5625681,-84.742952515156,2777349.4079797,48.693659365937,0,0
60.984436487356,-36.579860873755,43.498089808981,2700351.5625681,-84.742952515156,2777349.4079797,48.698089808981,0,0
60.984436772878,-36.583535012002,43.502520252025,2700351.5625681,-84.742952515156,2777349.4079797,48.702520252025,0,0
60.984437058399,-36.587209150249,43.50695069507,2700351.5625681,-84.742952515156,2777349.4079797,48.70695069507,0,0
60.984437343921,-36.590883288497,43.511381138114,2700351.5625681,-84.742952515156,2777349.4079797,48.711381138114,0,0
60.984437629442,-36.594557426744,43.515811581158,2700351.5625681,-84.742952515156,2777349.4079797,48.715811581158,0,0
60.984437914964,-36.598231564991,43.520242024202,2700351.5625681,-84.742952515156,2777349.4079797,48.720242024202,0,0
60.984438200485,-36.601905703239,43.524672467247,2700351.5625681,-84.742952515156,2777349.4079797,48.724672467247,0,0
60.984438486006,-36.605579841486,43.529102910291,2700351.5625681,-84.742952515156,2777349.4079797,48.729102910291,0,0
60.984438771528,-36.609253979733,43.533533353335,2700351.5625681,-84.742952515156,2777349.4079797,48.733533353335,0,0
60.984439057049,-36.61292811798,43.53796379638,2700351.5625681,-84.742952515156,2777349.4079797,48.73796379638,0,0
60.984439342571,-36.616602256228,43.542394239424,2700351.5625681,-84.742952515156,2777349.4079797,48.742394239424,0,0
60.984439628092,-36.620276394475,43.546824682468,2700351.5625681,-84.742952515156,2777349.4079797,48.746824682468,0,0
60.984439913613,-36.623950532722,43.551255125513,2700351.5625681,-84.742952515156,2777349.4079797,48.751255125513,0,0
60.984440199135,-36.62762467097,43.555685568557,2700351.5625681,-84.742952515156,2777349.4079797,48.755685568557,0,0
60.984440484656,-36.631298809217,43.560116011601,2700351.5625681,-84.742952515156,2777349.4079797,48.760116011601,0,0
60.984440770178,-36.634972947464,43.564546454645,2700351.5625681,-84.742952515156,2777349.4079797,48.764546454645,0,0
60.984441055699,-36.638647085712,43.56897689769,2700351.5625681,-84.742952515156,2777349.4079797,48.76897689769,0,0
60.984441341221,-36.642321223959,43.573407340734,2700351.5625681,-84.742952515156,2777349.4079797,48.773407340734,0,0
60.984441626742,-36.645995362206,43.577837783778,2700351.5625681,-84.742952515156,2777349.4079797,48.777837783778,0,0
60.984441912263,-36.649669500454,43.582268226823,2700351.5625681,-84.742952515156,2777349.4079797,48.782268226823,0,0
60.984442197785,-36.653343638701,43.586698669867,2700351.5625681,-84.742952515156,2777349.4079797,48.786698669867,0,0
60.984442483306,-36.657017776948,43.591129112911,2700351.5625681,-84.742952515156,2777349.4079797,48.791129112911,0,0
60.984442768828,-36.660691915196,43.595559555956,2700351.5625681,-84.742952515156,2777349.4079797,48.795559555956,0,0
60.984443054349,-36.664366053443,43.599989999,2700351.5625681,-84.742952515156,2777349.4079797,48.799989999,0,0
60.984443339871,-36.66804019169,43.604420442044,2700351.5625681,-84.742952515156,2777349.4079797,48.804420442044,0,0
60.984443625392,-36.671714329937,43.608850885089,2700351.5625681,-84.742952515156,2777349.4079797,48.808850885089,0,0
60.984443910913,-36.675388468185,43.613281328133,2700351.5625681,-84.742952515156,2777349.4079797,48.813281328133,0,0
60.984444196435,-36.679062606432,43.617711771177,2700351.5625681,-84.742952515156,2777349.4079797,48.817711771177,0,0
60.984444481956,-36.682736744679,43.622142214221,2700351.5625681,-84.742952515156,2777349.4079797,48.822142214221,0,0
60.984444767478,-36.686410882927,43.626572657266,2700351.5625681,-84.742952515156,2777349.4079797,48.826572657266,0,0
60.984445052999,-36.690085021174,43.63100310031,2700351.5625681,-84.742952515156,2777349.4079797,48.83100310031,0,0
60.984445338521,-36.693759159421,43.635433543354,2700351.5625681,-84.742952515156,2777349.4079797,48.835433543354,0,0
60.984445624042,-36.697433297669,43.639863986399,2700351.5625681,-84.742952515156,2777349.4079797,48.839863986399,0,0
60.984445909563,-36.701107435916,43.644294429443,2700351.5625681,-84.742952515156,2777349.4079797,48.844294429443,0,0
60.984446195085,-36.704781574163,43.648724872487,2700351.5625681,-84.742952515156,2777349.4079797,48.848724872487,0,0
60.984446480606,-36.708455712411,43.653155315532,2700351.5625681,-84.742952515156,2777349.4079797,48.853155315532,0,0
60.984446766128,-36.712129850658,43.657585758576,2700351.5625681,-84.742952515156,2777349.4079797,48.857585758576,0,0
60.984447051649,-36.715803988905,43.66201620162,2700351.5625681,-84.742952515156,2777349.4079797,48.86201620162,0,0
60.984447337171,-36.719478127153,43.666446644664,2700351.5625681,-84.742952515156,2777349.4079797,48.866446644664,0,0
60.984447622692,-36.7231522654,43.670877087709,2700351.5625681,-84.742952515156,2777349.4079797,48.870877087709,0,0
60.984447908213,-36.726826403647,43.675307530753,2700351.5625681,-84.742952515156,2777349.4079797,48.875307530753,0,0
60.984448193735,-36.730500541895,43.679737973797,2700351.5625681,-84.742952515156,2777349.4079797,48.879737973797,0,0
60.984448479256,-36.734174680142,43.684168416842,2700351.5625681,-84.742952515156,2777349.4079797,48.884168416842,0,0
60.984448764778,-36.737848818389,43.688598859886,2700351.5625681,-84.742952515156,2777349.4079797,48.888598859886,0,0
60.984449050299,-36.741522956636,43.69302930293,2700351.5625681,-84.742952515156,2777349.4079797,48.89302930293,0,0
60.984449335821,-36.745197094884,43.697459745975,2700351.5625681,-84.742952515156,2777349.4079797,48.897459745975,0,0
60.984449621342,-36.748871233131,43.701890189019,2700351.5625681,-84.742952515156,2777349.4079797,48.901890189019,0,0
60.984449906863,-36.752545371378,43.706320632063,2700351.5625681,-84.742952515156,2777349.4079797,48.906320632063,0,0
60.984450192385,-36.756219509626,43.710751075108,2700351.5625681,-84.742952515156,2777349.4079797,48.910751075108,0,0
60.984450477906,-36.759893647873,43.715181518152,2700351.5625681,-84.742952515156,2777349.4079797,48.915181518152,0,0
60.984450763428,-36.76356778612,43.719611961196,2700351.5625681,-84.742952515156,2777349.4079797,48.919611961196,0,0
60.984451048949,-36.767241924368,43.72404240424,2700351.5625681,-84.742952515156,2777349.4079797,48.92404240424,0,0
60.984451334471,-36.770916062615,43.728472847285,2700351.5625681,-84.742952515156,2777349.4079797,48.928472847285,0,0
60.984451619992,-36.774590200862,43.732903290329,2700351.5625681,-84.742952515156,2777349.4079797,48.932903290329,0,0
60.984451905513,-36.77826433911,43.737333733373,2700351.5625681,-84.742952515156,2777349.4079797,48.937333733373,0,0
60.984452191035,-36.781938477357,43.741764176418,2700351.5625681,-84.742952515156,2777349.4079797,48.941764176418,0,0
60.984452476556,-36.785612615604,43.746194619462,2700351.5625681,-84.742952515156,2777349.4079797,48.946194619462,0,0
60.984452762078,-36.789286753852,43.750625062506,2700351.5625681,-84.742952515156,2777349.4079797,48.950625062506,0,0
60.984453047599,-36.792960892099,43.755055505551,2700351.5625681,-84.742952515156,2777349.4079797,48.955055505551,0,0
60.984453333121,-36.796635030346,43.759485948595,2700351.5625681,-84.742952515156,2777349.4079797,48.959485948595,0,0
60.984453618642,-36.800309168594,43.763916391639,2700351.5625681,-84.742952515156,2777349.4079797,48.963916391639,0,0
60.984453904163,-36.803983306841,43.768346834683,2700351.5625681,-84.742952515156,2777349.4079797,48.968346834683,0,0
60.984454189685,-36.807657445088,43.772777277728,2700351.5625681,-84.742952515156,2777349.4079797,48.972777277728,0,0
60.984454475206,-36.811331583335,43.777207720772,2700351.5625681,-84.742952515156,2777349.4079797,48.977207720772,0,0
60.984454760728,-36.815005721583,43.781638163816,2700351.5625681,-84.742952515156,2777349.4079797,48.981638163816,0,0
60.984455046249,-36.81867985983,43.786068606861,2700351.5625681,-84.742952515156,2777349.4079797,48.986068606861,0,0
60.984455331771,-36.822353998077,43.790499049905,2700351.5625681,-84.742952515156,2777349.4079797,48.990499049905,0,0
60.984455617292,-36.826028136325,43.794929492949,2700351.5625681,-84.742952515156,2777349.4079797,48.994929492949,0,0
60.984455902813,-36.829702274572,43.799359935994,2700351.5625681,-84.742952515156,2777349.4079797,48.999359935994,0,0
60.984456188335,-36.833376412819,43.803790379038,2700351.5625681,-84.742952515156,2777349.4079797,49.003790379038,0,0
60.984456473856,-36.837050551067,43.808220822082,2700351.5625681,-84.742952515156,2777349.4079797,49.008220822082,0,0
60.984456759378,-36.840724689314,43.812651265127,2700351.5625681,-84.742952515156,2777349.4079797,49.012651265127,0,0
60.984457044899,-36.844398827561,43.817081708171,2700351.5625681,-84.742952515156,2777349.4079797,49.017081708171,0,0
60.984457330421,-36.848072965809,43.821512151215,2700351.5625681,-84.742952515156,2777349.4079797,49.021512151215,0,0
60.984457615942,-36.851747104056,43.825942594259,2700351.5625681,-84.742952515156,2777349.4079797,49.025942594259,0,0
60.984457901463,-36.855421242303,43.830373037304,2700351.5625681,-84.742952515156,2777349.4079797,49.030373037304,0,0
60.984458186985,-36.859095380551,43.834803480348,2700351.5625681,-84.742952515156,2777349.4079797,49.034803480348,0,0
60.984458472506,-36.862769518798,43.839233923392,2700351.5625681,-84.742952515156,2777349.4079797,49.039233923392,0,0
60.984458758028,-36.866443657045,43.843664366437,2700351.5625681,-84.742952515156,2777349.4079797,49.043664366437,0,0
60.984459043549,-36.870117795292,43.848094809481,2700351.5625681,-84.742952515156,2777349.4079797,49.048094809481,0,0
60.984459329071,-36.87379193354,43.852525252525,2700351.5625681,-84.742952515156,2777349.4079797,49.052525252525,0,0
60.984459614592,-36.877466071787,43.85695569557,2700351.5625681,-84.742952515156,2777349.4079797,49.05695569557,0,0
60.984459900113,-36.881140210034,43.861386138614,2700351.5625681,-84.742952515156,2777349.4079797,49.061386138614,0,0
60.984460185635,-36.884814348282,43.865816581658,2700351.5625681,-84.742952515156,2777349.4079797,49.065816581658,0,0
60.984460471156,-36.888488486529,43.870247024702,2700351.5625681,-84.742952515156,2777349.4079797,49.070247024702,0,0
60.984460756678,-36.892162624776,43.874677467747,2700351.5625681,-84.742952515156,2777349.4079797,49.074677467747,0,0
60.984461042199,-36.895836763024,43.879107910791,2700351.5625681,-84.742952515156,2777349.4079797,49.079107910791,0,0
60.984461327721,-36.899510901271,43.883538353835,2700351.5625681,-84.742952515156,2777349.4079797,49.083538353835,0,0
60.984461613242,-36.903185039518,43.88796879688,2700351.5625681,-84.742952515156,2777349.4079797,49.08796879688,0,0
60.984461898763,-36.906859177766,43.892399239924,2700351.5625681,-84.742952515156,2777349.4079797,49.092399239924,0,0
60.984462184285,-36.910533316013,43.896829682968,2700351.5625681,-84.742952515156,2777349.4079797,49.096829682968,0,0
60.984462469806,-36.91420745426,43.901260126013,2700351.5625681,-84.742952515156,2777349.4079797,49.101260126013,0,0
60.984462755328,-36.917881592508,43.905690569057,2700351.5625681,-84.742952515156,2777349.4079797,49.105690569057,0,0
60.984463040849,-36.921555730755,43.910121012101,2700351.5625681,-84.742952515156,2777349.4079797,49.110121012101,0,0
60.984463326371,-36.925229869002,43.914551455146,2700351.5625681,-84.742952515156,2777349.4079797,49.114551455146,0,0
60.984463611892,-36.92890400725,43.91898189819,2700351.5625681,-84.742952515156,2777349.4079797,49.11898189819,0,0
60.984463897413,-36.932578145497,43.923412341234,2700351.5625681,-84.742952515156,2777349.4079797,49.123412341234,0,0
60.984464182935,-36.936252283744,43.927842784278,2700351.5625681,-84.742952515156,2777349.4079797,49.127842784278,0,0
60.984464468456,-36.939926421991,43.932273227323,2700351.5625681,-84.742952515156,2777349.4079797,49.132273227323,0,0
60.984464753978,-36.943600560239,43.936703670367,2700351.5625681,-84.742952515156,2777349.4079797,49.136703670367,0,0
60.984465039499,-36.947274698486,43.941134113411,2700351.5625681,-84.742952515156,2777349.4079797,49.141134113411,0,0
60.984465325021,-36.950948836733,43.945564556456,2700351.5625681,-84.742952515156,2777349.4079797,49.145564556456,0,0
60.984465610542,-36.954622974981,43.9499949995,2700351.5625681,-84.742952515156,2777349.4079797,49.1499949995,0,0
60.984465896063,-36.958297113228,43.954425442544,2700351.5625681,-84.742952515156,2777349.4079797,49.154425442544,0,0
60.984466181585,-36.961971251475,43.958855885589,2700351.5625681,-84.742952515156,2777349.4079797,49.158855885589,0,0
60.984466467106,-36.965645389723,43.963286328633,2700351.5625681,-84.742952515156,2777349.4079797,49.163286328633,0,0
60.984466752628,-36.96931952797,43.967716771677,2700351.5625681,-84.742952515156,2777349.4079797,49.167716771677,0,0
60.984467038149,-36.972993666217,43.972147214721,2700351.5625681,-84.742952515156,2777349.4079797,49.172147214721,0,0
60.984467323671,-36.976667804465,43.976577657766,2700351.5625681,-84.742952515156,2777349.4079797,49.176577657766,0,0
60.984467609192,-36.980341942712,43.98100810081,2700351.5625681,-84.742952515156,2777349.4079797,49.18100810081,0,0
60.984467894713,-36.984016080959,43.985438543854,2700351.5625681,-84.742952515156,2777349.4079797,49.185438543854,0,0
60.984468180235,-36.987690219207,43.989868986899,2700351.5625681,-84.742952515156,2777349.4079797,49.189868986899,0,0
60.984468465756,-36.991364357454,43.994299429943,2700351.5625681,-84.742952515156,2777349.4079797,49.194299429943,0,0
60.984468751278,-36.995038495701,43.998729872987,2700351.5625681,-84.742952515156,2777349.4079797,49.198729872987,0,0
60.984469036799,-36.998712633949,44.003160316032,2700351.5625681,-84.742952515156,2777349.4079797,49.203160316032,0,0
60.98446932232,-37.002386772196,44.007590759076,2700351.5625681,-84.742952515156,2777349.4079797,49.207590759076,0,0
60.984469607842,-37.006060910443,44.01202120212,2700351.5625681,-84.742952515156,2777349.4079797,49.21202120212,0,0
60.984469893363,-37.00973504869,44.016451645165,2700351.5625681,-84.742952515156,2777349.4079797,49.216451645165,0,0
60.984470178885,-37.013409186938,44.020882088209,2700351.5625681,-84.742952515156,2777349.4079797,49.220882088209,0,0
60.984470464406,-37.017083325185,44.025312531253,2700351.5625681,-84.742952515156,2777349.4079797,49.225312531253,0,0
60.984470749928,-37.020757463432,44.029742974297,2700351.5625681,-84.742952515156,2777349.4079797,49.229742974297,0,0
60.984471035449,-37.02443160168,44.034173417342,2700351.5625681,-84.742952515156,2777349.4079797,49.234173417342,0,0
60.98447132097,-37.028105739927,44.038603860386,2700351.5625681,-84.742952515156,2777349.4079797,49.238603860386,0,0
60.984471606492,-37.031779878174,44.04303430343,2700351.5625681,-84.742952515156,2777349.4079797,49.24303430343,0,0
60.984471892013,-37.035454016422,44.047464746475,2700351.5625681,-84.742952515156,2777349.4079797,49.247464746475,0,0
60.984472177535,-37.039128154669,44.051895189519,2700351.5625681,-84.742952515156,2777349.4079797,49.251895189519,0,0
60.984472463056,-37.042802292916,44.056325632563,2700351.5625681,-84.742952515156,2777349.4079797,49.256325632563,0,0
60.984472748578,-37.046476431164,44.060756075608,2700351.5625681,-84.742952515156,2777349.4079797,49.260756075608,0,0
60.984473034099,-37.050150569411,44.065186518652,2700351.5625681,-84.742952515156,2777349.4079797,49.265186518652,0,0
60.98447331962,-37.053824707658,44.069616961696,2700351.5625681,-84.742952515156,2777349.4079797,49.269616961696,0,0
60.984473605142,-37.057498845906,44.07404740474,2700351.5625681,-84.742952515156,2777349.4079797,49.27404740474,0,0
60.984473890663,-37.061172984153,44.078477847785,2700351.5625681,-84.742952515156,2777349.4079797,49.278477847785,0,0
60.984474176185,-37.0648471224,44.082908290829,2700351.5625681,-84.742952515156,2777349.4079797,49.282908290829,0,0
60.984474461706,-37.068521260647,44.087338733873,2700351.5625681,-84.742952515156,2777349.4079797,49.287338733873,0,0
60.984474747228,-37.072195398895,44.091769176918,2700351.5625681,-84.742952515156,2777349.4079797,49.291769176918,0,0
60.984475032749,-37.075869537142,44.096199619962,2700351.5625681,-84.742952515156,2777349.4079797,49.296199619962,0,0
60.98447531827,-37.079543675389,44.100630063006,2700351.5625681,-84.742952515156,2777349.4079797,49.300630063006,0,0
60.984475603792,-37.083217813637,44.105060506051,2700351.5625681,-84.742952515156,2777349.4079797,49.305060506051,0,0
60.984475889313,-37.086891951884,44.109490949095,2700351.5625681,-84.742952515156,2777349.4079797,49.309490949095,0,0
60.984476174835,-37.090566090131,44.113921392139,2700351.5625681,-84.742952515156,2777349.4079797,49.313921392139,0,0
60.984476460356,-37.094240228379,44.118351835184,2700351.5625681,-84.742952515156,2777349.4079797,49.318351835184,0,0
60.984476745878,-37.097914366626,44.122782278228,2700351.5625681,-84.742952515156,2777349.4079797,49.322782278228,0,0
60.984477031399,-37.101588504873,44.127212721272,2700351.5625681,-84.742952515156,2777349.4079797,49.327212721272,0,0
60.98447731692,-37.105262643121,44.131643164316,2700351.5625681,-84.742952515156,2777349.4079797,49.331643164316,0,0
60.984477602442,-37.108936781368,44.136073607361,2700351.5625681,-84.742952515156,2777349.4079797,49.336073607361,0,0
60.984477887963,-37.112610919615,44.140504050405,2700351.5625681,-84.742952515156,2777349.4079797,49.340504050405,0,0
60.984478173485,-37.116285057863,44.144934493449,2700351.5625681,-84.742952515156,2777349.4079797,49.344934493449,0,0
60.984478459006,-37.11995919611,44.149364936494,2700351.5625681,-84.742952515156,2777349.4079797,49.349364936494,0,0
60.984478744528,-37.123633334357,44.153795379538,2700351.5625681,-84.742952515156,2777349.4079797,49.353795379538,0,0
60.984479030049,-37.127307472605,44.158225822582,2700351.5625681,-84.742952515156,2777349.4079797,49.358225822582,0,0
60.98447931557,-37.130981610852,44.162656265627,2700351.5625681,-84.742952515156,2777349.4079797,49.362656265627,0,0
60.984479601092,-37.134655749099,44.167086708671,2700351.5625681,-84.742952515156,2777349.4079797,49.367086708671,0,0
60.984479886613,-37.138329887346,44.171517151715,2700351.5625681,-84.742952515156,2777349.4079797,49.371517151715,0,0
60.984480172135,-37.142004025594,44.175947594759,2700351.5625681,-84.742952515156,2777349.4079797,49.375947594759,0,0
60.984480457656,-37.145678163841,44.180378037804,2700351.5625681,-84.742952515156,2777349.4079797,49.380378037804,0,0
60.984480743178,-37.149352302088,44.184808480848,2700351.5625681,-84.742952515156,2777349.4079797,49.384808480848,0,0
60.984481028699,-37.153026440336,44.189238923892,2700351.5625681,-84.742952515156,2777349.4079797,49.389238923892,0,0
60.98448131422,-37.156700578583,44.193669366937,2700351.5625681,-84.742952515156,2777349.4079797,49.393669366937,0,0
60.984481599742,-37.16037471683,44.198099809981,2700351.5625681,-84.742952515156,2777349.4079797,49.398099809981,0,0
60.984481885263,-37.164048855078,44.202530253025,2700351.5625681,-84.742952515156,2777349.4079797,49.402530253025,0,0
60.984482170785,-37.167722993325,44.20696069607,2700351.5625681,-84.742952515156,2777349.4079797,49.40696069607,0,0
60.984482456306,-37.171397131572,44.211391139114,2700351.5625681,-84.742952515156,2777349.4079797,49.411391139114,0,0
60.984482741828,-37.17507126982,44.215821582158,2700351.5625681,-84.742952515156,2777349.4079797,49.415821582158,0,0
60.984483027349,-37.178745408067,44.220252025203,2700351.5625681,-84.742952515156,2777349.4079797,49.420252025203,0,0
60.98448331287,-37.182419546314,44.224682468247,2700351.5625681,-84.742952515156,2777349.4079797,49.424682468247,0,0
60.984483598392,-37.186093684562,44.229112911291,2700351.5625681,-84.742952515156,2777349.4079797,49.429112911291,0,0
60.984483883913,-37.189767822809,44.233543354335,2700351.5625681,-84.742952515156,2777349.4079797,49.433543354335,0,0
60.984484169435,-37.193441961056,44.23797379738,2700351.5625681,-84.742952515156,2777349.4079797,49.43797379738,0,0
60.984484454956,-37.197116099303,44.242404240424,2700351.5625681,-84.742952515156,2777349.4079797,49.442404240424,0,0
60.984484740478,-37.200790237551,44.246834683468,2700351.5625681,-84.742952515156,2777349.4079797,49.446834683468,0,0
60.984485025999,-37.204464375798,44.251265126513,2700351.5625681,-84.742952515156,2777349.4079797,49.451265126513,0,0
60.98448531152,-37.208138514045,44.255695569557,2700351.5625681,-84.742952515156,2777349.4079797,49.455695569557,0,0
60.984485597042,-37.211812652293,44.260126012601,2700351.5625681,-84.742952515156,2777349.4079797,49.460126012601,0,0
60.984485882563,-37.21548679054,44.264556455646,2700351.5625681,-84.742952515156,2777349.4079797,49.464556455646,0,0
60.984486168085,-37.219160928787,44.26898689869,2700351.5625681,-84.742952515156,2777349.4079797,49.46898689869,0,0
60.984486453606,-37.222835067035,44.273417341734,2700351.5625681,-84.742952515156,2777349.4079797,49.473417341734,0,0
60.984486739128,-37.226509205282,44.277847784778,2700351.5625681,-84.742952515156,2777349.4079797,49.477847784778,0,0
60.984487024649,-37.230183343529,44.282278227823,2700351.5625681,-84.742952515156,2777349.4079797,49.482278227823,0,0
60.98448731017,-37.233857481777,44.286708670867,2700351.5625681,-84.742952515156,2777349.4079797,49.486708670867,0,0
60.984487595692,-37.237531620024,44.291139113911,2700351.5625681,-84.742952515156,2777349.4079797,49.491139113911,0,0
60.984487881213,-37.241205758271,44.295569556956,2700351.5625681,-84.742952515156,2777349.4079797,49.495569556956,0,0
60.984488166735,-37.244879896519,44.3,2700351.5625681,-84.742952515156,2777349.4079797,49.5,0,0
