disp_x,disp_y,id,stress_xx,stress_xy,stress_yy,x,y,z
-144.72009130132,-39.556735287033,0,300016.44272706,-43192.050359357,6494449.973345,5.2,0,0
-144.72009137838,-39.571089400234,0.0044304430443045,300016.44272706,-43192.050359357,6494449.973345,5.2044304430443,0,0
-144.72009145545,-39.585443513435,0.008860886088609,300016.44272706,-43192.050359357,6494449.973345,5.2088608860886,0,0
-144.72009153251,-39.599797626636,0.013291329132914,300016.44272706,-43192.050359357,6494449.973345,5.2132913291329,0,0
-144.72009160957,-39.614151739837,0.017721772177218,300016.44272706,-43192.050359357,6494449.973345,5.2177217721772,0,0
-144.72009168343,-39.628505838325,0.022152215221523,277564.92759399,37402.922409819,6253257.9983348,5.2221522152215,0,0
-144.72009175587,-39.64285993029,0.026582658265826,277564.92759399,37402.922409819,6253257.9983348,5.2265826582658,0,0
-144.7200918283,-39.657214022255,0.031013101310131,277564.92759399,37402.922409819,6253257.9983348,5.2310131013101,0,0
-144.72009190074,-39.671568114221,0.035443544354435,277564.92759399,37402.922409819,6253257.9983348,5.2354435443544,0,0
-144.72009197317,-39.685922206186,0.03987398739874,277564.92759399,37402.922409819,6253257.9983348,5.2398739873987,0,0
-144.72009204561,-39.700276298151,0.044304430443044,277564.92759399,37402.922409819,6253257.9983348,5.244304430443,0,0
-144.72009211805,-39.714630390117,0.048734873487349,277564.92759399,37402.922409819,6253257.9983348,5.2487348734873,0,0
-144.72009219048,-39.728984482082,0.053165316531653,277564.92759399,37402.922409819,6253257.9983348,5.2531653165317,0,0
-144.72009226292,-39.743338574047,0.057595759575958,277564.92759399,37402.922409819,6253257.9983348,5.257595759576,0,0
-144.72009233535,-39.757692666013,0.062026202620262,277564.92759399,37402.922409819,6253257.9983348,5.2620262026203,0,0
-144.72009240779,-39.772046757978,0.066456645664567,277564.92759399,37402.922409819,6253257.9983348,5.2664566456646,0,0
-144.72009248022,-39.786400849943,0.070887088708871,277564.92759399,37402.922409819,6253257.9983348,5.2708870887089,0,0
-144.72009255266,-39.800754941909,0.075317531753175,277564.92759399,37402.922409819,6253257.9983348,5.2753175317532,0,0
-144.7200926251,-39.815109033874,0.079747974797479,277564.92759399,37402.922409819,6253257.9983348,5.2797479747975,0,0
-144.72009269753,-39.829463125839,0.084178417841784,277564.92759399,37402.922409819,6253257.9983348,5.2841784178418,0,0
-144.72009276997,-39.843817217805,0.088608860886088,277564.92759399,37402.922409819,6253257.9983348,5.2886088608861,0,0
-144.72009284129,-39.858171311515,0.093039303930393,415709.18210928,-30828.185570135,6196879.7671419,5.2930393039304,0,0
-144.7200929012,-39.872525423211,0.097469746974697,415709.18210928,-30828.185570135,6196879.7671419,5.2974697469747,0,0
-144.7200929611,-39.886879534907,0.101900190019,415709.18210928,-30828.185570135,6196879.7671419,5.301900190019,0,0
-144.720093021,-39.901233646604,0.10633063306331,415709.18210928,-30828.185570135,6196879.7671419,5.3063306330633,0,0
-144.7200930809,-39.9155877583,0.11076107610761,415709.18210928,-30828.185570135,6196879.7671419,5.3107610761076,0,0
-144.7200931408,-39.929941869997,0.11519151915192,415709.18210928,-30828.185570135,6196879.7671419,5.3151915191519,0,0
-144.7200932007,-39.944295981693,0.11962196219622,415709.18210928,-30828.185570135,6196879.7671419,5.3196219621962,0,0
-144.7200932606,-39.95865009339,0.12405240524052,415709.18210928,-30828.185570135,6196879.7671419,5.3240524052405,0,0
-144.7200933205,-39.973004205086,0.12848284828483,415709.18210928,-30828.185570135,6196879.7671419,5.3284828482848,0,0
-144.7200933804,-39.987358316782,0.13291329132913,415709.18210928,-30828.185570135,6196879.7671419,5.3329132913291,0,0
-144.7200934403,-40.001712428479,0.13734373437344,415709.18210928,-30828.185570135,6196879.7671419,5.3373437343734,0,0
-144.7200935002,-40.016066540175,0.14177417741774,415709.18210928,-30828.185570135,6196879.7671419,5.3417741774177,0,0
-144.7200935601,-40.030420651872,0.14620462046205,415709.18210928,-30828.185570135,6196879.7671419,5.346204620462,0,0
-144.72009362,-40.044774763568,0.15063506350635,415709.18210928,-30828.185570135,6196879.7671419,5.3506350635064,0,0
-144.7200936799,-40.059128875265,0.15506550655066,415709.18210928,-30828.185570135,6196879.7671419,5.3550655065507,0,0
-144.7200937398,-40.073482986961,0.15949594959496,415709.18210928,-30828.185570135,6196879.7671419,5.359495949595,0,0
-144.7200937997,-40.087837098658,0.16392639263926,415709.18210928,-30828.185570135,6196879.7671419,5.3639263926393,0,0
-144.7200938596,-40.102191210354,0.16835683568357,415709.18210928,-30828.185570135,6196879.7671419,5.3683568356836,0,0
-144.7200939195,-40.11654532205,0.17278727872787,415709.18210928,-30828.185570135,6196879.7671419,5.3727872787279,0,0
-144.7200939794,-40.130899433747,0.17721772177218,415709.18210928,-30828.185570135,6196879.7671419,5.3772177217722,0,0
-144.7200940393,-40.145253545443,0.18164816481648,415709.18210928,-30828.185570135,6196879.7671419,5.3816481648165,0,0
-144.72009409708,-40.159607648609,0.18607860786079,417425.86597811,61244.808605261,5977840.2362348,5.3860786078608,0,0
-144.72009415101,-40.173961736327,0.19050905090509,417425.86597811,61244.808605261,5977840.2362348,5.3905090509051,0,0
-144.72009420494,-40.188315824045,0.19493949394939,417425.86597811,61244.808605261,5977840.2362348,5.3949394939494,0,0
-144.72009425887,-40.202669911763,0.1993699369937,417425.86597811,61244.808605261,5977840.2362348,5.3993699369937,0,0
-144.7200943128,-40.217023999481,0.203800380038,417425.86597811,61244.808605261,5977840.2362348,5.403800380038,0,0
-144.72009436673,-40.231378087199,0.20823082308231,417425.86597811,61244.808605261,5977840.2362348,5.4082308230823,0,0
-144.72009442066,-40.245732174917,0.21266126612661,417425.86597811,61244.808605261,5977840.2362348,5.4126612661266,0,0
-144.72009447459,-40.260086262635,0.21709170917092,417425.86597811,61244.808605261,5977840.2362348,5.4170917091709,0,0
-144.72009452853,-40.274440350353,0.22152215221522,417425.86597811,61244.808605261,5977840.2362348,5.4215221522152,0,0
-144.72009458246,-40.288794438071,0.22595259525953,417425.86597811,61244.808605261,5977840.2362348,5.4259525952595,0,0
-144.72009463639,-40.303148525789,0.23038303830383,417425.86597811,61244.808605261,5977840.2362348,5.4303830383038,0,0
-144.72009468697,-40.317502619182,0.23481348134813,547349.60097212,-11230.267879318,5924391.5320416,5.4348134813481,0,0
-144.7200947291,-40.331856726898,0.23924392439244,547349.60097212,-11230.267879318,5924391.5320416,5.4392439243924,0,0
-144.72009477123,-40.346210834614,0.24367436743674,547349.60097212,-11230.267879318,5924391.5320416,5.4436743674367,0,0
-144.72009481336,-40.36056494233,0.24810481048105,547349.60097212,-11230.267879318,5924391.5320416,5.448104810481,0,0
-144.72009485549,-40.374919050046,0.25253525352535,547349.60097212,-11230.267879318,5924391.5320416,5.4525352535254,0,0
-144.72009489762,-40.389273157762,0.25696569656966,547349.60097212,-11230.267879318,5924391.5320416,5.4569656965697,0,0
-144.72009493975,-40.403627265478,0.26139613961396,547349.60097212,-11230.267879318,5924391.5320416,5.461396139614,0,0
-144.72009498188,-40.417981373194,0.26582658265827,547349.60097212,-11230.267879318,5924391.5320416,5.4658265826583,0,0
-144.72009502401,-40.43233548091,0.27025702570257,547349.60097212,-11230.267879318,5924391.5320416,5.4702570257026,0,0
-144.72009506614,-40.446689588626,0.27468746874687,547349.60097212,-11230.267879318,5924391.5320416,5.4746874687469,0,0
-144.72009510827,-40.461043696341,0.27911791179118,547349.60097212,-11230.267879318,5924391.5320416,5.4791179117912,0,0
-144.7200951504,-40.475397804057,0.28354835483548,547349.60097212,-11230.267879318,5924391.5320416,5.4835483548355,0,0
-144.72009519253,-40.489751911773,0.28797879787979,547349.60097212,-11230.267879318,5924391.5320416,5.4879787978798,0,0
-144.72009523466,-40.504106019489,0.29240924092409,547349.60097212,-11230.267879318,5924391.5320416,5.4924092409241,0,0
-144.72009527679,-40.518460127205,0.2968396839684,547349.60097212,-11230.267879318,5924391.5320416,5.4968396839684,0,0
-144.72009531892,-40.532814234921,0.3012701270127,547349.60097212,-11230.267879318,5924391.5320416,5.5012701270127,0,0
-144.72009536105,-40.547168342637,0.30570057005701,547349.60097212,-11230.267879318,5924391.5320416,5.505700570057,0,0
-144.72009540318,-40.561522450353,0.31013101310131,547349.60097212,-11230.267879318,5924391.5320416,5.5101310131013,0,0
-144.72009544531,-40.575876558069,0.31456145614561,547349.60097212,-11230.267879318,5924391.5320416,5.5145614561456,0,0
-144.72009548744,-40.590230665785,0.31899189918992,547349.60097212,-11230.267879318,5924391.5320416,5.5189918991899,0,0
-144.72009552958,-40.6045847735,0.32342234223422,547349.60097212,-11230.267879318,5924391.5320416,5.5234223422342,0,0
-144.72009557171,-40.618938881216,0.32785278527853,547349.60097212,-11230.267879318,5924391.5320416,5.5278527852785,0,0
-144.72009561384,-40.633292988932,0.33228322832283,547349.60097212,-11230.267879318,5924391.5320416,5.5322832283228,0,0
-144.72009565597,-40.647647096648,0.33671367136714,547349.60097212,-11230.267879318,5924391.5320416,5.5367136713671,0,0
-144.7200956981,-40.662001204364,0.34114411441144,547349.60097212,-11230.267879318,5924391.5320416,5.5411441144114,0,0
-144.72009574023,-40.67635531208,0.34557455745575,547349.60097212,-11230.267879318,5924391.5320416,5.5455745574557,0,0
-144.72009578236,-40.690709419796,0.35000500050005,547349.60097212,-11230.267879318,5924391.5320416,5.5500050005001,0,0
-144.72009582195,-40.705063518953,0.35443544354435,561289.54006672,67195.540898319,5726263.8170436,5.5544354435444,0,0
-144.72009585769,-40.719417605154,0.35886588658866,561289.54006672,67195.540898319,5726263.8170436,5.5588658865887,0,0
-144.72009589343,-40.733771691355,0.36329632963296,561289.54006672,67195.540898319,5726263.8170436,5.563296329633,0,0
-144.72009592917,-40.748125777557,0.36772677267727,561289.54006672,67195.540898319,5726263.8170436,5.5677267726773,0,0
-144.72009596491,-40.762479863758,0.37215721572157,561289.54006672,67195.540898319,5726263.8170436,5.5721572157216,0,0
-144.72009600065,-40.77683394996,0.37658765876588,561289.54006672,67195.540898319,5726263.8170436,5.5765876587659,0,0
-144.7200960364,-40.791188036161,0.38101810181018,561289.54006672,67195.540898319,5726263.8170436,5.5810181018102,0,0
-144.72009607056,-40.805542125131,0.38544854485449,672769.44846744,1208.1648514141,5678077.3153172,5.5854485448545,0,0
-144.72009609612,-40.819896229261,0.38987898789879,672769.44846744,1208.1648514141,5678077.3153172,5.5898789878988,0,0
-144.72009612167,-40.834250333392,0.39430943094309,672769.44846744,1208.1648514141,5678077.3153172,5.5943094309431,0,0
-144.72009614723,-40.848604437522,0.3987398739874,672769.44846744,1208.1648514141,5678077.3153172,5.5987398739874,0,0
-144.72009617278,-40.862958541653,0.4031703170317,672769.44846744,1208.1648514141,5678077.3153172,5.6031703170317,0,0
-144.72009619833,-40.877312645783,0.40760076007601,672769.44846744,1208.1648514141,5678077.3153172,5.607600760076,0,0
-144.72009622389,-40.891666749914,0.41203120312031,672769.44846744,1208.1648514141,5678077.3153172,5.6120312031203,0,0
-144.72009624944,-40.906020854044,0.41646164616462,672769.44846744,1208.1648514141,5678077.3153172,5.6164616461646,0,0
-144.720096275,-40.920374958175,0.42089208920892,672769.44846744,1208.1648514141,5678077.3153172,5.6208920892089,0,0
-144.72009630055,-40.934729062305,0.42532253225323,672769.44846744,1208.1648514141,5678077.3153172,5.6253225322532,0,0
-144.7200963261,-40.949083166436,0.42975297529753,672769.44846744,1208.1648514141,5678077.3153172,5.6297529752975,0,0
-144.72009635166,-40.963437270566,0.43418341834183,672769.44846744,1208.1648514141,5678077.3153172,5.6341834183418,0,0
-144.72009637721,-40.977791374696,0.43861386138614,672769.44846744,1208.1648514141,5678077.3153172,5.6386138613861,0,0
-144.72009640277,-40.992145478827,0.44304430443044,672769.44846744,1208.1648514141,5678077.3153172,5.6430443044304,0,0
-144.72009642832,-41.006499582957,0.44747474747475,672769.44846744,1208.1648514141,5678077.3153172,5.6474747474747,0,0
-144.72009645388,-41.020853687088,0.45190519051905,672769.44846744,1208.1648514141,5678077.3153172,5.6519051905191,0,0
-144.72009647943,-41.035207791218,0.45633563356336,672769.44846744,1208.1648514141,5678077.3153172,5.6563356335634,0,0
-144.72009650498,-41.049561895349,0.46076607660766,672769.44846744,1208.1648514141,5678077.3153172,5.6607660766077,0,0
-144.72009653054,-41.063915999479,0.46519651965196,672769.44846744,1208.1648514141,5678077.3153172,5.665196519652,0,0
-144.72009655609,-41.07827010361,0.46962696269627,672769.44846744,1208.1648514141,5678077.3153172,5.6696269626963,0,0
-144.72009658165,-41.09262420774,0.47405740574057,672769.44846744,1208.1648514141,5678077.3153172,5.6740574057406,0,0
-144.7200966072,-41.106978311871,0.47848784878488,672769.44846744,1208.1648514141,5678077.3153172,5.6784878487849,0,0
-144.72009663275,-41.121332416001,0.48291829182918,672769.44846744,1208.1648514141,5678077.3153172,5.6829182918292,0,0
-144.72009665831,-41.135686520132,0.48734873487349,672769.44846744,1208.1648514141,5678077.3153172,5.6873487348735,0,0
-144.72009668386,-41.150040624262,0.49177917791779,672769.44846744,1208.1648514141,5678077.3153172,5.6917791779178,0,0
-144.72009670942,-41.164394728393,0.4962096209621,672769.44846744,1208.1648514141,5678077.3153172,5.6962096209621,0,0
-144.72009673497,-41.178748832523,0.5006400640064,672769.44846744,1208.1648514141,5678077.3153172,5.7006400640064,0,0
-144.72009676052,-41.193102936654,0.50507050705071,672769.44846744,1208.1648514141,5678077.3153172,5.7050705070507,0,0
-144.72009678608,-41.207457040784,0.50950095009501,672769.44846744,1208.1648514141,5678077.3153172,5.709500950095,0,0
-144.72009681163,-41.221811144915,0.51393139313931,672769.44846744,1208.1648514141,5678077.3153172,5.7139313931393,0,0
-144.72009683719,-41.236165249045,0.51836183618362,672769.44846744,1208.1648514141,5678077.3153172,5.7183618361836,0,0
-144.72009686274,-41.250519353176,0.52279227922792,672769.44846744,1208.1648514141,5678077.3153172,5.7227922792279,0,0
-144.7200968883,-41.264873457306,0.52722272227223,672769.44846744,1208.1648514141,5678077.3153172,5.7272227222722,0,0
-144.72009691385,-41.279227561437,0.53165316531653,672769.44846744,1208.1648514141,5678077.3153172,5.7316531653165,0,0
-144.7200969354,-41.293581652472,0.53608360836084,682485.38728076,69254.480140353,5486420.6259503,5.7360836083608,0,0
-144.72009695508,-41.307935737353,0.54051405140514,682485.38728076,69254.480140353,5486420.6259503,5.7405140514051,0,0
-144.72009696731,-41.322289835404,0.54494449444945,779519.21027979,11285.633447551,5431286.4405141,5.7449444944494,0,0
-144.72009697776,-41.336643936585,0.54937493749375,779519.21027979,11285.633447551,5431286.4405141,5.7493749374937,0,0
-144.72009698822,-41.350998037766,0.55380538053805,779519.2102798,11285.633447551,5431286.4405141,5.7538053805381,0,0
-144.72009699868,-41.365352138947,0.55823582358236,779519.2102798,11285.633447551,5431286.4405141,5.7582358235824,0,0
-144.72009700913,-41.379706240129,0.56266626662666,779519.2102798,11285.633447551,5431286.4405141,5.7626662666267,0,0
-144.72009701959,-41.39406034131,0.56709670967097,779519.2102798,11285.633447551,5431286.4405141,5.767096709671,0,0
-144.72009703005,-41.408414442491,0.57152715271527,779519.2102798,11285.633447551,5431286.4405141,5.7715271527153,0,0
-144.7200970405,-41.422768543672,0.57595759575958,779519.2102798,11285.633447551,5431286.4405141,5.7759575957596,0,0
-144.72009705096,-41.437122644854,0.58038803880388,779519.2102798,11285.633447551,5431286.4405141,5.7803880388039,0,0
-144.72009706141,-41.451476746035,0.58481848184818,779519.2102798,11285.633447551,5431286.4405141,5.7848184818482,0,0
-144.72009707187,-41.465830847216,0.58924892489249,779519.2102798,11285.633447551,5431286.4405141,5.7892489248925,0,0
-144.72009708233,-41.480184948398,0.59367936793679,779519.2102798,11285.633447551,5431286.4405141,5.7936793679368,0,0
-144.72009709299,-41.494539050185,0.5981098109811,726159.55869187,-10683.765911017,5286547.9052365,5.7981098109811,0,0
-144.72009710386,-41.508893152552,0.6025402540254,726159.55869187,-10683.765911017,5286547.9052365,5.8025402540254,0,0
-144.72009711472,-41.523247254919,0.60697069706971,726159.55869187,-10683.765911017,5286547.9052365,5.8069706970697,0,0
-144.72009712559,-41.537601357285,0.61140114011401,726159.55869187,-10683.765911017,5286547.9052365,5.811401140114,0,0
-144.72009713645,-41.551955459652,0.61583158315832,726159.55869187,-10683.765911017,5286547.9052365,5.8158315831583,0,0
-144.72009714732,-41.566309562018,0.62026202620262,726159.55869187,-10683.765911017,5286547.9052365,5.8202620262026,0,0
-144.72009715818,-41.580663664385,0.62469246924692,726159.55869187,-10683.765911017,5286547.9052365,5.8246924692469,0,0
-144.72009716905,-41.595017766751,0.62912291229123,726159.55869187,-10683.765911017,5286547.9052365,5.8291229122912,0,0
-144.72009717991,-41.609371869118,0.63355335533553,726159.55869187,-10683.765911017,5286547.9052365,5.8335533553355,0,0
-144.72009719078,-41.623725971485,0.63798379837984,726159.55869187,-10683.765911017,5286547.9052365,5.8379837983798,0,0
-144.72009720164,-41.638080073851,0.64241424142414,726159.55869187,-10683.765911017,5286547.9052365,5.8424142414241,0,0
-144.72009721251,-41.652434176218,0.64684468446845,726159.55869187,-10683.765911017,5286547.9052365,5.8468446844684,0,0
-144.72009722337,-41.666788278584,0.65127512751275,726159.55869187,-10683.765911017,5286547.9052365,5.8512751275128,0,0
-144.72009723424,-41.681142380951,0.65570557055706,726159.55869187,-10683.765911017,5286547.9052365,5.8557055705571,0,0
-144.7200972451,-41.695496483318,0.66013601360136,726159.55869187,-10683.765911017,5286547.9052365,5.8601360136014,0,0
-144.72009725597,-41.709850585684,0.66456645664566,726159.55869187,-10683.765911017,5286547.9052365,5.8645664566457,0,0
-144.72009726683,-41.724204688051,0.66899689968997,726159.55869187,-10683.765911017,5286547.9052365,5.86899689969,0,0
-144.7200972777,-41.738558790417,0.67342734273427,726159.55869187,-10683.765911017,5286547.9052365,5.8734273427343,0,0
-144.72009728856,-41.752912892784,0.67785778577858,726159.55869187,-10683.765911017,5286547.9052365,5.8778577857786,0,0
-144.72009729943,-41.767266995151,0.68228822882288,726159.55869187,-10683.765911017,5286547.9052365,5.8822882288229,0,0
-144.72009731029,-41.781621097517,0.68671867186719,726159.55869187,-10683.765911017,5286547.9052365,5.8867186718672,0,0
-144.72009732116,-41.795975199884,0.69114911491149,726159.55869187,-10683.765911017,5286547.9052365,5.8911491149115,0,0
-144.72009732742,-41.810329306079,0.6955795579558,886806.41856845,-46031.775148185,5313512.7438531,5.8955795579558,0,0
-144.72009732617,-41.824683418527,0.7000100010001,886806.41856845,-46031.775148185,5313512.7438531,5.9000100010001,0,0
-144.72009732492,-41.839037530974,0.7044404440444,886806.41856845,-46031.775148185,5313512.7438531,5.9044404440444,0,0
-144.72009732367,-41.853391643421,0.70887088708871,886806.41856845,-46031.775148185,5313512.7438531,5.9088708870887,0,0
-144.72009732243,-41.867745755869,0.71330133013301,886806.41856845,-46031.775148185,5313512.7438531,5.913301330133,0,0
-144.72009732118,-41.882099868316,0.71773177317732,886806.41856845,-46031.775148185,5313512.7438531,5.9177317731773,0,0
-144.72009732022,-41.896453977636,0.72216221622162,821196.51028952,-11909.609199938,5138156.9332556,5.9221622162216,0,0
-144.72009731954,-41.91080808396,0.72659265926593,821196.51028952,-11909.609199938,5138156.9332556,5.9265926592659,0,0
-144.72009731887,-41.925162190284,0.73102310231023,821196.51028952,-11909.609199938,5138156.9332556,5.9310231023102,0,0
-144.72009731819,-41.939516296608,0.73545354535454,821196.51028952,-11909.609199938,5138156.9332556,5.9354535453545,0,0
-144.72009731751,-41.953870402932,0.73988398839884,821196.51028952,-11909.609199938,5138156.9332556,5.9398839883988,0,0
-144.72009731683,-41.968224509257,0.74431443144314,821196.51028952,-11909.609199938,5138156.9332556,5.9443144314431,0,0
-144.72009731616,-41.982578615581,0.74874487448745,821196.51028952,-11909.609199938,5138156.9332556,5.9487448744874,0,0
-144.72009731548,-41.996932721905,0.75317531753175,821196.51028952,-11909.609199938,5138156.9332556,5.9531753175318,0,0
-144.7200973148,-42.011286828229,0.75760576057606,821196.51028952,-11909.609199938,5138156.9332556,5.9576057605761,0,0
-144.72009731413,-42.025640934553,0.76203620362036,821196.51028952,-11909.609199938,5138156.9332556,5.9620362036204,0,0
-144.72009731345,-42.039995040877,0.76646664666467,821196.51028952,-11909.609199938,5138156.9332556,5.9664666466647,0,0
-144.72009731277,-42.054349147201,0.77089708970897,821196.51028952,-11909.609199938,5138156.9332556,5.970897089709,0,0
-144.72009731209,-42.068703253525,0.77532753275328,821196.51028952,-11909.609199938,5138156.9332556,5.9753275327533,0,0
-144.72009731142,-42.083057359849,0.77975797579758,821196.51028952,-11909.609199938,5138156.9332556,5.9797579757976,0,0
-144.72009731074,-42.097411466173,0.78418841884188,821196.51028952,-11909.609199938,5138156.9332556,5.9841884188419,0,0
-144.72009731006,-42.111765572497,0.78861886188619,821196.51028952,-11909.609199938,5138156.9332556,5.9886188618862,0,0
-144.72009730939,-42.126119678821,0.79304930493049,821196.51028952,-11909.609199938,5138156.9332556,5.9930493049305,0,0
-144.72009730871,-42.140473785145,0.7974797479748,821196.51028952,-11909.609199938,5138156.9332556,5.9974797479748,0,0
-144.72009730803,-42.154827891469,0.8019101910191,821196.51028952,-11909.609199938,5138156.9332556,6.0019101910191,0,0
-144.72009730735,-42.169181997794,0.80634063406341,821196.51028952,-11909.609199938,5138156.9332556,6.0063406340634,0,0
-144.72009730668,-42.183536104118,0.81077107710771,821196.51028952,-11909.609199938,5138156.9332556,6.0107710771077,0,0
-144.720097306,-42.197890210442,0.81520152015201,821196.51028952,-11909.609199938,5138156.9332556,6.015201520152,0,0
-144.72009730532,-42.212244316766,0.81963196319632,821196.51028952,-11909.609199938,5138156.9332556,6.0196319631963,0,0
-144.72009730465,-42.22659842309,0.82406240624062,821196.51028952,-11909.609199938,5138156.9332556,6.0240624062406,0,0
-144.72009730397,-42.240952529414,0.82849284928493,821196.51028952,-11909.609199938,5138156.9332556,6.0284928492849,0,0
-144.72009730329,-42.255306635738,0.83292329232923,821196.51028952,-11909.609199938,5138156.9332556,6.0329232923292,0,0
-144.72009730261,-42.269660742062,0.83735373537354,821196.51028952,-11909.609199938,5138156.9332556,6.0373537353735,0,0
-144.72009730194,-42.284014848386,0.84178417841784,821196.51028952,-11909.609199938,5138156.9332556,6.0417841784178,0,0
-144.72009730126,-42.29836895471,0.84621462146215,821196.51028952,-11909.609199938,5138156.9332556,6.0462146214621,0,0
-144.72009729954,-42.312723059066,0.85064506450645,911965.40572801,48435.062128556,5081232.6129539,6.0506450645065,0,0
-144.7200972901,-42.327077148846,0.85507550755076,911965.40572801,48435.062128556,5081232.6129539,6.0550755075508,0,0
-144.72009728065,-42.341431238627,0.85950595059506,911965.40572801,48435.062128556,5081232.6129539,6.0595059505951,0,0
-144.72009727121,-42.355785328408,0.86393639363936,911965.40572801,48435.062128556,5081232.6129539,6.0639363936394,0,0
-144.72009726177,-42.370139418189,0.86836683668367,911965.40572801,48435.062128556,5081232.6129539,6.0683668366837,0,0
-144.72009725232,-42.384493507969,0.87279727972797,911965.40572801,48435.062128556,5081232.6129539,6.072797279728,0,0
-144.72009724288,-42.39884759775,0.87722772277228,911965.40572801,48435.062128556,5081232.6129539,6.0772277227723,0,0
-144.72009723344,-42.413201687531,0.88165816581658,911965.40572801,48435.062128556,5081232.6129539,6.0816581658166,0,0
-144.720097224,-42.427555777311,0.88608860886089,911965.40572801,48435.062128556,5081232.6129539,6.0860886088609,0,0
-144.72009721455,-42.441909867092,0.89051905190519,911965.40572801,48435.062128556,5081232.6129539,6.0905190519052,0,0
-144.72009720511,-42.456263956873,0.8949494949495,911965.40572801,48435.062128556,5081232.6129539,6.0949494949495,0,0
-144.72009719567,-42.470618046654,0.8993799379938,911965.40572801,48435.062128556,5081232.6129539,6.0993799379938,0,0
-144.72009718622,-42.484972136434,0.9038103810381,911965.40572801,48435.062128556,5081232.6129539,6.1038103810381,0,0
-144.72009717678,-42.499326226215,0.90824082408241,911965.40572801,48435.062128556,5081232.6129539,6.1082408240824,0,0
-144.72009716734,-42.513680315996,0.91267126712671,911965.40572801,48435.062128556,5081232.6129539,6.1126712671267,0,0
-144.72009715789,-42.528034405776,0.91710171017102,911965.40572801,48435.062128556,5081232.6129539,6.117101710171,0,0
-144.72009714845,-42.542388495557,0.92153215321532,911965.40572801,48435.062128556,5081232.6129539,6.1215321532153,0,0
-144.72009713901,-42.556742585338,0.92596259625963,911965.40572801,48435.062128556,5081232.6129539,6.1259625962596,0,0
-144.72009712957,-42.571096675118,0.93039303930393,911965.40572801,48435.062128556,5081232.6129539,6.1303930393039,0,0
-144.72009712012,-42.585450764899,0.93482348234823,911965.40572801,48435.062128556,5081232.6129539,6.1348234823482,0,0
-144.72009710903,-42.599804858737,0.93925392539254,963996.14769998,-18393.890966399,4940955.8199635,6.1392539253925,0,0
-144.72009709169,-42.614158967883,0.94368436843684,963996.14769998,-18393.890966399,4940955.8199635,6.1436843684368,0,0
-144.72009707436,-42.628513077028,0.94811481148115,963996.14769998,-18393.890966399,4940955.8199635,6.1481148114811,0,0
-144.72009705702,-42.642867186174,0.95254525452545,963996.14769998,-18393.890966399,4940955.8199635,6.1525452545255,0,0
-144.72009703969,-42.65722129532,0.95697569756976,963996.14769998,-18393.890966399,4940955.8199635,6.1569756975698,0,0
-144.72009702236,-42.671575404465,0.96140614061406,963996.14769998,-18393.890966399,4940955.8199635,6.1614061406141,0,0
-144.72009700502,-42.685929513611,0.96583658365837,963996.14769998,-18393.890966399,4940955.8199635,6.1658365836584,0,0
-144.72009698769,-42.700283622757,0.97026702670267,963996.14769998,-18393.890966399,4940955.8199635,6.1702670267027,0,0
-144.72009697035,-42.714637731902,0.97469746974697,963996.14769998,-18393.890966399,4940955.8199635,6.174697469747,0,0
-144.72009695302,-42.728991841048,0.97912791279128,963996.14769998,-18393.890966399,4940955.8199635,6.1791279127913,0,0
-144.72009693569,-42.743345950193,0.98355835583558,963996.14769998,-18393.890966399,4940955.8199635,6.1835583558356,0,0
-144.72009691835,-42.757700059339,0.98798879887989,963996.14769998,-18393.890966399,4940955.8199635,6.1879887988799,0,0
-144.72009690102,-42.772054168485,0.99241924192419,963996.14769998,-18393.890966399,4940955.8199635,6.1924192419242,0,0
-144.72009688369,-42.78640827763,0.9968496849685,963996.14769998,-18393.890966399,4940955.8199635,6.1968496849685,0,0
-144.72009686635,-42.800762386776,1.0012801280128,963996.14769998,-18393.890966399,4940955.8199635,6.2012801280128,0,0
-144.72009684902,-42.815116495922,1.0057105710571,963996.14769998,-18393.890966399,4940955.8199635,6.2057105710571,0,0
-144.72009683168,-42.829470605067,1.0101410141014,963996.14769998,-18393.890966399,4940955.8199635,6.2101410141014,0,0
-144.72009681435,-42.843824714213,1.0145714571457,963996.14769998,-18393.890966399,4940955.8199635,6.2145714571457,0,0
-144.72009679702,-42.858178823359,1.01900190019,963996.14769998,-18393.890966399,4940955.8199635,6.21900190019,0,0
-144.72009677968,-42.872532932504,1.0234323432343,963996.14769998,-18393.890966399,4940955.8199635,6.2234323432343,0,0
-144.72009676235,-42.88688704165,1.0278627862786,963996.14769998,-18393.890966399,4940955.8199635,6.2278627862786,0,0
-144.72009674501,-42.901241150796,1.0322932293229,963996.14769998,-18393.890966399,4940955.8199635,6.2322932293229,0,0
-144.72009672768,-42.915595259941,1.0367236723672,963996.14769998,-18393.890966399,4940955.8199635,6.2367236723672,0,0
-144.72009671035,-42.929949369087,1.0411541154115,963996.14769998,-18393.890966399,4940955.8199635,6.2411541154115,0,0
-144.72009669301,-42.944303478233,1.0455845584558,963996.14769998,-18393.890966399,4940955.8199635,6.2455845584558,0,0
-144.72009667568,-42.958657587378,1.0500150015002,963996.14769998,-18393.890966399,4940955.8199635,6.2500150015002,0,0
-144.72009665834,-42.973011696524,1.0544454445445,963996.14769998,-18393.890966399,4940955.8199635,6.2544454445445,0,0
-144.72009664101,-42.98736580567,1.0588758875888,963996.14769998,-18393.890966399,4940955.8199635,6.2588758875888,0,0
-144.72009662368,-43.001719914815,1.0633063306331,963996.14769998,-18393.890966399,4940955.8199635,6.2633063306331,0,0
-144.72009660634,-43.016074023961,1.0677367736774,963996.14769998,-18393.890966399,4940955.8199635,6.2677367736774,0,0
-144.72009658901,-43.030428133107,1.0721672167217,963996.14769998,-18393.890966399,4940955.8199635,6.2721672167217,0,0
-144.72009657167,-43.044782242252,1.076597659766,963996.14769998,-18393.890966399,4940955.8199635,6.276597659766,0,0
-144.72009655434,-43.059136351398,1.0810281028103,963996.14769998,-18393.890966399,4940955.8199635,6.2810281028103,0,0
-144.72009653701,-43.073490460543,1.0854585458546,963996.14769998,-18393.890966399,4940955.8199635,6.2854585458546,0,0
-144.72009651967,-43.087844569689,1.0898889888989,963996.14769998,-18393.890966399,4940955.8199635,6.2898889888989,0,0
-144.72009650234,-43.102198678835,1.0943194319432,963996.14769998,-18393.890966399,4940955.8199635,6.2943194319432,0,0
-144.72009648501,-43.11655278798,1.0987498749875,963996.14769998,-18393.890966399,4940955.8199635,6.2987498749875,0,0
-144.72009646767,-43.130906897126,1.1031803180318,963996.14769998,-18393.890966399,4940955.8199635,6.3031803180318,0,0
-144.72009644464,-43.145260990128,1.1076107610761,996379.50695742,44579.532575335,4805496.2847595,6.3076107610761,0,0
-144.72009642111,-43.159615081735,1.1120412041204,996379.50695742,44579.532575335,4805496.2847595,6.3120412041204,0,0
-144.72009639758,-43.173969173342,1.1164716471647,996379.50695742,44579.532575335,4805496.2847595,6.3164716471647,0,0
-144.72009637406,-43.188323264949,1.120902090209,996379.50695742,44579.532575335,4805496.2847595,6.320902090209,0,0
-144.72009635053,-43.202677356556,1.1253325332533,996379.50695742,44579.532575335,4805496.2847595,6.3253325332533,0,0
-144.720096327,-43.217031448163,1.1297629762976,996379.50695742,44579.532575335,4805496.2847595,6.3297629762976,0,0
-144.72009630347,-43.23138553977,1.1341934193419,996379.50695742,44579.532575335,4805496.2847595,6.3341934193419,0,0
-144.72009627995,-43.245739631377,1.1386238623862,996379.50695742,44579.532575335,4805496.2847595,6.3386238623862,0,0
-144.72009625642,-43.260093722984,1.1430543054305,996379.50695742,44579.532575335,4805496.2847595,6.3430543054305,0,0
-144.72009623289,-43.274447814591,1.1474847484748,996379.50695742,44579.532575335,4805496.2847595,6.3474847484748,0,0
-144.72009620936,-43.288801906198,1.1519151915192,996379.50695742,44579.532575335,4805496.2847595,6.3519151915192,0,0
-144.72009618584,-43.303155997805,1.1563456345635,996379.50695742,44579.532575335,4805496.2847595,6.3563456345635,0,0
-144.72009616231,-43.317510089411,1.1607760776078,996379.50695742,44579.532575335,4805496.2847595,6.3607760776078,0,0
-144.72009613878,-43.331864181018,1.1652065206521,996379.50695742,44579.532575335,4805496.2847595,6.3652065206521,0,0
-144.72009611526,-43.346218272625,1.1696369636964,996379.50695742,44579.532575335,4805496.2847595,6.3696369636964,0,0
-144.72009609173,-43.360572364232,1.1740674067407,996379.50695742,44579.532575335,4805496.2847595,6.3740674067407,0,0
-144.7200960682,-43.374926455839,1.178497849785,996379.50695742,44579.532575335,4805496.2847595,6.378497849785,0,0
-144.72009604467,-43.389280547446,1.1829282928293,996379.50695742,44579.532575335,4805496.2847595,6.3829282928293,0,0
-144.72009602115,-43.403634639053,1.1873587358736,996379.50695742,44579.532575335,4805496.2847595,6.3873587358736,0,0
-144.72009599596,-43.417988735065,1.1917891789179,1047125.3041509,-21441.50744025,4712582.0655787,6.3917891789179,0,0
-144.72009596591,-43.432342844033,1.1962196219622,1047125.3041509,-21441.50744025,4712582.0655787,6.3962196219622,0,0
-144.72009593585,-43.446696953001,1.2006500650065,1047125.3041509,-21441.50744025,4712582.0655787,6.4006500650065,0,0
-144.7200959058,-43.461051061969,1.2050805080508,1047125.3041509,-21441.50744025,4712582.0655787,6.4050805080508,0,0
-144.72009587575,-43.475405170937,1.2095109510951,1047125.3041509,-21441.50744025,4712582.0655787,6.4095109510951,0,0
-144.72009584569,-43.489759279905,1.2139413941394,1047125.3041509,-21441.50744025,4712582.0655787,6.4139413941394,0,0
-144.72009581564,-43.504113388873,1.2183718371837,1047125.3041509,-21441.50744025,4712582.0655787,6.4183718371837,0,0
-144.72009578558,-43.518467497841,1.222802280228,1047125.3041509,-21441.50744025,4712582.0655787,6.422802280228,0,0
-144.72009575553,-43.532821606808,1.2272327232723,1047125.3041509,-21441.50744025,4712582.0655787,6.4272327232723,0,0
-144.72009572547,-43.547175715776,1.2316631663166,1047125.3041509,-21441.50744025,4712582.0655787,6.4316631663166,0,0
-144.72009569542,-43.561529824744,1.2360936093609,1047125.3041509,-21441.50744025,4712582.0655787,6.4360936093609,0,0
-144.72009566536,-43.575883933712,1.2405240524052,1047125.3041509,-21441.50744025,4712582.0655787,6.4405240524052,0,0
-144.72009563531,-43.59023804268,1.2449544954495,1047125.3041509,-21441.50744025,4712582.0655787,6.4449544954495,0,0
-144.72009560526,-43.604592151648,1.2493849384938,1047125.3041509,-21441.50744025,4712582.0655787,6.4493849384938,0,0
-144.7200955752,-43.618946260616,1.2538153815382,1047125.3041509,-21441.50744025,4712582.0655787,6.4538153815382,0,0
-144.72009554515,-43.633300369584,1.2582458245825,1047125.3041509,-21441.50744025,4712582.0655787,6.4582458245825,0,0
-144.72009551509,-43.647654478551,1.2626762676268,1047125.3041509,-21441.50744025,4712582.0655787,6.4626762676268,0,0
-144.72009548504,-43.662008587519,1.2671067106711,1047125.3041509,-21441.50744025,4712582.0655787,6.4671067106711,0,0
-144.72009545498,-43.676362696487,1.2715371537154,1047125.3041509,-21441.50744025,4712582.0655787,6.4715371537154,0,0
-144.72009542493,-43.690716805455,1.2759675967597,1047125.3041509,-21441.50744025,4712582.0655787,6.4759675967597,0,0
-144.72009539488,-43.705070914423,1.280398039804,1047125.3041509,-21441.50744025,4712582.0655787,6.480398039804,0,0
-144.72009536482,-43.719425023391,1.2848284828483,1047125.3041509,-21441.50744025,4712582.0655787,6.4848284828483,0,0
-144.72009533477,-43.733779132359,1.2892589258926,1047125.3041509,-21441.50744025,4712582.0655787,6.4892589258926,0,0
-144.72009530471,-43.748133241327,1.2936893689369,1047125.3041509,-21441.50744025,4712582.0655787,6.4936893689369,0,0
-144.72009527466,-43.762487350294,1.2981198119812,1047125.3041509,-21441.50744025,4712582.0655787,6.4981198119812,0,0
-144.7200952446,-43.776841459262,1.3025502550255,1047125.3041509,-21441.50744025,4712582.0655787,6.5025502550255,0,0
-144.72009521455,-43.79119556823,1.3069806980698,1047125.3041509,-21441.50744025,4712582.0655787,6.5069806980698,0,0
-144.72009518449,-43.805549677198,1.3114111411141,1047125.3041509,-21441.50744025,4712582.0655787,6.5114111411141,0,0
-144.72009515444,-43.819903786166,1.3158415841584,1047125.3041509,-21441.50744025,4712582.0655787,6.5158415841584,0,0
-144.72009512439,-43.834257895134,1.3202720272027,1047125.3041509,-21441.50744025,4712582.0655787,6.5202720272027,0,0
-144.72009509433,-43.848612004102,1.324702470247,1047125.3041509,-21441.50744025,4712582.0655787,6.524702470247,0,0
-144.72009506428,-43.86296611307,1.3291329132913,1047125.3041509,-21441.50744025,4712582.0655787,6.5291329132913,0,0
-144.72009503422,-43.877320222038,1.3335633563356,1047125.3041509,-21441.50744025,4712582.0655787,6.5335633563356,0,0
-144.72009500417,-43.891674331005,1.3379937993799,1047125.3041509,-21441.50744025,4712582.0655787,6.5379937993799,0,0
-144.72009497411,-43.906028439973,1.3424242424242,1047125.3041509,-21441.50744025,4712582.0655787,6.5424242424242,0,0
-144.72009494397,-43.920382548687,1.3468546854685,1087110.1680799,41365.961535485,4614914.357105,6.5468546854685,0,0
-144.72009490812,-43.934736641162,1.3512851285129,1087110.1680799,41365.961535485,4614914.357105,6.5512851285129,0,0
-144.72009487227,-43.949090733637,1.3557155715572,1087110.1680799,41365.961535485,4614914.357105,6.5557155715572,0,0
-144.72009483642,-43.963444826112,1.3601460146015,1087110.1680799,41365.961535485,4614914.357105,6.5601460146015,0,0
-144.72009480057,-43.977798918587,1.3645764576458,1087110.1680799,41365.961535485,4614914.357105,6.5645764576458,0,0
-144.72009476473,-43.992153011062,1.3690069006901,1087110.1680799,41365.961535485,4614914.357105,6.5690069006901,0,0
-144.72009472888,-44.006507103537,1.3734373437344,1087110.1680799,41365.961535485,4614914.357105,6.5734373437344,0,0
-144.72009469303,-44.020861196012,1.3778677867787,1087110.1680799,41365.961535485,4614914.357105,6.5778677867787,0,0
-144.72009465718,-44.035215288487,1.382298229823,1087110.1680799,41365.961535485,4614914.357105,6.582298229823,0,0
-144.72009462133,-44.049569380963,1.3867286728673,1087110.1680799,41365.961535485,4614914.357105,6.5867286728673,0,0
-144.72009458548,-44.063923473438,1.3911591159116,1087110.1680799,41365.961535485,4614914.357105,6.5911591159116,0,0
-144.72009454963,-44.078277565913,1.3955895589559,1087110.1680799,41365.961535485,4614914.357105,6.5955895589559,0,0
-144.72009451379,-44.092631658388,1.4000200020002,1087110.1680799,41365.961535485,4614914.357105,6.6000200020002,0,0
-144.72009447794,-44.106985750863,1.4044504450445,1087110.1680799,41365.961535485,4614914.357105,6.6044504450445,0,0
-144.72009444209,-44.121339843338,1.4088808880888,1087110.1680799,41365.961535485,4614914.357105,6.6088808880888,0,0
-144.72009440624,-44.135693935813,1.4133113311331,1087110.1680799,41365.961535485,4614914.357105,6.6133113311331,0,0
-144.72009437039,-44.150048028288,1.4177417741774,1087110.1680799,41365.961535485,4614914.357105,6.6177417741774,0,0
-144.72009433454,-44.164402120763,1.4221722172217,1087110.1680799,41365.961535485,4614914.357105,6.6221722172217,0,0
-144.72009429869,-44.178756213238,1.426602660266,1087110.1680799,41365.961535485,4614914.357105,6.626602660266,0,0
-144.72009426284,-44.193110305713,1.4310331033103,1087110.1680799,41365.961535485,4614914.357105,6.6310331033103,0,0
-144.720094227,-44.207464398188,1.4354635463546,1087110.1680799,41365.961535485,4614914.357105,6.6354635463546,0,0
-144.72009419115,-44.221818490663,1.4398939893989,1087110.1680799,41365.961535485,4614914.357105,6.6398939893989,0,0
-144.7200941553,-44.236172583138,1.4443244324432,1087110.1680799,41365.961535485,4614914.357105,6.6443244324432,0,0
-144.72009411837,-44.250526679346,1.4487548754875,1111762.7231009,-28595.345751319,4495851.1441358,6.6487548754875,0,0
-144.72009407739,-44.264880789652,1.4531853185319,1111762.7231009,-28595.345751319,4495851.1441358,6.6531853185319,0,0
-144.7200940364,-44.279234899959,1.4576157615762,1111762.7231009,-28595.345751319,4495851.1441358,6.6576157615762,0,0
-144.72009399541,-44.293589010266,1.4620462046205,1111762.7231009,-28595.345751319,4495851.1441358,6.6620462046205,0,0
-144.72009395442,-44.307943120573,1.4664766476648,1111762.7231009,-28595.345751319,4495851.1441358,6.6664766476648,0,0
-144.72009391343,-44.32229723088,1.4709070907091,1111762.7231009,-28595.345751319,4495851.1441358,6.6709070907091,0,0
-144.72009387245,-44.336651341187,1.4753375337534,1111762.7231009,-28595.345751319,4495851.1441358,6.6753375337534,0,0
-144.72009383146,-44.351005451494,1.4797679767977,1111762.7231009,-28595.345751319,4495851.1441358,6.6797679767977,0,0
-144.72009379047,-44.365359561801,1.484198419842,1111762.7231009,-28595.345751319,4495851.1441358,6.684198419842,0,0
-144.72009374948,-44.379713672108,1.4886288628863,1111762.7231009,-28595.345751319,4495851.1441358,6.6886288628863,0,0
-144.72009370849,-44.394067782415,1.4930593059306,1111762.7231009,-28595.345751319,4495851.1441358,6.6930593059306,0,0
-144.72009366751,-44.408421892722,1.4974897489749,1111762.7231009,-28595.345751319,4495851.1441358,6.6974897489749,0,0
-144.72009362652,-44.422776003029,1.5019201920192,1111762.7231009,-28595.345751319,4495851.1441358,6.7019201920192,0,0
-144.72009358553,-44.437130113336,1.5063506350635,1111762.7231009,-28595.345751319,4495851.1441358,6.7063506350635,0,0
-144.72009354454,-44.451484223643,1.5107810781078,1111762.7231009,-28595.345751319,4495851.1441358,6.7107810781078,0,0
-144.72009350356,-44.46583833395,1.5152115211521,1111762.7231009,-28595.345751319,4495851.1441358,6.7152115211521,0,0
-144.72009346257,-44.480192444257,1.5196419641964,1111762.7231009,-28595.345751319,4495851.1441358,6.7196419641964,0,0
-144.72009342158,-44.494546554564,1.5240724072407,1111762.7231009,-28595.345751319,4495851.1441358,6.7240724072407,0,0
-144.72009338059,-44.508900664871,1.528502850285,1111762.7231009,-28595.345751319,4495851.1441358,6.728502850285,0,0
-144.7200933396,-44.523254775178,1.5329332933293,1111762.7231009,-28595.345751319,4495851.1441358,6.7329332933293,0,0
-144.72009329862,-44.537608885485,1.5373637363736,1111762.7231009,-28595.345751319,4495851.1441359,6.7373637363736,0,0
-144.72009325763,-44.551962995792,1.5417941794179,1111762.7231009,-28595.345751319,4495851.1441359,6.7417941794179,0,0
-144.72009321664,-44.566317106099,1.5462246224622,1111762.7231009,-28595.345751319,4495851.1441359,6.7462246224622,0,0
-144.72009317565,-44.580671216406,1.5506550655066,1111762.7231009,-28595.345751319,4495851.1441359,6.7506550655066,0,0
-144.72009313466,-44.595025326713,1.5550855085509,1111762.7231009,-28595.345751319,4495851.1441359,6.7550855085509,0,0
-144.72009309368,-44.60937943702,1.5595159515952,1111762.7231009,-28595.345751319,4495851.1441359,6.7595159515952,0,0
-144.72009305269,-44.623733547327,1.5639463946395,1111762.7231009,-28595.345751319,4495851.1441359,6.7639463946395,0,0
-144.7200930117,-44.638087657634,1.5683768376838,1111762.7231009,-28595.345751319,4495851.1441359,6.7683768376838,0,0
-144.72009297071,-44.652441767941,1.5728072807281,1111762.7231009,-28595.345751319,4495851.1441359,6.7728072807281,0,0
-144.72009292972,-44.666795878248,1.5772377237724,1111762.7231009,-28595.345751319,4495851.1441359,6.7772377237724,0,0
-144.72009288874,-44.681149988555,1.5816681668167,1111762.7231009,-28595.345751319,4495851.1441359,6.7816681668167,0,0
-144.72009284775,-44.695504098862,1.586098609861,1111762.7231009,-28595.345751319,4495851.1441359,6.786098609861,0,0
-144.72009280676,-44.709858209169,1.5905290529053,1111762.7231009,-28595.345751319,4495851.1441359,6.7905290529053,0,0
-144.72009276577,-44.724212319476,1.5949594959496,1111762.7231009,-28595.345751319,4495851.1441359,6.7949594959496,0,0
-144.72009272479,-44.738566429783,1.5993899389939,1111762.7231009,-28595.345751319,4495851.1441359,6.7993899389939,0,0
-144.7200926838,-44.75292054009,1.6038203820382,1111762.7231009,-28595.345751319,4495851.1441359,6.8038203820382,0,0
-144.72009263792,-44.767274637709,1.6082508250825,1159683.5413933,29440.54563377,4419911.1386682,6.8082508250825,0,0
-144.72009259109,-44.781628732827,1.6126812681268,1159683.5413933,29440.54563377,4419911.1386682,6.8126812681268,0,0
-144.72009254425,-44.795982827945,1.6171117111711,1159683.5413933,29440.54563377,4419911.1386682,6.8171117111711,0,0
-144.72009249741,-44.810336923063,1.6215421542154,1159683.5413933,29440.54563377,4419911.1386682,6.8215421542154,0,0
-144.72009245057,-44.824691018181,1.6259725972597,1159683.5413933,29440.54563377,4419911.1386682,6.8259725972597,0,0
-144.72009240374,-44.839045113298,1.630403040304,1159683.5413933,29440.54563377,4419911.1386682,6.830403040304,0,0
-144.7200923569,-44.853399208416,1.6348334833483,1159683.5413933,29440.54563377,4419911.1386682,6.8348334833483,0,0
-144.72009231006,-44.867753303534,1.6392639263926,1159683.5413933,29440.54563377,4419911.1386682,6.8392639263926,0,0
-144.72009226322,-44.882107398652,1.6436943694369,1159683.5413933,29440.54563377,4419911.1386682,6.8436943694369,0,0
-144.72009221639,-44.89646149377,1.6481248124812,1159683.5413933,29440.54563377,4419911.1386682,6.8481248124812,0,0
-144.72009216955,-44.910815588887,1.6525552555256,1159683.5413933,29440.54563377,4419911.1386682,6.8525552555256,0,0
-144.72009212271,-44.925169684005,1.6569856985699,1159683.5413933,29440.54563377,4419911.1386682,6.8569856985699,0,0
-144.72009207587,-44.939523779123,1.6614161416142,1159683.5413933,29440.54563377,4419911.1386682,6.8614161416142,0,0
-144.72009202904,-44.953877874241,1.6658465846585,1159683.5413933,29440.54563377,4419911.1386682,6.8658465846585,0,0
-144.7200919822,-44.968231969358,1.6702770277028,1159683.5413933,29440.54563377,4419911.1386682,6.8702770277028,0,0
-144.72009193536,-44.982586064476,1.6747074707471,1159683.5413933,29440.54563377,4419911.1386682,6.8747074707471,0,0
-144.72009188852,-44.996940159594,1.6791379137914,1159683.5413933,29440.54563377,4419911.1386682,6.8791379137914,0,0
-144.72009184168,-45.011294254712,1.6835683568357,1159683.5413933,29440.54563377,4419911.1386682,6.8835683568357,0,0
-144.72009179485,-45.02564834983,1.68799879988,1159683.5413933,29440.54563377,4419911.1386682,6.88799879988,0,0
-144.72009174801,-45.040002444947,1.6924292429243,1159683.5413933,29440.54563377,4419911.1386682,6.8924292429243,0,0
-144.72009170117,-45.054356540065,1.6968596859686,1159683.5413933,29440.54563377,4419911.1386682,6.8968596859686,0,0
-144.72009165433,-45.068710635183,1.7012901290129,1159683.5413933,29440.54563377,4419911.1386682,6.9012901290129,0,0
-144.7200916075,-45.083064730301,1.7057205720572,1159683.5413933,29440.54563377,4419911.1386682,6.9057205720572,0,0
-144.72009156066,-45.097418825419,1.7101510151015,1159683.5413933,29440.54563377,4419911.1386682,6.9101510151015,0,0
-144.72009151382,-45.111772920536,1.7145814581458,1159683.5413933,29440.54563377,4419911.1386682,6.9145814581458,0,0
-144.72009146698,-45.126127015654,1.7190119011901,1159683.5413933,29440.54563377,4419911.1386682,6.9190119011901,0,0
-144.72009142015,-45.140481110772,1.7234423442344,1159683.5413933,29440.54563377,4419911.1386682,6.9234423442344,0,0
-144.72009137331,-45.15483520589,1.7278727872787,1159683.5413933,29440.54563377,4419911.1386682,6.9278727872787,0,0
-144.72009132647,-45.169189301008,1.732303230323,1159683.5413933,29440.54563377,4419911.1386682,6.932303230323,0,0
-144.72009127963,-45.183543396125,1.7367336733673,1159683.5413933,29440.54563377,4419911.1386682,6.9367336733673,0,0
-144.7200912328,-45.197897491243,1.7411641164116,1159683.5413933,29440.54563377,4419911.1386682,6.9411641164116,0,0
-144.72009118596,-45.212251586361,1.7455945594559,1159683.5413933,29440.54563377,4419911.1386682,6.9455945594559,0,0
-144.72009113912,-45.226605681479,1.7500250025002,1159683.5413933,29440.54563377,4419911.1386682,6.9500250025002,0,0
-144.72009109228,-45.240959776597,1.7544554455446,1159683.5413933,29440.54563377,4419911.1386682,6.9544554455446,0,0
-144.72009104545,-45.255313871714,1.7588858885889,1159683.5413933,29440.54563377,4419911.1386682,6.9588858885889,0,0
-144.72009099464,-45.269667979411,1.7633163316332,1186792.9338699,-35410.255211536,4298276.2354335,6.9633163316332,0,0
-144.72009094239,-45.284022091639,1.7677467746775,1186792.9338699,-35410.255211536,4298276.2354335,6.9677467746775,0,0
-144.72009089015,-45.298376203866,1.7721772177218,1186792.9338699,-35410.255211536,4298276.2354335,6.9721772177218,0,0
-144.72009083791,-45.312730316094,1.7766076607661,1186792.9338699,-35410.255211536,4298276.2354335,6.9766076607661,0,0
-144.72009078567,-45.327084428322,1.7810381038104,1186792.9338699,-35410.255211536,4298276.2354335,6.9810381038104,0,0
-144.72009073343,-45.34143854055,1.7854685468547,1186792.9338699,-35410.255211536,4298276.2354335,6.9854685468547,0,0
-144.72009068119,-45.355792652777,1.789898989899,1186792.9338699,-35410.255211536,4298276.2354335,6.989898989899,0,0
-144.72009062895,-45.370146765005,1.7943294329433,1186792.9338699,-35410.255211536,4298276.2354335,6.9943294329433,0,0
-144.7200905767,-45.384500877233,1.7987598759876,1186792.9338699,-35410.255211536,4298276.2354335,6.9987598759876,0,0
-144.72009052446,-45.39885498946,1.8031903190319,1186792.9338699,-35410.255211536,4298276.2354335,7.0031903190319,0,0
-144.72009047222,-45.413209101688,1.8076207620762,1186792.9338699,-35410.255211536,4298276.2354335,7.0076207620762,0,0
-144.72009041998,-45.427563213916,1.8120512051205,1186792.9338699,-35410.255211536,4298276.2354335,7.0120512051205,0,0
-144.72009036774,-45.441917326143,1.8164816481648,1186792.9338699,-35410.255211536,4298276.2354335,7.0164816481648,0,0
-144.7200903155,-45.456271438371,1.8209120912091,1186792.9338699,-35410.255211536,4298276.2354335,7.0209120912091,0,0
-144.72009026326,-45.470625550599,1.8253425342534,1186792.9338699,-35410.255211536,4298276.2354335,7.0253425342534,0,0
-144.72009021101,-45.484979662826,1.8297729772977,1186792.9338699,-35410.255211536,4298276.2354335,7.0297729772977,0,0
-144.72009015877,-45.499333775054,1.834203420342,1186792.9338699,-35410.255211536,4298276.2354335,7.034203420342,0,0
-144.72009010653,-45.513687887282,1.8386338633863,1186792.9338699,-35410.255211536,4298276.2354335,7.0386338633863,0,0
-144.72009005429,-45.52804199951,1.8430643064306,1186792.9338699,-35410.255211536,4298276.2354335,7.0430643064306,0,0
-144.72009000205,-45.542396111737,1.8474947494749,1186792.9338699,-35410.255211536,4298276.2354335,7.0474947494749,0,0
-144.72008994981,-45.556750223965,1.8519251925193,1186792.9338699,-35410.255211536,4298276.2354335,7.0519251925193,0,0
-144.72008989757,-45.571104336193,1.8563556355636,1186792.9338699,-35410.255211536,4298276.2354335,7.0563556355636,0,0
-144.72008984532,-45.58545844842,1.8607860786079,1186792.9338699,-35410.255211536,4298276.2354335,7.0607860786079,0,0
-144.72008979308,-45.599812560648,1.8652165216522,1186792.9338699,-35410.255211536,4298276.2354335,7.0652165216522,0,0
-144.72008974084,-45.614166672876,1.8696469646965,1186792.9338699,-35410.255211536,4298276.2354335,7.0696469646965,0,0
-144.7200896886,-45.628520785103,1.8740774077408,1186792.9338699,-35410.255211536,4298276.2354335,7.0740774077408,0,0
-144.72008963636,-45.642874897331,1.8785078507851,1186792.9338699,-35410.255211536,4298276.2354335,7.0785078507851,0,0
-144.72008958412,-45.657229009559,1.8829382938294,1186792.9338699,-35410.255211536,4298276.2354335,7.0829382938294,0,0
-144.72008953187,-45.671583121786,1.8873687368737,1186792.9338699,-35410.255211536,4298276.2354335,7.0873687368737,0,0
-144.72008947963,-45.685937234014,1.891799179918,1186792.9338699,-35410.255211536,4298276.2354335,7.091799179918,0,0
-144.72008942273,-45.700291331073,1.8962296229623,1216964.633138,26086.292020773,4209510.1689278,7.0962296229623,0,0
-144.72008936571,-45.714645427775,1.9006600660066,1216964.633138,26086.292020773,4209510.1689278,7.1006600660066,0,0
-144.7200893087,-45.728999524477,1.9050905090509,1216964.633138,26086.292020773,4209510.1689278,7.1050905090509,0,0
-144.72008925168,-45.743353621179,1.9095209520952,1216964.633138,26086.292020773,4209510.1689278,7.1095209520952,0,0
-144.72008919467,-45.757707717881,1.9139513951395,1216964.633138,26086.292020773,4209510.1689278,7.1139513951395,0,0
-144.72008913765,-45.772061814583,1.9183818381838,1216964.633138,26086.292020773,4209510.1689278,7.1183818381838,0,0
-144.72008908064,-45.786415911285,1.9228122812281,1216964.633138,26086.292020773,4209510.1689278,7.1228122812281,0,0
-144.72008902362,-45.800770007986,1.9272427242724,1216964.633138,26086.292020773,4209510.1689278,7.1272427242724,0,0
-144.72008896661,-45.815124104688,1.9316731673167,1216964.633138,26086.292020773,4209510.1689278,7.1316731673167,0,0
-144.72008890959,-45.82947820139,1.936103610361,1216964.633138,26086.292020773,4209510.1689278,7.136103610361,0,0
-144.72008885258,-45.843832298092,1.9405340534053,1216964.633138,26086.292020773,4209510.1689278,7.1405340534053,0,0
-144.72008879556,-45.858186394794,1.9449644964496,1216964.633138,26086.292020773,4209510.1689278,7.1449644964496,0,0
-144.72008873855,-45.872540491496,1.9493949394939,1216964.633138,26086.292020773,4209510.1689278,7.1493949394939,0,0
-144.72008868153,-45.886894588198,1.9538253825383,1216964.633138,26086.292020773,4209510.1689278,7.1538253825383,0,0
-144.72008862452,-45.9012486849,1.9582558255826,1216964.633138,26086.292020773,4209510.1689278,7.1582558255826,0,0
-144.7200885675,-45.915602781602,1.9626862686269,1216964.633138,26086.292020773,4209510.1689278,7.1626862686269,0,0
-144.72008851049,-45.929956878304,1.9671167116712,1216964.633138,26086.292020773,4209510.1689278,7.1671167116712,0,0
-144.72008845347,-45.944310975006,1.9715471547155,1216964.633138,26086.292020773,4209510.1689278,7.1715471547155,0,0
-144.72008839646,-45.958665071707,1.9759775977598,1216964.633138,26086.292020773,4209510.1689278,7.1759775977598,0,0
-144.72008833944,-45.973019168409,1.9804080408041,1216964.633138,26086.292020773,4209510.1689278,7.1804080408041,0,0
-144.72008828243,-45.987373265111,1.9848384838484,1216964.633138,26086.292020773,4209510.1689278,7.1848384838484,0,0
-144.72008822542,-46.001727361813,1.9892689268927,1216964.633138,26086.292020773,4209510.1689278,7.1892689268927,0,0
-144.7200881684,-46.016081458515,1.993699369937,1216964.633138,26086.292020773,4209510.1689278,7.193699369937,0,0
-144.72008811139,-46.030435555217,1.9981298129813,1216964.633138,26086.292020773,4209510.1689278,7.1981298129813,0,0
-144.72008805437,-46.044789651919,2.0025602560256,1216964.633138,26086.292020773,4209510.1689278,7.2025602560256,0,0
-144.72008799736,-46.059143748621,2.0069906990699,1216964.633138,26086.292020773,4209510.1689278,7.2069906990699,0,0
-144.72008794034,-46.073497845323,2.0114211421142,1216964.633138,26086.292020773,4209510.1689278,7.2114211421142,0,0
-144.72008788333,-46.087851942025,2.0158515851585,1216964.633138,26086.292020773,4209510.1689278,7.2158515851585,0,0
-144.72008782631,-46.102206038727,2.0202820282028,1216964.633138,26086.292020773,4209510.1689278,7.2202820282028,0,0
-144.7200877693,-46.116560135429,2.0247124712471,1216964.633138,26086.292020773,4209510.1689278,7.2247124712471,0,0
-144.72008771228,-46.13091423213,2.0291429142914,1216964.633138,26086.292020773,4209510.1689278,7.2291429142914,0,0
-144.72008765527,-46.145268328832,2.0335733573357,1216964.633138,26086.292020773,4209510.1689278,7.2335733573357,0,0
-144.72008759825,-46.159622425534,2.03800380038,1216964.633138,26086.292020773,4209510.1689278,7.23800380038,0,0
-144.72008754124,-46.173976522236,2.0424342434243,1216964.633138,26086.292020773,4209510.1689278,7.2424342434243,0,0
-144.72008748422,-46.188330618938,2.0468646864686,1216964.633138,26086.292020773,4209510.1689278,7.2468646864686,0,0
-144.72008742721,-46.20268471564,2.051295129513,1216964.633138,26086.292020773,4209510.1689278,7.251295129513,0,0
-144.72008737019,-46.217038812342,2.0557255725573,1216964.633138,26086.292020773,4209510.1689278,7.2557255725573,0,0
-144.72008731318,-46.231392909044,2.0601560156016,1216964.633138,26086.292020773,4209510.1689278,7.2601560156016,0,0
-144.72008725616,-46.245747005746,2.0645864586459,1216964.633138,26086.292020773,4209510.1689278,7.2645864586459,0,0
-144.72008719915,-46.260101102448,2.0690169016902,1216964.633138,26086.292020773,4209510.1689278,7.2690169016902,0,0
-144.72008714213,-46.27445519915,2.0734473447345,1216964.633138,26086.292020773,4209510.1689278,7.2734473447345,0,0
-144.72008708512,-46.288809295852,2.0778777877788,1216964.633138,26086.292020773,4209510.1689278,7.2778777877788,0,0
-144.7200870281,-46.303163392553,2.0823082308231,1216964.633138,26086.292020773,4209510.1689278,7.2823082308231,0,0
-144.72008697109,-46.317517489255,2.0867386738674,1216964.633138,26086.292020773,4209510.1689278,7.2867386738674,0,0
-144.72008691407,-46.331871585957,2.0911691169117,1216964.633138,26086.292020773,4209510.1689278,7.2911691169117,0,0
-144.72008685706,-46.346225682659,2.095599559956,1216964.633138,26086.292020773,4209510.1689278,7.295599559956,0,0
-144.72008680004,-46.360579779361,2.1000300030003,1216964.633138,26086.292020773,4209510.1689278,7.3000300030003,0,0
-144.72008674303,-46.374933876063,2.1044604460446,1216964.633138,26086.292020773,4209510.1689278,7.3044604460446,0,0
-144.72008668324,-46.389287980527,2.1088908890889,1256154.1877652,-28298.988420465,4139417.3056482,7.3088908890889,0,0
-144.72008662122,-46.40364209119,2.1133213321332,1256154.1877652,-28298.988420465,4139417.3056482,7.3133213321332,0,0
-144.72008655921,-46.417996201853,2.1177517751775,1256154.1877652,-28298.988420465,4139417.3056482,7.3177517751775,0,0
-144.7200864972,-46.432350312517,2.1221822182218,1256154.1877652,-28298.988420465,4139417.3056482,7.3221822182218,0,0
-144.72008643519,-46.44670442318,2.1266126612661,1256154.1877652,-28298.988420465,4139417.3056482,7.3266126612661,0,0
-144.72008637318,-46.461058533843,2.1310431043104,1256154.1877652,-28298.988420465,4139417.3056482,7.3310431043104,0,0
-144.72008631117,-46.475412644506,2.1354735473547,1256154.1877652,-28298.988420465,4139417.3056482,7.3354735473547,0,0
-144.72008624916,-46.48976675517,2.139903990399,1256154.1877652,-28298.988420465,4139417.3056482,7.339903990399,0,0
-144.72008618714,-46.504120865833,2.1443344334433,1256154.1877652,-28298.988420465,4139417.3056482,7.3443344334433,0,0
-144.72008612513,-46.518474976496,2.1487648764876,1256154.1877652,-28298.988420465,4139417.3056482,7.3487648764876,0,0
-144.72008606312,-46.532829087159,2.153195319532,1256154.1877652,-28298.988420465,4139417.3056482,7.353195319532,0,0
-144.72008600111,-46.547183197822,2.1576257625763,1256154.1877652,-28298.988420465,4139417.3056482,7.3576257625763,0,0
-144.7200859391,-46.561537308486,2.1620562056206,1256154.1877652,-28298.988420465,4139417.3056482,7.3620562056206,0,0
-144.72008587709,-46.575891419149,2.1664866486649,1256154.1877652,-28298.988420465,4139417.3056482,7.3664866486649,0,0
-144.72008581507,-46.590245529812,2.1709170917092,1256154.1877652,-28298.988420465,4139417.3056482,7.3709170917092,0,0
-144.72008575306,-46.604599640475,2.1753475347535,1256154.1877652,-28298.988420465,4139417.3056482,7.3753475347535,0,0
-144.72008569105,-46.618953751139,2.1797779777978,1256154.1877652,-28298.988420465,4139417.3056482,7.3797779777978,0,0
-144.72008562904,-46.633307861802,2.1842084208421,1256154.1877652,-28298.988420465,4139417.3056482,7.3842084208421,0,0
-144.72008556703,-46.647661972465,2.1886388638864,1256154.1877652,-28298.988420465,4139417.3056482,7.3886388638864,0,0
-144.72008550502,-46.662016083128,2.1930693069307,1256154.1877652,-28298.988420465,4139417.3056482,7.3930693069307,0,0
-144.72008544301,-46.676370193791,2.197499749975,1256154.1877652,-28298.988420465,4139417.3056482,7.397499749975,0,0
-144.72008538099,-46.690724304455,2.2019301930193,1256154.1877652,-28298.988420465,4139417.3056482,7.4019301930193,0,0
-144.72008531898,-46.705078415118,2.2063606360636,1256154.1877652,-28298.988420465,4139417.3056482,7.4063606360636,0,0
-144.72008525697,-46.719432525781,2.2107910791079,1256154.1877652,-28298.988420465,4139417.3056482,7.4107910791079,0,0
-144.72008519496,-46.733786636444,2.2152215221522,1256154.1877652,-28298.988420465,4139417.3056482,7.4152215221522,0,0
-144.72008513295,-46.748140747107,2.2196519651965,1256154.1877652,-28298.988420465,4139417.3056482,7.4196519651965,0,0
-144.72008507094,-46.762494857771,2.2240824082408,1256154.1877652,-28298.988420465,4139417.3056482,7.4240824082408,0,0
-144.72008500893,-46.776848968434,2.2285128512851,1256154.1877652,-28298.988420465,4139417.3056482,7.4285128512851,0,0
-144.72008494691,-46.791203079097,2.2329432943294,1256154.1877652,-28298.988420465,4139417.3056482,7.4329432943294,0,0
-144.7200848849,-46.80555718976,2.2373737373737,1256154.1877652,-28298.988420465,4139417.3056482,7.4373737373737,0,0
-144.72008482289,-46.819911300424,2.241804180418,1256154.1877652,-28298.988420465,4139417.3056482,7.441804180418,0,0
-144.72008476088,-46.834265411087,2.2462346234623,1256154.1877652,-28298.988420465,4139417.3056482,7.4462346234623,0,0
-144.72008469887,-46.84861952175,2.2506650665067,1256154.1877652,-28298.988420465,4139417.3056482,7.4506650665067,0,0
-144.72008463686,-46.862973632413,2.255095509551,1256154.1877652,-28298.988420465,4139417.3056482,7.455095509551,0,0
-144.72008457485,-46.877327743076,2.2595259525953,1256154.1877652,-28298.988420465,4139417.3056482,7.4595259525953,0,0
-144.72008451283,-46.89168185374,2.2639563956396,1256154.1877652,-28298.988420465,4139417.3056482,7.4639563956396,0,0
-144.72008444884,-46.906035956923,2.2683868386839,1263690.581245,24703.311230974,4024893.7905425,7.4683868386839,0,0
-144.72008438318,-46.920390053818,2.2728172817282,1263690.581245,24703.311230974,4024893.7905425,7.4728172817282,0,0
-144.72008431751,-46.934744150712,2.2772477247725,1263690.581245,24703.311230974,4024893.7905425,7.4772477247725,0,0
-144.72008425185,-46.949098247607,2.2816781678168,1263690.581245,24703.311230974,4024893.7905425,7.4816781678168,0,0
-144.72008418619,-46.963452344502,2.2861086108611,1263690.581245,24703.311230974,4024893.7905425,7.4861086108611,0,0
-144.72008412053,-46.977806441396,2.2905390539054,1263690.581245,24703.311230974,4024893.7905425,7.4905390539054,0,0
-144.72008405486,-46.992160538291,2.2949694969497,1263690.581245,24703.311230974,4024893.7905425,7.4949694969497,0,0
-144.7200839892,-47.006514635185,2.299399939994,1263690.581245,24703.311230974,4024893.7905425,7.499399939994,0,0
-144.72008392354,-47.02086873208,2.3038303830383,1263690.581245,24703.311230974,4024893.7905425,7.5038303830383,0,0
-144.72008385788,-47.035222828975,2.3082608260826,1263690.581245,24703.311230974,4024893.7905425,7.5082608260826,0,0
-144.72008379221,-47.049576925869,2.3126912691269,1263690.581245,24703.311230974,4024893.7905425,7.5126912691269,0,0
-144.72008372655,-47.063931022764,2.3171217121712,1263690.581245,24703.311230974,4024893.7905425,7.5171217121712,0,0
-144.72008366089,-47.078285119658,2.3215521552155,1263690.581245,24703.311230974,4024893.7905425,7.5215521552155,0,0
-144.72008359523,-47.092639216553,2.3259825982598,1263690.581245,24703.311230974,4024893.7905425,7.5259825982598,0,0
-144.72008352956,-47.106993313448,2.3304130413041,1263690.581245,24703.311230974,4024893.7905425,7.5304130413041,0,0
-144.7200834639,-47.121347410342,2.3348434843484,1263690.581245,24703.311230974,4024893.7905425,7.5348434843484,0,0
-144.72008339824,-47.135701507237,2.3392739273927,1263690.581245,24703.311230974,4024893.7905425,7.5392739273927,0,0
-144.72008333258,-47.150055604132,2.343704370437,1263690.581245,24703.311230974,4024893.7905425,7.543704370437,0,0
-144.72008326691,-47.164409701026,2.3481348134813,1263690.581245,24703.311230974,4024893.7905425,7.5481348134813,0,0
-144.72008320125,-47.178763797921,2.3525652565257,1263690.581245,24703.311230974,4024893.7905425,7.5525652565257,0,0
-144.72008313559,-47.193117894815,2.35699569957,1263690.581245,24703.311230974,4024893.7905425,7.55699569957,0,0
-144.72008306992,-47.20747199171,2.3614261426143,1263690.581245,24703.311230974,4024893.7905425,7.5614261426143,0,0
-144.72008300426,-47.221826088605,2.3658565856586,1263690.581245,24703.311230974,4024893.7905425,7.5658565856586,0,0
-144.7200829386,-47.236180185499,2.3702870287029,1263690.581245,24703.311230974,4024893.7905425,7.5702870287029,0,0
-144.72008287294,-47.250534282394,2.3747174717472,1263690.581245,24703.311230974,4024893.7905425,7.5747174717472,0,0
-144.72008280727,-47.264888379288,2.3791479147915,1263690.581245,24703.311230974,4024893.7905425,7.5791479147915,0,0
-144.72008274161,-47.279242476183,2.3835783578358,1263690.581245,24703.311230974,4024893.7905425,7.5835783578358,0,0
-144.72008267595,-47.293596573078,2.3880088008801,1263690.581245,24703.311230974,4024893.7905425,7.5880088008801,0,0
-144.72008261029,-47.307950669972,2.3924392439244,1263690.581245,24703.311230974,4024893.7905425,7.5924392439244,0,0
-144.72008254462,-47.322304766867,2.3968696869687,1263690.581245,24703.311230974,4024893.7905425,7.5968696869687,0,0
-144.72008247896,-47.336658863761,2.401300130013,1263690.581245,24703.311230974,4024893.7905425,7.601300130013,0,0
-144.7200824133,-47.351012960656,2.4057305730573,1263690.581245,24703.311230974,4024893.7905425,7.6057305730573,0,0
-144.72008234764,-47.365367057551,2.4101610161016,1263690.581245,24703.311230974,4024893.7905425,7.6101610161016,0,0
-144.72008228197,-47.379721154445,2.4145914591459,1263690.581245,24703.311230974,4024893.7905425,7.6145914591459,0,0
-144.72008221631,-47.39407525134,2.4190219021902,1263690.581245,24703.311230974,4024893.7905425,7.6190219021902,0,0
-144.72008215065,-47.408429348234,2.4234523452345,1263690.581245,24703.311230974,4024893.7905425,7.6234523452345,0,0
-144.72008208499,-47.422783445129,2.4278827882788,1263690.581245,24703.311230974,4024893.7905425,7.6278827882788,0,0
-144.72008201932,-47.437137542024,2.4323132313231,1263690.581245,24703.311230974,4024893.7905425,7.6323132313231,0,0
-144.72008195366,-47.451491638918,2.4367436743674,1263690.581245,24703.311230974,4024893.7905425,7.6367436743674,0,0
-144.720081888,-47.465845735813,2.4411741174117,1263690.581245,24703.311230974,4024893.7905425,7.6411741174117,0,0
-144.72008182233,-47.480199832708,2.445604560456,1263690.581245,24703.311230974,4024893.7905425,7.645604560456,0,0
-144.72008175667,-47.494553929602,2.4500350035003,1263690.581245,24703.311230974,4024893.7905425,7.6500350035004,0,0
-144.72008169101,-47.508908026497,2.4544654465447,1263690.581245,24703.311230974,4024893.7905425,7.6544654465447,0,0
-144.72008162258,-47.523262131937,2.458895889589,1295721.301792,-30288.650189141,3952735.0003731,7.658895889589,0,0
-144.72008155244,-47.537616242685,2.4633263326333,1295721.301792,-30288.650189141,3952735.0003731,7.6633263326333,0,0
-144.7200814823,-47.551970353433,2.4677567756776,1295721.301792,-30288.650189141,3952735.0003731,7.6677567756776,0,0
-144.72008141216,-47.56632446418,2.4721872187219,1295721.301792,-30288.650189141,3952735.0003731,7.6721872187219,0,0
-144.72008134201,-47.580678574928,2.4766176617662,1295721.301792,-30288.650189141,3952735.0003731,7.6766176617662,0,0
-144.72008127187,-47.595032685675,2.4810481048105,1295721.301792,-30288.650189141,3952735.0003731,7.6810481048105,0,0
-144.72008120173,-47.609386796423,2.4854785478548,1295721.301792,-30288.650189141,3952735.0003731,7.6854785478548,0,0
-144.72008113159,-47.623740907171,2.4899089908991,1295721.301792,-30288.650189141,3952735.0003731,7.6899089908991,0,0
-144.72008106144,-47.638095017918,2.4943394339434,1295721.301792,-30288.650189141,3952735.0003731,7.6943394339434,0,0
-144.7200809913,-47.652449128666,2.4987698769877,1295721.301792,-30288.650189141,3952735.0003731,7.6987698769877,0,0
-144.72008092116,-47.666803239414,2.503200320032,1295721.301792,-30288.650189141,3952735.0003731,7.703200320032,0,0
-144.72008085102,-47.681157350161,2.5076307630763,1295721.301792,-30288.650189141,3952735.0003731,7.7076307630763,0,0
-144.72008078088,-47.695511460909,2.5120612061206,1295721.301792,-30288.650189141,3952735.0003731,7.7120612061206,0,0
-144.72008071073,-47.709865571657,2.5164916491649,1295721.301792,-30288.650189141,3952735.0003731,7.7164916491649,0,0
-144.72008064059,-47.724219682404,2.5209220922092,1295721.301792,-30288.650189141,3952735.0003731,7.7209220922092,0,0
-144.72008057045,-47.738573793152,2.5253525352535,1295721.301792,-30288.650189141,3952735.0003731,7.7253525352535,0,0
-144.72008050031,-47.752927903899,2.5297829782978,1295721.301792,-30288.650189141,3952735.0003731,7.7297829782978,0,0
-144.72008043016,-47.767282014647,2.5342134213421,1295721.301792,-30288.650189141,3952735.0003731,7.7342134213421,0,0
-144.72008036002,-47.781636125395,2.5386438643864,1295721.301792,-30288.650189141,3952735.0003731,7.7386438643864,0,0
-144.72008028988,-47.795990236142,2.5430743074307,1295721.301792,-30288.650189141,3952735.0003731,7.7430743074307,0,0
-144.72008021974,-47.81034434689,2.547504750475,1295721.301792,-30288.650189141,3952735.0003731,7.747504750475,0,0
-144.72008014959,-47.824698457638,2.5519351935194,1295721.301792,-30288.650189141,3952735.0003731,7.7519351935194,0,0
-144.72008007945,-47.839052568385,2.5563656365637,1295721.301792,-30288.650189141,3952735.0003731,7.7563656365637,0,0
-144.72008000931,-47.853406679133,2.560796079608,1295721.301792,-30288.650189141,3952735.0003731,7.760796079608,0,0
-144.72007993917,-47.867760789881,2.5652265226523,1295721.301792,-30288.650189141,3952735.0003731,7.7652265226523,0,0
-144.72007986902,-47.882114900628,2.5696569656966,1295721.301792,-30288.650189141,3952735.0003731,7.7696569656966,0,0
-144.72007979888,-47.896469011376,2.5740874087409,1295721.301792,-30288.650189141,3952735.0003731,7.7740874087409,0,0
-144.72007972874,-47.910823122124,2.5785178517852,1295721.301792,-30288.650189141,3952735.0003731,7.7785178517852,0,0
-144.7200796586,-47.925177232871,2.5829482948295,1295721.301792,-30288.650189141,3952735.0003731,7.7829482948295,0,0
-144.72007958846,-47.939531343619,2.5873787378738,1295721.301792,-30288.650189141,3952735.0003731,7.7873787378738,0,0
-144.72007951831,-47.953885454366,2.5918091809181,1295721.301792,-30288.650189141,3952735.0003731,7.7918091809181,0,0
-144.72007944817,-47.968239565114,2.5962396239624,1295721.301792,-30288.650189141,3952735.0003731,7.7962396239624,0,0
-144.72007937803,-47.982593675862,2.6006700670067,1295721.301792,-30288.650189141,3952735.0003731,7.8006700670067,0,0
-144.72007930789,-47.996947786609,2.605100510051,1295721.301792,-30288.650189141,3952735.0003731,7.805100510051,0,0
-144.72007923774,-48.011301897357,2.6095309530953,1295721.301792,-30288.650189141,3952735.0003731,7.8095309530953,0,0
-144.7200791676,-48.025656008105,2.6139613961396,1295721.301792,-30288.650189141,3952735.0003731,7.8139613961396,0,0
-144.72007909746,-48.040010118852,2.6183918391839,1295721.301792,-30288.650189141,3952735.0003731,7.8183918391839,0,0
-144.72007902732,-48.0543642296,2.6228222822282,1295721.301792,-30288.650189141,3952735.0003731,7.8228222822282,0,0
-144.72007895631,-48.068718336759,2.6272527252725,1306839.310805,24149.510289158,3866090.4793595,7.8272527252725,0,0
-144.72007888298,-48.083072434181,2.6316831683168,1306839.310805,24149.510289158,3866090.4793595,7.8316831683168,0,0
-144.72007880964,-48.097426531603,2.6361136113611,1306839.310805,24149.510289158,3866090.4793595,7.8361136113611,0,0
-144.7200787363,-48.111780629025,2.6405440544054,1306839.310805,24149.510289158,3866090.4793595,7.8405440544054,0,0
-144.72007866296,-48.126134726447,2.6449744974497,1306839.310805,24149.510289158,3866090.4793595,7.8449744974497,0,0
-144.72007858963,-48.140488823869,2.649404940494,1306839.310805,24149.510289158,3866090.4793595,7.849404940494,0,0
-144.72007851629,-48.154842921291,2.6538353835384,1306839.310805,24149.510289158,3866090.4793595,7.8538353835384,0,0
-144.72007844295,-48.169197018712,2.6582658265827,1306839.310805,24149.510289158,3866090.4793595,7.8582658265827,0,0
-144.72007836962,-48.183551116134,2.662696269627,1306839.310805,24149.510289158,3866090.4793595,7.862696269627,0,0
-144.72007829628,-48.197905213556,2.6671267126713,1306839.310805,24149.510289158,3866090.4793595,7.8671267126713,0,0
-144.72007822294,-48.212259310978,2.6715571557156,1306839.310805,24149.510289158,3866090.4793595,7.8715571557156,0,0
-144.7200781496,-48.2266134084,2.6759875987599,1306839.310805,24149.510289158,3866090.4793595,7.8759875987599,0,0
-144.72007807627,-48.240967505822,2.6804180418042,1306839.310805,24149.510289158,3866090.4793595,7.8804180418042,0,0
-144.72007800293,-48.255321603244,2.6848484848485,1306839.310805,24149.510289158,3866090.4793595,7.8848484848485,0,0
-144.72007792959,-48.269675700666,2.6892789278928,1306839.310805,24149.510289158,3866090.4793595,7.8892789278928,0,0
-144.72007785625,-48.284029798088,2.6937093709371,1306839.310805,24149.510289158,3866090.4793595,7.8937093709371,0,0
-144.72007778292,-48.298383895509,2.6981398139814,1306839.310805,24149.510289158,3866090.4793595,7.8981398139814,0,0
-144.72007770958,-48.312737992931,2.7025702570257,1306839.310805,24149.510289158,3866090.4793595,7.9025702570257,0,0
-144.72007763624,-48.327092090353,2.70700070007,1306839.310805,24149.510289158,3866090.4793595,7.90700070007,0,0
-144.7200775629,-48.341446187775,2.7114311431143,1306839.310805,24149.510289158,3866090.4793595,7.9114311431143,0,0
-144.72007748957,-48.355800285197,2.7158615861586,1306839.310805,24149.510289158,3866090.4793595,7.9158615861586,0,0
-144.72007741623,-48.370154382619,2.7202920292029,1306839.310805,24149.510289158,3866090.4793595,7.9202920292029,0,0
-144.72007734289,-48.384508480041,2.7247224722472,1306839.310805,24149.510289158,3866090.4793595,7.9247224722472,0,0
-144.72007726955,-48.398862577463,2.7291529152915,1306839.310805,24149.510289158,3866090.4793595,7.9291529152915,0,0
-144.72007719622,-48.413216674885,2.7335833583358,1306839.310805,24149.510289158,3866090.4793595,7.9335833583358,0,0
-144.72007712288,-48.427570772307,2.7380138013801,1306839.310805,24149.510289158,3866090.4793595,7.9380138013801,0,0
-144.72007704954,-48.441924869728,2.7424442444244,1306839.310805,24149.510289158,3866090.4793595,7.9424442444244,0,0
-144.72007697621,-48.45627896715,2.7468746874687,1306839.310805,24149.510289158,3866090.4793595,7.9468746874687,0,0
-144.72007690287,-48.470633064572,2.7513051305131,1306839.310805,24149.510289158,3866090.4793595,7.9513051305131,0,0
-144.72007682953,-48.484987161994,2.7557355735574,1306839.310805,24149.510289158,3866090.4793595,7.9557355735574,0,0
-144.72007675619,-48.499341259416,2.7601660166017,1306839.310805,24149.510289158,3866090.4793595,7.9601660166017,0,0
-144.72007668286,-48.513695356838,2.764596459646,1306839.310805,24149.510289158,3866090.4793595,7.964596459646,0,0
-144.72007660952,-48.52804945426,2.7690269026903,1306839.310805,24149.510289158,3866090.4793595,7.9690269026903,0,0
-144.72007653618,-48.542403551682,2.7734573457346,1306839.310805,24149.510289158,3866090.4793595,7.9734573457346,0,0
-144.72007646284,-48.556757649104,2.7778877887789,1306839.310805,24149.510289158,3866090.4793595,7.9778877887789,0,0
-144.72007638951,-48.571111746525,2.7823182318232,1306839.310805,24149.510289158,3866090.4793595,7.9823182318232,0,0
-144.72007631617,-48.585465843947,2.7867486748675,1306839.310805,24149.510289158,3866090.4793595,7.9867486748675,0,0
-144.72007624283,-48.599819941369,2.7911791179118,1306839.310805,24149.510289158,3866090.4793595,7.9911791179118,0,0
-144.72007616949,-48.614174038791,2.7956095609561,1306839.310805,24149.510289158,3866090.4793595,7.9956095609561,0,0
-144.72007609616,-48.628528136213,2.8000400040004,1306839.310805,24149.510289158,3866090.4793595,8.0000400040004,0,0
-144.72007602282,-48.642882233635,2.8044704470447,1306839.310805,24149.510289158,3866090.4793595,8.0044704470447,0,0
-144.72007594948,-48.657236331057,2.808900890089,1306839.310805,24149.510289158,3866090.4793595,8.008900890089,0,0
-144.72007587615,-48.671590428479,2.8133313331333,1306839.310805,24149.510289158,3866090.4793595,8.0133313331333,0,0
-144.72007580281,-48.685944525901,2.8177617761776,1306839.310805,24149.510289158,3866090.4793595,8.0177617761776,0,0
-144.72007572947,-48.700298623322,2.8221922192219,1306839.310805,24149.510289158,3866090.4793595,8.0221922192219,0,0
-144.72007565613,-48.714652720744,2.8266226622662,1306839.310805,24149.510289158,3866090.4793595,8.0266226622662,0,0
-144.7200755828,-48.729006818166,2.8310531053105,1306839.310805,24149.510289158,3866090.4793595,8.0310531053105,0,0
-144.72007550946,-48.743360915588,2.8354835483548,1306839.310805,24149.510289158,3866090.4793595,8.0354835483548,0,0
-144.72007543612,-48.75771501301,2.8399139913991,1306839.310805,24149.510289158,3866090.4793595,8.0399139913991,0,0
-144.72007536278,-48.772069110432,2.8443444344434,1306839.310805,24149.510289158,3866090.4793595,8.0443444344434,0,0
-144.72007528945,-48.786423207854,2.8487748774877,1306839.310805,24149.510289158,3866090.4793595,8.0487748774877,0,0
-144.72007521611,-48.800777305276,2.8532053205321,1306839.310805,24149.510289158,3866090.4793595,8.0532053205321,0,0
-144.72007514277,-48.815131402698,2.8576357635764,1306839.310805,24149.510289158,3866090.4793595,8.0576357635764,0,0
-144.72007506943,-48.829485500119,2.8620662066207,1306839.310805,24149.510289158,3866090.4793595,8.0620662066207,0,0
-144.7200749961,-48.843839597541,2.866496649665,1306839.310805,24149.510289158,3866090.4793595,8.066496649665,0,0
-144.72007492276,-48.858193694963,2.8709270927093,1306839.310805,24149.510289158,3866090.4793595,8.0709270927093,0,0
-144.72007484749,-48.872547798795,2.8753575357536,1334768.1895788,-25014.428022223,3815296.1837817,8.0753575357536,0,0
-144.72007477057,-48.886901908133,2.8797879787979,1334768.1895788,-25014.428022223,3815296.1837817,8.0797879787979,0,0
-144.72007469365,-48.90125601747,2.8842184218422,1334768.1895788,-25014.428022223,3815296.1837817,8.0842184218422,0,0
-144.72007461673,-48.915610126808,2.8886488648865,1334768.1895788,-25014.428022223,3815296.1837817,8.0886488648865,0,0
-144.72007453981,-48.929964236146,2.8930793079308,1334768.1895788,-25014.428022223,3815296.1837817,8.0930793079308,0,0
-144.72007446289,-48.944318345483,2.8975097509751,1334768.1895788,-25014.428022223,3815296.1837817,8.0975097509751,0,0
-144.72007438597,-48.958672454821,2.9019401940194,1334768.1895788,-25014.428022223,3815296.1837817,8.1019401940194,0,0
-144.72007430905,-48.973026564158,2.9063706370637,1334768.1895788,-25014.428022223,3815296.1837817,8.1063706370637,0,0
-144.72007423213,-48.987380673496,2.910801080108,1334768.1895788,-25014.428022223,3815296.1837817,8.110801080108,0,0
-144.72007415521,-49.001734782834,2.9152315231523,1334768.1895788,-25014.428022223,3815296.1837817,8.1152315231523,0,0
-144.72007407829,-49.016088892171,2.9196619661966,1334768.1895788,-25014.428022223,3815296.1837817,8.1196619661966,0,0
-144.72007400137,-49.030443001509,2.9240924092409,1334768.1895788,-25014.428022223,3815296.1837817,8.1240924092409,0,0
-144.72007392445,-49.044797110846,2.9285228522852,1334768.1895788,-25014.428022223,3815296.1837817,8.1285228522852,0,0
-144.72007384753,-49.059151220184,2.9329532953295,1334768.1895788,-25014.428022223,3815296.1837817,8.1329532953295,0,0
-144.72007377061,-49.073505329522,2.9373837383738,1334768.1895788,-25014.428022223,3815296.1837817,8.1373837383738,0,0
-144.72007369369,-49.087859438859,2.9418141814181,1334768.1895788,-25014.428022223,3815296.1837817,8.1418141814181,0,0
-144.72007361677,-49.102213548197,2.9462446244624,1334768.1895788,-25014.428022223,3815296.1837817,8.1462446244624,0,0
-144.72007353984,-49.116567657535,2.9506750675067,1334768.1895788,-25014.428022223,3815296.1837817,8.1506750675068,0,0
-144.72007346292,-49.130921766872,2.9551055105511,1334768.1895788,-25014.428022223,3815296.1837817,8.1551055105511,0,0
-144.720073386,-49.14527587621,2.9595359535954,1334768.1895788,-25014.428022223,3815296.1837817,8.1595359535954,0,0
-144.72007330908,-49.159629985547,2.9639663966397,1334768.1895788,-25014.428022223,3815296.1837817,8.1639663966397,0,0
-144.72007323216,-49.173984094885,2.968396839684,1334768.1895788,-25014.428022223,3815296.1837817,8.168396839684,0,0
-144.72007315524,-49.188338204223,2.9728272827283,1334768.1895788,-25014.428022223,3815296.1837817,8.1728272827283,0,0
-144.72007307832,-49.20269231356,2.9772577257726,1334768.1895788,-25014.428022223,3815296.1837817,8.1772577257726,0,0
-144.7200730014,-49.217046422898,2.9816881688169,1334768.1895788,-25014.428022223,3815296.1837817,8.1816881688169,0,0
-144.72007292448,-49.231400532235,2.9861186118612,1334768.1895788,-25014.428022223,3815296.1837817,8.1861186118612,0,0
-144.72007284756,-49.245754641573,2.9905490549055,1334768.1895788,-25014.428022223,3815296.1837817,8.1905490549055,0,0
-144.72007277064,-49.260108750911,2.9949794979498,1334768.1895788,-25014.428022223,3815296.1837817,8.1949794979498,0,0
-144.72007269372,-49.274462860248,2.9994099409941,1334768.1895788,-25014.428022223,3815296.1837817,8.1994099409941,0,0
-144.7200726168,-49.288816969586,3.0038403840384,1334768.1895788,-25014.428022223,3815296.1837817,8.2038403840384,0,0
-144.72007253988,-49.303171078923,3.0082708270827,1334768.1895788,-25014.428022223,3815296.1837817,8.2082708270827,0,0
-144.72007246296,-49.317525188261,3.012701270127,1334768.1895788,-25014.428022223,3815296.1837817,8.212701270127,0,0
-144.72007238604,-49.331879297599,3.0171317131713,1334768.1895788,-25014.428022223,3815296.1837817,8.2171317131713,0,0
-144.72007230912,-49.346233406936,3.0215621562156,1334768.1895788,-25014.428022223,3815296.1837817,8.2215621562156,0,0
-144.72007223219,-49.360587516274,3.0259925992599,1334768.1895788,-25014.428022223,3815296.1837817,8.2259925992599,0,0
-144.72007215527,-49.374941625611,3.0304230423042,1334768.1895788,-25014.428022223,3815296.1837817,8.2304230423042,0,0
-144.72007207835,-49.389295734949,3.0348534853485,1334768.1895788,-25014.428022223,3815296.1837817,8.2348534853485,0,0
-144.72007200143,-49.403649844287,3.0392839283928,1334768.1895788,-25014.428022223,3815296.1837817,8.2392839283928,0,0
-144.72007192451,-49.418003953624,3.0437143714371,1334768.1895788,-25014.428022223,3815296.1837817,8.2437143714371,0,0
-144.72007184759,-49.432358062962,3.0481448144814,1334768.1895788,-25014.428022223,3815296.1837817,8.2481448144814,0,0
-144.72007177067,-49.446712172299,3.0525752575258,1334768.1895788,-25014.428022223,3815296.1837817,8.2525752575258,0,0
-144.72007169375,-49.461066281637,3.0570057005701,1334768.1895788,-25014.428022223,3815296.1837817,8.2570057005701,0,0
-144.72007161683,-49.475420390975,3.0614361436144,1334768.1895788,-25014.428022223,3815296.1837817,8.2614361436144,0,0
-144.72007153991,-49.489774500312,3.0658665866587,1334768.1895788,-25014.428022223,3815296.1837817,8.2658665866587,0,0
-144.72007146299,-49.50412860965,3.070297029703,1334768.1895788,-25014.428022223,3815296.1837817,8.270297029703,0,0
-144.72007138607,-49.518482718988,3.0747274727473,1334768.1895788,-25014.428022223,3815296.1837817,8.2747274727473,0,0
-144.72007130915,-49.532836828325,3.0791579157916,1334768.1895788,-25014.428022223,3815296.1837817,8.2791579157916,0,0
-144.72007123223,-49.547190937663,3.0835883588359,1334768.1895788,-25014.428022223,3815296.1837817,8.2835883588359,0,0
-144.72007115387,-49.561545042559,3.0880188018802,1342281.9524202,12502.666876253,3705311.8216271,8.2880188018802,0,0
-144.72007107342,-49.575899140997,3.0924492449245,1342281.9524202,12502.666876253,3705311.8216271,8.2924492449245,0,0
-144.72007099297,-49.590253239434,3.0968796879688,1342281.9524202,12502.666876253,3705311.8216271,8.2968796879688,0,0
-144.72007091252,-49.604607337872,3.1013101310131,1342281.9524202,12502.666876253,3705311.8216271,8.3013101310131,0,0
-144.72007083207,-49.61896143631,3.1057405740574,1342281.9524202,12502.666876253,3705311.8216271,8.3057405740574,0,0
-144.72007075162,-49.633315534747,3.1101710171017,1342281.9524202,12502.666876253,3705311.8216271,8.3101710171017,0,0
-144.72007067117,-49.647669633185,3.114601460146,1342281.9524202,12502.666876253,3705311.8216271,8.314601460146,0,0
-144.72007059072,-49.662023731623,3.1190319031903,1342281.9524202,12502.666876253,3705311.8216271,8.3190319031903,0,0
-144.72007051028,-49.676377830061,3.1234623462346,1342281.9524202,12502.666876253,3705311.8216271,8.3234623462346,0,0
-144.72007042983,-49.690731928498,3.1278927892789,1342281.9524202,12502.666876253,3705311.8216271,8.3278927892789,0,0
-144.72007034938,-49.705086026936,3.1323232323232,1342281.9524202,12502.666876253,3705311.8216271,8.3323232323232,0,0
-144.72007026893,-49.719440125374,3.1367536753675,1342281.9524202,12502.666876253,3705311.8216271,8.3367536753675,0,0
-144.72007018848,-49.733794223811,3.1411841184118,1342281.9524202,12502.666876253,3705311.8216271,8.3411841184118,0,0
-144.72007010803,-49.748148322249,3.1456145614561,1342281.9524202,12502.666876253,3705311.8216271,8.3456145614561,0,0
-144.72007002758,-49.762502420687,3.1500450045004,1342281.9524202,12502.666876253,3705311.8216271,8.3500450045004,0,0
-144.72006994713,-49.776856519124,3.1544754475448,1342281.9524202,12502.666876253,3705311.8216271,8.3544754475448,0,0
-144.72006986668,-49.791210617562,3.1589058905891,1342281.9524202,12502.666876253,3705311.8216271,8.3589058905891,0,0
-144.72006978623,-49.805564716,3.1633363336334,1342281.9524202,12502.666876253,3705311.8216271,8.3633363336334,0,0
-144.72006970578,-49.819918814438,3.1677667766777,1342281.9524202,12502.666876253,3705311.8216271,8.3677667766777,0,0
-144.72006962534,-49.834272912875,3.172197219722,1342281.9524202,12502.666876253,3705311.8216271,8.372197219722,0,0
-144.72006954489,-49.848627011313,3.1766276627663,1342281.9524202,12502.666876253,3705311.8216271,8.3766276627663,0,0
-144.72006946444,-49.862981109751,3.1810581058106,1342281.9524202,12502.666876253,3705311.8216271,8.3810581058106,0,0
-144.72006938399,-49.877335208188,3.1854885488549,1342281.9524202,12502.666876253,3705311.8216271,8.3854885488549,0,0
-144.72006930354,-49.891689306626,3.1899189918992,1342281.9524202,12502.666876253,3705311.8216271,8.3899189918992,0,0
-144.72006922309,-49.906043405064,3.1943494349435,1342281.9524202,12502.666876253,3705311.8216271,8.3943494349435,0,0
-144.72006914264,-49.920397503501,3.1987798779878,1342281.9524202,12502.666876253,3705311.8216271,8.3987798779878,0,0
-144.72006906219,-49.934751601939,3.2032103210321,1342281.9524202,12502.666876253,3705311.8216271,8.4032103210321,0,0
-144.72006898174,-49.949105700377,3.2076407640764,1342281.9524202,12502.666876253,3705311.8216271,8.4076407640764,0,0
-144.72006890129,-49.963459798815,3.2120712071207,1342281.9524202,12502.666876253,3705311.8216271,8.4120712071207,0,0
-144.72006882084,-49.977813897252,3.216501650165,1342281.9524202,12502.666876253,3705311.8216271,8.416501650165,0,0
-144.72006874039,-49.99216799569,3.2209320932093,1342281.9524202,12502.666876253,3705311.8216271,8.4209320932093,0,0
-144.72006865995,-50.006522094128,3.2253625362536,1342281.9524202,12502.666876253,3705311.8216271,8.4253625362536,0,0
-144.7200685795,-50.020876192565,3.2297929792979,1342281.9524202,12502.666876253,3705311.8216271,8.4297929792979,0,0
-144.72006849905,-50.035230291003,3.2342234223422,1342281.9524202,12502.666876253,3705311.8216271,8.4342234223422,0,0
-144.7200684186,-50.049584389441,3.2386538653865,1342281.9524202,12502.666876253,3705311.8216271,8.4386538653865,0,0
-144.72006833815,-50.063938487879,3.2430843084308,1342281.9524202,12502.666876253,3705311.8216271,8.4430843084308,0,0
-144.7200682577,-50.078292586316,3.2475147514751,1342281.9524202,12502.666876253,3705311.8216271,8.4475147514751,0,0
-144.72006817725,-50.092646684754,3.2519451945195,1342281.9524202,12502.666876253,3705311.8216271,8.4519451945195,0,0
-144.7200680968,-50.107000783192,3.2563756375638,1342281.9524202,12502.666876253,3705311.8216271,8.4563756375638,0,0
-144.72006801635,-50.121354881629,3.2608060806081,1342281.9524202,12502.666876253,3705311.8216271,8.4608060806081,0,0
-144.7200679359,-50.135708980067,3.2652365236524,1342281.9524202,12502.666876253,3705311.8216271,8.4652365236524,0,0
-144.72006785545,-50.150063078505,3.2696669666967,1342281.9524202,12502.666876253,3705311.8216271,8.4696669666967,0,0
-144.72006777501,-50.164417176942,3.274097409741,1342281.9524202,12502.666876253,3705311.8216271,8.474097409741,0,0
-144.72006769456,-50.17877127538,3.2785278527853,1342281.9524202,12502.666876253,3705311.8216271,8.4785278527853,0,0
-144.72006761321,-50.193125374734,3.2829582958296,1364894.3117368,5236.5545933753,3711246.4734627,8.4829582958296,0,0
-144.72006753111,-50.207479474845,3.2873887388739,1364894.3117368,5236.5545933753,3711246.4734627,8.4873887388739,0,0
-144.72006744901,-50.221833574957,3.2918191819182,1364894.3117368,5236.5545933753,3711246.4734627,8.4918191819182,0,0
-144.72006736691,-50.236187675068,3.2962496249625,1364894.3117368,5236.5545933753,3711246.4734627,8.4962496249625,0,0
-144.72006728482,-50.25054177518,3.3006800680068,1364894.3117368,5236.5545933753,3711246.4734627,8.5006800680068,0,0
-144.72006720272,-50.264895875291,3.3051105110511,1364894.3117368,5236.5545933753,3711246.4734627,8.5051105110511,0,0
-144.72006712062,-50.279249975403,3.3095409540954,1364894.3117368,5236.5545933753,3711246.4734627,8.5095409540954,0,0
-144.72006703852,-50.293604075514,3.3139713971397,1364894.3117368,5236.5545933753,3711246.4734627,8.5139713971397,0,0
-144.72006695643,-50.307958175625,3.318401840184,1364894.3117368,5236.5545933753,3711246.4734627,8.518401840184,0,0
-144.72006687433,-50.322312275737,3.3228322832283,1364894.3117368,5236.5545933753,3711246.4734627,8.5228322832283,0,0
-144.72006679223,-50.336666375848,3.3272627262726,1364894.3117368,5236.5545933753,3711246.4734627,8.5272627262726,0,0
-144.72006671014,-50.35102047596,3.3316931693169,1364894.3117368,5236.5545933753,3711246.4734627,8.5316931693169,0,0
-144.72006662804,-50.365374576071,3.3361236123612,1364894.3117368,5236.5545933753,3711246.4734627,8.5361236123612,0,0
-144.72006654594,-50.379728676183,3.3405540554055,1364894.3117368,5236.5545933753,3711246.4734627,8.5405540554055,0,0
-144.72006646384,-50.394082776294,3.3449844984498,1364894.3117368,5236.5545933753,3711246.4734627,8.5449844984498,0,0
-144.72006638175,-50.408436876406,3.3494149414941,1364894.3117368,5236.5545933753,3711246.4734627,8.5494149414941,0,0
-144.72006629965,-50.422790976517,3.3538453845385,1364894.3117368,5236.5545933753,3711246.4734627,8.5538453845385,0,0
-144.72006621755,-50.437145076629,3.3582758275828,1364894.3117368,5236.5545933753,3711246.4734627,8.5582758275828,0,0
-144.72006613545,-50.45149917674,3.3627062706271,1364894.3117368,5236.5545933753,3711246.4734627,8.5627062706271,0,0
-144.72006605336,-50.465853276852,3.3671367136714,1364894.3117368,5236.5545933753,3711246.4734627,8.5671367136714,0,0
-144.72006597126,-50.480207376963,3.3715671567157,1364894.3117368,5236.5545933753,3711246.4734627,8.5715671567157,0,0
-144.72006588916,-50.494561477075,3.37599759976,1364894.3117368,5236.5545933753,3711246.4734627,8.57599759976,0,0
-144.72006580706,-50.508915577186,3.3804280428043,1364894.3117368,5236.5545933753,3711246.4734627,8.5804280428043,0,0
-144.72006572497,-50.523269677298,3.3848584858486,1364894.3117368,5236.5545933753,3711246.4734627,8.5848584858486,0,0
-144.72006564287,-50.537623777409,3.3892889288929,1364894.3117368,5236.5545933753,3711246.4734627,8.5892889288929,0,0
-144.72006556077,-50.55197787752,3.3937193719372,1364894.3117368,5236.5545933753,3711246.4734627,8.5937193719372,0,0
-144.72006547868,-50.566331977632,3.3981498149815,1364894.3117368,5236.5545933753,3711246.4734627,8.5981498149815,0,0
-144.72006539658,-50.580686077743,3.4025802580258,1364894.3117368,5236.5545933753,3711246.4734627,8.6025802580258,0,0
-144.72006531448,-50.595040177855,3.4070107010701,1364894.3117368,5236.5545933753,3711246.4734627,8.6070107010701,0,0
-144.72006523238,-50.609394277966,3.4114411441144,1364894.3117368,5236.5545933753,3711246.4734627,8.6114411441144,0,0
-144.72006515029,-50.623748378078,3.4158715871587,1364894.3117368,5236.5545933753,3711246.4734627,8.6158715871587,0,0
-144.72006506819,-50.638102478189,3.420302030203,1364894.3117368,5236.5545933753,3711246.4734627,8.620302030203,0,0
-144.72006498609,-50.652456578301,3.4247324732473,1364894.3117368,5236.5545933753,3711246.4734627,8.6247324732473,0,0
-144.72006490399,-50.666810678412,3.4291629162916,1364894.3117368,5236.5545933753,3711246.4734627,8.6291629162916,0,0
-144.7200648219,-50.681164778524,3.4335933593359,1364894.3117368,5236.5545933753,3711246.4734627,8.6335933593359,0,0
-144.7200647398,-50.695518878635,3.4380238023802,1364894.3117368,5236.5545933753,3711246.4734627,8.6380238023802,0,0
-144.7200646577,-50.709872978747,3.4424542454245,1364894.3117368,5236.5545933753,3711246.4734627,8.6424542454245,0,0
-144.72006457561,-50.724227078858,3.4468846884688,1364894.3117368,5236.5545933753,3711246.4734627,8.6468846884688,0,0
-144.72006449351,-50.73858117897,3.4513151315132,1364894.3117368,5236.5545933753,3711246.4734627,8.6513151315132,0,0
-144.72006441141,-50.752935279081,3.4557455745575,1364894.3117368,5236.5545933753,3711246.4734627,8.6557455745575,0,0
-144.72006432931,-50.767289379193,3.4601760176018,1364894.3117368,5236.5545933753,3711246.4734627,8.6601760176018,0,0
-144.72006424722,-50.781643479304,3.4646064606461,1364894.3117368,5236.5545933753,3711246.4734627,8.6646064606461,0,0
-144.72006416512,-50.795997579415,3.4690369036904,1364894.3117368,5236.5545933753,3711246.4734627,8.6690369036904,0,0
-144.72006408302,-50.810351679527,3.4734673467347,1364894.3117368,5236.5545933753,3711246.4734627,8.6734673467347,0,0
-144.72006400092,-50.824705779638,3.477897789779,1364894.3117368,5236.5545933753,3711246.4734627,8.677897789779,0,0
-144.72006391883,-50.83905987975,3.4823282328233,1364894.3117368,5236.5545933753,3711246.4734627,8.6823282328233,0,0
-144.72006383673,-50.853413979861,3.4867586758676,1364894.3117368,5236.5545933753,3711246.4734627,8.6867586758676,0,0
-144.72006375463,-50.867768079973,3.4911891189119,1364894.3117368,5236.5545933753,3711246.4734627,8.6911891189119,0,0
-144.72006367254,-50.882122180084,3.4956195619562,1364894.3117368,5236.5545933753,3711246.4734627,8.6956195619562,0,0
-144.72006358994,-50.89647628188,3.5000500050005,1357784.410552,-19263.229800208,3603478.2649403,8.7000500050005,0,0
-144.72006350554,-50.910830389717,3.5044804480448,1357784.410552,-19263.229800208,3603478.2649403,8.7044804480448,0,0
-144.72006342114,-50.925184497555,3.5089108910891,1357784.410552,-19263.229800208,3603478.2649403,8.7089108910891,0,0
-144.72006333674,-50.939538605393,3.5133413341334,1357784.410552,-19263.229800208,3603478.2649403,8.7133413341334,0,0
-144.72006325234,-50.95389271323,3.5177717771777,1357784.410552,-19263.229800208,3603478.2649403,8.7177717771777,0,0
-144.72006316794,-50.968246821068,3.522202220222,1357784.410552,-19263.229800208,3603478.2649403,8.722202220222,0,0
-144.72006308354,-50.982600928906,3.5266326632663,1357784.410552,-19263.229800208,3603478.2649403,8.7266326632663,0,0
-144.72006299915,-50.996955036744,3.5310631063106,1357784.410552,-19263.229800208,3603478.2649403,8.7310631063106,0,0
-144.72006291475,-51.011309144581,3.5354935493549,1357784.410552,-19263.229800208,3603478.2649403,8.7354935493549,0,0
-144.72006283035,-51.025663252419,3.5399239923992,1357784.410552,-19263.229800208,3603478.2649403,8.7399239923992,0,0
-144.72006274595,-51.040017360257,3.5443544354435,1357784.410552,-19263.229800208,3603478.2649403,8.7443544354435,0,0
-144.72006266155,-51.054371468094,3.5487848784878,1357784.410552,-19263.229800208,3603478.2649403,8.7487848784878,0,0
-144.72006257715,-51.068725575932,3.5532153215322,1357784.410552,-19263.229800208,3603478.2649403,8.7532153215322,0,0
-144.72006249275,-51.08307968377,3.5576457645765,1357784.410552,-19263.229800208,3603478.2649403,8.7576457645765,0,0
-144.72006240835,-51.097433791607,3.5620762076208,1357784.410552,-19263.229800208,3603478.2649403,8.7620762076208,0,0
-144.72006232396,-51.111787899445,3.5665066506651,1357784.410552,-19263.229800208,3603478.2649403,8.7665066506651,0,0
-144.72006223956,-51.126142007283,3.5709370937094,1357784.410552,-19263.229800208,3603478.2649403,8.7709370937094,0,0
-144.72006215516,-51.140496115121,3.5753675367537,1357784.410552,-19263.229800208,3603478.2649403,8.7753675367537,0,0
-144.72006207076,-51.154850222958,3.579797979798,1357784.410552,-19263.229800208,3603478.2649403,8.779797979798,0,0
-144.72006198636,-51.169204330796,3.5842284228423,1357784.410552,-19263.229800208,3603478.2649403,8.7842284228423,0,0
-144.72006190196,-51.183558438634,3.5886588658866,1357784.410552,-19263.229800208,3603478.2649403,8.7886588658866,0,0
-144.72006181756,-51.197912546471,3.5930893089309,1357784.410552,-19263.229800208,3603478.2649403,8.7930893089309,0,0
-144.72006173316,-51.212266654309,3.5975197519752,1357784.410552,-19263.229800208,3603478.2649403,8.7975197519752,0,0
-144.72006164877,-51.226620762147,3.6019501950195,1357784.410552,-19263.229800208,3603478.2649403,8.8019501950195,0,0
-144.72006156437,-51.240974869985,3.6063806380638,1357784.410552,-19263.229800208,3603478.2649403,8.8063806380638,0,0
-144.72006147997,-51.255328977822,3.6108110811081,1357784.410552,-19263.229800208,3603478.2649403,8.8108110811081,0,0
-144.72006139557,-51.26968308566,3.6152415241524,1357784.410552,-19263.229800208,3603478.2649403,8.8152415241524,0,0
-144.72006131117,-51.284037193498,3.6196719671967,1357784.410552,-19263.229800208,3603478.2649403,8.8196719671967,0,0
-144.72006122677,-51.298391301335,3.624102410241,1357784.410552,-19263.229800208,3603478.2649403,8.824102410241,0,0
-144.72006114237,-51.312745409173,3.6285328532853,1357784.410552,-19263.229800208,3603478.2649403,8.8285328532853,0,0
-144.72006105797,-51.327099517011,3.6329632963296,1357784.410552,-19263.229800208,3603478.2649403,8.8329632963296,0,0
-144.72006097358,-51.341453624848,3.6373937393739,1357784.410552,-19263.229800208,3603478.2649403,8.8373937393739,0,0
-144.72006088918,-51.355807732686,3.6418241824182,1357784.410552,-19263.229800208,3603478.2649403,8.8418241824182,0,0
-144.72006080478,-51.370161840524,3.6462546254625,1357784.410552,-19263.229800208,3603478.2649403,8.8462546254625,0,0
-144.72006072038,-51.384515948362,3.6506850685069,1357784.410552,-19263.229800208,3603478.2649403,8.8506850685069,0,0
-144.72006063598,-51.398870056199,3.6551155115512,1357784.410552,-19263.229800208,3603478.2649403,8.8551155115512,0,0
-144.72006055158,-51.413224164037,3.6595459545955,1357784.410552,-19263.229800208,3603478.2649403,8.8595459545955,0,0
-144.72006046718,-51.427578271875,3.6639763976398,1357784.410552,-19263.229800208,3603478.2649403,8.8639763976398,0,0
-144.72006038278,-51.441932379712,3.6684068406841,1357784.410552,-19263.229800208,3603478.2649403,8.8684068406841,0,0
-144.72006029839,-51.45628648755,3.6728372837284,1357784.410552,-19263.229800208,3603478.2649403,8.8728372837284,0,0
-144.72006021399,-51.470640595388,3.6772677267727,1357784.410552,-19263.229800208,3603478.2649403,8.8772677267727,0,0
-144.72006012959,-51.484994703226,3.681698169817,1357784.410552,-19263.229800208,3603478.2649403,8.881698169817,0,0
-144.72006004519,-51.499348811063,3.6861286128613,1357784.410552,-19263.229800208,3603478.2649403,8.8861286128613,0,0
-144.72005996079,-51.513702918901,3.6905590559056,1357784.410552,-19263.229800208,3603478.2649403,8.8905590559056,0,0
-144.72005987463,-51.528057021147,3.6949894989499,1383890.4254293,15040.825521646,3587943.7211201,8.8949894989499,0,0
-144.72005978773,-51.542411121067,3.6994199419942,1383890.4254293,15040.825521646,3587943.7211201,8.8994199419942,0,0
-144.72005970083,-51.556765220987,3.7038503850385,1383890.4254293,15040.825521646,3587943.7211201,8.9038503850385,0,0
-144.72005961393,-51.571119320907,3.7082808280828,1383890.4254293,15040.825521646,3587943.7211201,8.9082808280828,0,0
-144.72005952704,-51.585473420827,3.7127112711271,1383890.4254293,15040.825521646,3587943.7211201,8.9127112711271,0,0
-144.72005944014,-51.599827520747,3.7171417141714,1383890.4254293,15040.825521646,3587943.7211201,8.9171417141714,0,0
-144.72005935324,-51.614181620667,3.7215721572157,1383890.4254293,15040.825521646,3587943.7211201,8.9215721572157,0,0
-144.72005926634,-51.628535720587,3.72600260026,1383890.4254293,15040.825521646,3587943.7211201,8.92600260026,0,0
-144.72005917945,-51.642889820507,3.7304330433043,1383890.4254293,15040.825521646,3587943.7211201,8.9304330433043,0,0
-144.72005909255,-51.657243920426,3.7348634863486,1383890.4254293,15040.825521646,3587943.7211201,8.9348634863486,0,0
-144.72005900565,-51.671598020346,3.7392939293929,1383890.4254293,15040.825521646,3587943.7211201,8.9392939293929,0,0
-144.72005891875,-51.685952120266,3.7437243724372,1383890.4254293,15040.825521646,3587943.7211201,8.9437243724372,0,0
-144.72005883186,-51.700306220186,3.7481548154815,1383890.4254293,15040.825521646,3587943.7211201,8.9481548154815,0,0
-144.72005874496,-51.714660320106,3.7525852585259,1383890.4254293,15040.825521646,3587943.7211201,8.9525852585259,0,0
-144.72005865806,-51.729014420026,3.7570157015702,1383890.4254293,15040.825521646,3587943.7211201,8.9570157015702,0,0
-144.72005857116,-51.743368519946,3.7614461446145,1383890.4254293,15040.825521646,3587943.7211201,8.9614461446145,0,0
-144.72005848427,-51.757722619866,3.7658765876588,1383890.4254293,15040.825521646,3587943.7211201,8.9658765876588,0,0
-144.72005839737,-51.772076719786,3.7703070307031,1383890.4254293,15040.825521646,3587943.7211201,8.9703070307031,0,0
-144.72005831047,-51.786430819706,3.7747374737474,1383890.4254293,15040.825521646,3587943.7211201,8.9747374737474,0,0
-144.72005822357,-51.800784919626,3.7791679167917,1383890.4254293,15040.825521646,3587943.7211201,8.9791679167917,0,0
-144.72005813668,-51.815139019545,3.783598359836,1383890.4254293,15040.825521646,3587943.7211201,8.983598359836,0,0
-144.72005804978,-51.829493119465,3.7880288028803,1383890.4254293,15040.825521646,3587943.7211201,8.9880288028803,0,0
-144.72005796288,-51.843847219385,3.7924592459246,1383890.4254293,15040.825521646,3587943.7211201,8.9924592459246,0,0
-144.72005787598,-51.858201319305,3.7968896889689,1383890.4254293,15040.825521646,3587943.7211201,8.9968896889689,0,0
-144.72005778908,-51.872555419225,3.8013201320132,1383890.4254293,15040.825521646,3587943.7211201,9.0013201320132,0,0
-144.72005770219,-51.886909519145,3.8057505750575,1383890.4254293,15040.825521646,3587943.7211201,9.0057505750575,0,0
-144.72005761529,-51.901263619065,3.8101810181018,1383890.4254293,15040.825521646,3587943.7211201,9.0101810181018,0,0
-144.72005752839,-51.915617718985,3.8146114611461,1383890.4254293,15040.825521646,3587943.7211201,9.0146114611461,0,0
-144.72005744149,-51.929971818905,3.8190419041904,1383890.4254293,15040.825521646,3587943.7211201,9.0190419041904,0,0
-144.7200573546,-51.944325918825,3.8234723472347,1383890.4254293,15040.825521646,3587943.7211201,9.0234723472347,0,0
-144.7200572677,-51.958680018744,3.827902790279,1383890.4254293,15040.825521646,3587943.7211201,9.027902790279,0,0
-144.7200571808,-51.973034118664,3.8323332333233,1383890.4254293,15040.825521646,3587943.7211201,9.0323332333233,0,0
-144.7200570939,-51.987388218584,3.8367636763676,1383890.4254293,15040.825521646,3587943.7211201,9.0367636763676,0,0
-144.72005700701,-52.001742318504,3.8411941194119,1383890.4254293,15040.825521646,3587943.7211201,9.0411941194119,0,0
-144.72005692011,-52.016096418424,3.8456245624562,1383890.4254293,15040.825521646,3587943.7211201,9.0456245624562,0,0
-144.72005683321,-52.030450518344,3.8500550055005,1383890.4254293,15040.825521646,3587943.7211201,9.0500550055005,0,0
-144.72005674631,-52.044804618264,3.8544854485449,1383890.4254293,15040.825521646,3587943.7211201,9.0544854485449,0,0
-144.72005665942,-52.059158718184,3.8589158915892,1383890.4254293,15040.825521646,3587943.7211201,9.0589158915892,0,0
-144.72005657252,-52.073512818104,3.8633463346335,1383890.4254293,15040.825521646,3587943.7211201,9.0633463346335,0,0
-144.72005648562,-52.087866918024,3.8677767776778,1383890.4254293,15040.825521646,3587943.7211201,9.0677767776778,0,0
-144.72005639872,-52.102221017943,3.8722072207221,1383890.4254293,15040.825521646,3587943.7211201,9.0722072207221,0,0
-144.72005631183,-52.116575117863,3.8766376637664,1383890.4254293,15040.825521646,3587943.7211201,9.0766376637664,0,0
-144.72005622493,-52.130929217783,3.8810681068107,1383890.4254293,15040.825521646,3587943.7211201,9.0810681068107,0,0
-144.72005613803,-52.145283317703,3.885498549855,1383890.4254293,15040.825521646,3587943.7211201,9.085498549855,0,0
-144.72005605113,-52.159637417623,3.8899289928993,1383890.4254293,15040.825521646,3587943.7211201,9.0899289928993,0,0
-144.72005596424,-52.173991517543,3.8943594359436,1383890.4254293,15040.825521646,3587943.7211201,9.0943594359436,0,0
-144.72005587734,-52.188345617463,3.8987898789879,1383890.4254293,15040.825521646,3587943.7211201,9.0987898789879,0,0
-144.72005579044,-52.202699717383,3.9032203220322,1383890.4254293,15040.825521646,3587943.7211201,9.1032203220322,0,0
-144.72005570354,-52.217053817303,3.9076507650765,1383890.4254293,15040.825521646,3587943.7211201,9.1076507650765,0,0
-144.72005561665,-52.231407917223,3.9120812081208,1383890.4254293,15040.825521646,3587943.7211201,9.1120812081208,0,0
-144.72005552975,-52.245762017142,3.9165116511651,1383890.4254293,15040.825521646,3587943.7211201,9.1165116511651,0,0
-144.72005544285,-52.260116117062,3.9209420942094,1383890.4254293,15040.825521646,3587943.7211201,9.1209420942094,0,0
-144.72005535595,-52.274470216982,3.9253725372537,1383890.4254293,15040.825521646,3587943.7211201,9.1253725372537,0,0
-144.72005526905,-52.288824316902,3.929802980298,1383890.4254293,15040.825521646,3587943.7211201,9.129802980298,0,0
-144.72005518216,-52.303178416822,3.9342334233423,1383890.4254293,15040.825521646,3587943.7211201,9.1342334233423,0,0
-144.72005509526,-52.317532516742,3.9386638663866,1383890.4254293,15040.825521646,3587943.7211201,9.1386638663866,0,0
-144.72005500836,-52.331886616662,3.9430943094309,1383890.4254293,15040.825521646,3587943.7211201,9.1430943094309,0,0
-144.72005492146,-52.346240716582,3.9475247524752,1383890.4254293,15040.825521646,3587943.7211201,9.1475247524752,0,0
-144.72005483457,-52.360594816502,3.9519551955196,1383890.4254293,15040.825521646,3587943.7211201,9.1519551955196,0,0
-144.72005474767,-52.374948916422,3.9563856385639,1383890.4254293,15040.825521646,3587943.7211201,9.1563856385639,0,0
-144.72005466077,-52.389303016342,3.9608160816082,1383890.4254293,15040.825521646,3587943.7211201,9.1608160816082,0,0
-144.72005457387,-52.403657116261,3.9652465246525,1383890.4254293,15040.825521646,3587943.7211201,9.1652465246525,0,0
-144.72005448698,-52.418011216181,3.9696769676968,1383890.4254293,15040.825521646,3587943.7211201,9.1696769676968,0,0
-144.72005440008,-52.432365316101,3.9741074107411,1383890.4254293,15040.825521646,3587943.7211201,9.1741074107411,0,0
-144.72005431318,-52.446719416021,3.9785378537854,1383890.4254293,15040.825521646,3587943.7211201,9.1785378537854,0,0
-144.72005422628,-52.461073515941,3.9829682968297,1383890.4254293,15040.825521646,3587943.7211201,9.1829682968297,0,0
-144.72005413939,-52.475427615861,3.987398739874,1383890.4254293,15040.825521646,3587943.7211201,9.187398739874,0,0
-144.72005405249,-52.489781715781,3.9918291829183,1383890.4254293,15040.825521646,3587943.7211201,9.1918291829183,0,0
-144.72005396559,-52.504135815701,3.9962596259626,1383890.4254293,15040.825521646,3587943.7211201,9.1962596259626,0,0
-144.72005387869,-52.518489915621,4.0006900690069,1383890.4254293,15040.825521646,3587943.7211201,9.2006900690069,0,0
-144.7200537918,-52.532844015541,4.0051205120512,1383890.4254293,15040.825521646,3587943.7211201,9.2051205120512,0,0
-144.72005370419,-52.5471981188,4.0095509550955,1378520.4782515,-18386.032818489,3504258.5251084,9.2095509550955,0,0
-144.72005361549,-52.561552227224,4.0139813981398,1378520.4782515,-18386.032818489,3504258.5251084,9.2139813981398,0,0
-144.7200535268,-52.575906335648,4.0184118411841,1378520.4782515,-18386.032818489,3504258.5251084,9.2184118411841,0,0
-144.7200534381,-52.590260444071,4.0228422842284,1378520.4782515,-18386.032818489,3504258.5251084,9.2228422842284,0,0
-144.7200533494,-52.604614552495,4.0272727272727,1378520.4782515,-18386.032818489,3504258.5251084,9.2272727272727,0,0
-144.72005326071,-52.618968660919,4.031703170317,1378520.4782515,-18386.032818489,3504258.5251084,9.231703170317,0,0
-144.72005317201,-52.633322769343,4.0361336133613,1378520.4782515,-18386.032818489,3504258.5251084,9.2361336133613,0,0
-144.72005308331,-52.647676877767,4.0405640564056,1378520.4782515,-18386.032818489,3504258.5251084,9.2405640564056,0,0
-144.72005299462,-52.662030986191,4.0449944994499,1378520.4782515,-18386.032818489,3504258.5251084,9.2449944994499,0,0
-144.72005290592,-52.676385094615,4.0494249424942,1378520.4782515,-18386.032818489,3504258.5251084,9.2494249424942,0,0
-144.72005281722,-52.690739203039,4.0538553855386,1378520.4782515,-18386.032818489,3504258.5251084,9.2538553855386,0,0
-144.72005272853,-52.705093311463,4.0582858285829,1378520.4782515,-18386.032818489,3504258.5251084,9.2582858285829,0,0
-144.72005263983,-52.719447419886,4.0627162716272,1378520.4782515,-18386.032818489,3504258.5251084,9.2627162716272,0,0
-144.72005255113,-52.73380152831,4.0671467146715,1378520.4782515,-18386.032818489,3504258.5251084,9.2671467146715,0,0
-144.72005246244,-52.748155636734,4.0715771577158,1378520.4782515,-18386.032818489,3504258.5251084,9.2715771577158,0,0
-144.72005237374,-52.762509745158,4.0760076007601,1378520.4782515,-18386.032818489,3504258.5251084,9.2760076007601,0,0
-144.72005228504,-52.776863853582,4.0804380438044,1378520.4782515,-18386.032818489,3504258.5251084,9.2804380438044,0,0
-144.72005219635,-52.791217962006,4.0848684868487,1378520.4782515,-18386.032818489,3504258.5251084,9.2848684868487,0,0
-144.72005210765,-52.80557207043,4.089298929893,1378520.4782515,-18386.032818489,3504258.5251084,9.289298929893,0,0
-144.72005201895,-52.819926178854,4.0937293729373,1378520.4782515,-18386.032818489,3504258.5251084,9.2937293729373,0,0
-144.72005193026,-52.834280287277,4.0981598159816,1378520.4782515,-18386.032818489,3504258.5251084,9.2981598159816,0,0
-144.72005184156,-52.848634395701,4.1025902590259,1378520.4782515,-18386.032818489,3504258.5251084,9.3025902590259,0,0
-144.72005175286,-52.862988504125,4.1070207020702,1378520.4782515,-18386.032818489,3504258.5251084,9.3070207020702,0,0
-144.72005166417,-52.877342612549,4.1114511451145,1378520.4782515,-18386.032818489,3504258.5251084,9.3114511451145,0,0
-144.72005157547,-52.891696720973,4.1158815881588,1378520.4782515,-18386.032818489,3504258.5251084,9.3158815881588,0,0
-144.72005148677,-52.906050829397,4.1203120312031,1378520.4782515,-18386.032818489,3504258.5251084,9.3203120312031,0,0
-144.72005139807,-52.920404937821,4.1247424742474,1378520.4782515,-18386.032818489,3504258.5251084,9.3247424742474,0,0
-144.72005130938,-52.934759046245,4.1291729172917,1378520.4782515,-18386.032818489,3504258.5251084,9.3291729172917,0,0
-144.72005122068,-52.949113154669,4.133603360336,1378520.4782515,-18386.032818489,3504258.5251084,9.333603360336,0,0
-144.72005113198,-52.963467263092,4.1380338033803,1378520.4782515,-18386.032818489,3504258.5251084,9.3380338033803,0,0
-144.72005104329,-52.977821371516,4.1424642464246,1378520.4782515,-18386.032818489,3504258.5251084,9.3424642464246,0,0
-144.72005095327,-52.992175475366,4.1468946894689,1395649.2279043,12508.751601865,3475640.5483926,9.3468946894689,0,0
-144.72005086244,-53.006529576417,4.1513251325133,1395649.2279043,12508.751601865,3475640.5483926,9.3513251325133,0,0
-144.72005077162,-53.020883677468,4.1557555755576,1395649.2279043,12508.751601865,3475640.5483926,9.3557555755576,0,0
-144.72005068079,-53.035237778519,4.1601860186019,1395649.2279043,12508.751601865,3475640.5483926,9.3601860186019,0,0
-144.72005058996,-53.04959187957,4.1646164616462,1395649.2279043,12508.751601865,3475640.5483926,9.3646164616462,0,0
-144.72005049913,-53.063945980621,4.1690469046905,1395649.2279043,12508.751601865,3475640.5483926,9.3690469046905,0,0
-144.72005040831,-53.078300081672,4.1734773477348,1395649.2279043,12508.751601865,3475640.5483926,9.3734773477348,0,0
-144.72005031748,-53.092654182724,4.1779077907791,1395649.2279043,12508.751601865,3475640.5483926,9.3779077907791,0,0
-144.72005022665,-53.107008283775,4.1823382338234,1395649.2279043,12508.751601865,3475640.5483926,9.3823382338234,0,0
-144.72005013583,-53.121362384826,4.1867686768677,1395649.2279043,12508.751601865,3475640.5483926,9.3867686768677,0,0
-144.720050045,-53.135716485877,4.191199119912,1395649.2279043,12508.751601865,3475640.5483926,9.391199119912,0,0
-144.72004995417,-53.150070586928,4.1956295629563,1395649.2279043,12508.751601865,3475640.5483926,9.3956295629563,0,0
-144.72004986335,-53.164424687979,4.2000600060006,1395649.2279043,12508.751601865,3475640.5483926,9.4000600060006,0,0
-144.72004977252,-53.17877878903,4.2044904490449,1395649.2279043,12508.751601865,3475640.5483926,9.4044904490449,0,0
-144.72004968169,-53.193132890081,4.2089208920892,1395649.2279043,12508.751601865,3475640.5483926,9.4089208920892,0,0
-144.72004959087,-53.207486991132,4.2133513351335,1395649.2279043,12508.751601865,3475640.5483926,9.4133513351335,0,0
-144.72004950004,-53.221841092183,4.2177817781778,1395649.2279043,12508.751601865,3475640.5483926,9.4177817781778,0,0
-144.72004940921,-53.236195193234,4.2222122212221,1395649.2279043,12508.751601865,3475640.5483926,9.4222122212221,0,0
-144.72004931838,-53.250549294285,4.2266426642664,1395649.2279043,12508.751601865,3475640.5483926,9.4266426642664,0,0
-144.72004922756,-53.264903395336,4.2310731073107,1395649.2279043,12508.751601865,3475640.5483926,9.4310731073107,0,0
-144.72004913673,-53.279257496387,4.235503550355,1395649.2279043,12508.751601865,3475640.5483926,9.435503550355,0,0
-144.7200490459,-53.293611597438,4.2399339933993,1395649.2279043,12508.751601865,3475640.5483926,9.4399339933993,0,0
-144.72004895508,-53.307965698489,4.2443644364436,1395649.2279043,12508.751601865,3475640.5483926,9.4443644364436,0,0
-144.72004886425,-53.32231979954,4.2487948794879,1395649.2279043,12508.751601865,3475640.5483926,9.4487948794879,0,0
-144.72004877342,-53.336673900591,4.2532253225323,1395649.2279043,12508.751601865,3475640.5483926,9.4532253225323,0,0
-144.7200486826,-53.351028001642,4.2576557655766,1395649.2279043,12508.751601865,3475640.5483926,9.4576557655766,0,0
-144.72004859177,-53.365382102693,4.2620862086209,1395649.2279043,12508.751601865,3475640.5483926,9.4620862086209,0,0
-144.72004850094,-53.379736203744,4.2665166516652,1395649.2279043,12508.751601865,3475640.5483926,9.4665166516652,0,0
-144.72004841012,-53.394090304795,4.2709470947095,1395649.2279043,12508.751601865,3475640.5483926,9.4709470947095,0,0
-144.72004831929,-53.408444405846,4.2753775377538,1395649.2279043,12508.751601865,3475640.5483926,9.4753775377538,0,0
-144.72004822846,-53.422798506897,4.2798079807981,1395649.2279043,12508.751601865,3475640.5483926,9.4798079807981,0,0
-144.72004813763,-53.437152607948,4.2842384238424,1395649.2279043,12508.751601865,3475640.5483926,9.4842384238424,0,0
-144.72004804681,-53.451506709,4.2886688668867,1395649.2279043,12508.751601865,3475640.5483926,9.4886688668867,0,0
-144.72004795598,-53.465860810051,4.293099309931,1395649.2279043,12508.751601865,3475640.5483926,9.493099309931,0,0
-144.72004786515,-53.480214911102,4.2975297529753,1395649.2279043,12508.751601865,3475640.5483926,9.4975297529753,0,0
-144.72004777433,-53.494569012153,4.3019601960196,1395649.2279043,12508.751601865,3475640.5483926,9.5019601960196,0,0
-144.7200476835,-53.508923113204,4.3063906390639,1395649.2279043,12508.751601865,3475640.5483926,9.5063906390639,0,0
-144.72004759267,-53.523277214255,4.3108210821082,1395649.2279043,12508.751601865,3475640.5483926,9.5108210821082,0,0
-144.72004750185,-53.537631315306,4.3152515251525,1395649.2279043,12508.751601865,3475640.5483926,9.5152515251525,0,0
-144.72004741102,-53.551985416357,4.3196819681968,1395649.2279043,12508.751601865,3475640.5483926,9.5196819681968,0,0
-144.72004732019,-53.566339517408,4.3241124112411,1395649.2279043,12508.751601865,3475640.5483926,9.5241124112411,0,0
-144.72004722937,-53.580693618459,4.3285428542854,1395649.2279043,12508.751601865,3475640.5483926,9.5285428542854,0,0
-144.72004713854,-53.59504771951,4.3329732973297,1395649.2279043,12508.751601865,3475640.5483926,9.5329732973297,0,0
-144.72004704771,-53.609401820561,4.337403740374,1395649.2279043,12508.751601865,3475640.5483926,9.537403740374,0,0
-144.72004695688,-53.623755921612,4.3418341834183,1395649.2279043,12508.751601865,3475640.5483926,9.5418341834183,0,0
-144.72004686606,-53.638110022663,4.3462646264626,1395649.2279043,12508.751601865,3475640.5483926,9.5462646264626,0,0
-144.72004677523,-53.652464123714,4.350695069507,1395649.2279043,12508.751601865,3475640.5483926,9.550695069507,0,0
-144.7200466844,-53.666818224765,4.3551255125513,1395649.2279043,12508.751601865,3475640.5483926,9.5551255125513,0,0
-144.72004659358,-53.681172325816,4.3595559555956,1395649.2279043,12508.751601865,3475640.5483926,9.5595559555956,0,0
-144.72004650275,-53.695526426867,4.3639863986399,1395649.2279043,12508.751601865,3475640.5483926,9.5639863986399,0,0
-144.72004641192,-53.709880527918,4.3684168416842,1395649.2279043,12508.751601865,3475640.5483926,9.5684168416842,0,0
-144.7200463211,-53.724234628969,4.3728472847285,1395649.2279043,12508.751601865,3475640.5483926,9.5728472847285,0,0
-144.72004623027,-53.73858873002,4.3772777277728,1395649.2279043,12508.751601865,3475640.5483926,9.5772777277728,0,0
-144.72004613944,-53.752942831071,4.3817081708171,1395649.2279043,12508.751601865,3475640.5483926,9.5817081708171,0,0
-144.72004604861,-53.767296932122,4.3861386138614,1395649.2279043,12508.751601865,3475640.5483926,9.5861386138614,0,0
-144.72004595779,-53.781651033173,4.3905690569057,1395649.2279043,12508.751601865,3475640.5483926,9.5905690569057,0,0
-144.72004586696,-53.796005134224,4.39499949995,1395649.2279043,12508.751601865,3475640.5483926,9.59499949995,0,0
-144.72004577613,-53.810359235275,4.3994299429943,1395649.2279043,12508.751601865,3475640.5483926,9.5994299429943,0,0
-144.72004568531,-53.824713336327,4.4038603860386,1395649.2279043,12508.751601865,3475640.5483926,9.6038603860386,0,0
-144.72004559448,-53.839067437378,4.4082908290829,1395649.2279043,12508.751601865,3475640.5483926,9.6082908290829,0,0
-144.72004550365,-53.853421538429,4.4127212721272,1395649.2279043,12508.751601865,3475640.5483926,9.6127212721272,0,0
-144.72004541283,-53.86777563948,4.4171517151715,1395649.2279043,12508.751601865,3475640.5483926,9.6171517151715,0,0
-144.720045322,-53.882129740531,4.4215821582158,1395649.2279043,12508.751601865,3475640.5483926,9.6215821582158,0,0
-144.72004523117,-53.896483841582,4.4260126012601,1395649.2279043,12508.751601865,3475640.5483926,9.6260126012601,0,0
-144.72004514035,-53.910837942633,4.4304430443044,1395649.2279043,12508.751601865,3475640.5483926,9.6304430443044,0,0
-144.72004504952,-53.925192043684,4.4348734873487,1395649.2279043,12508.751601865,3475640.5483926,9.6348734873487,0,0
-144.72004495869,-53.939546144735,4.439303930393,1395649.2279043,12508.751601865,3475640.5483926,9.639303930393,0,0
-144.72004486786,-53.953900245786,4.4437343734373,1395649.2279043,12508.751601865,3475640.5483926,9.6437343734373,0,0
-144.72004477704,-53.968254346837,4.4481648164816,1395649.2279043,12508.751601865,3475640.5483926,9.6481648164816,0,0
-144.72004468621,-53.982608447888,4.452595259526,1395649.2279043,12508.751601865,3475640.5483926,9.652595259526,0,0
-144.72004459538,-53.996962548939,4.4570257025703,1395649.2279043,12508.751601865,3475640.5483926,9.6570257025703,0,0
-144.72004450456,-54.01131664999,4.4614561456146,1395649.2279043,12508.751601865,3475640.5483926,9.6614561456146,0,0
-144.72004441373,-54.025670751041,4.4658865886589,1395649.2279043,12508.751601865,3475640.5483926,9.6658865886589,0,0
-144.7200443229,-54.040024852092,4.4703170317032,1395649.2279043,12508.751601865,3475640.5483926,9.6703170317032,0,0
-144.72004423208,-54.054378953143,4.4747474747475,1395649.2279043,12508.751601865,3475640.5483926,9.6747474747475,0,0
-144.72004414125,-54.068733054194,4.4791779177918,1395649.2279043,12508.751601865,3475640.5483926,9.6791779177918,0,0
-144.72004405042,-54.083087155245,4.4836083608361,1395649.2279043,12508.751601865,3475640.5483926,9.6836083608361,0,0
-144.7200439596,-54.097441256296,4.4880388038804,1395649.2279043,12508.751601865,3475640.5483926,9.6880388038804,0,0
-144.72004386877,-54.111795357347,4.4924692469247,1395649.2279043,12508.751601865,3475640.5483926,9.6924692469247,0,0
-144.72004377794,-54.126149458398,4.496899689969,1395649.2279043,12508.751601865,3475640.5483926,9.696899689969,0,0
-144.72004368711,-54.140503559449,4.5013301330133,1395649.2279043,12508.751601865,3475640.5483926,9.7013301330133,0,0
-144.72004359629,-54.1548576605,4.5057605760576,1395649.2279043,12508.751601865,3475640.5483926,9.7057605760576,0,0
-144.72004350546,-54.169211761552,4.5101910191019,1395649.2279043,12508.751601865,3475640.5483926,9.7101910191019,0,0
-144.72004341463,-54.183565862603,4.5146214621462,1395649.2279043,12508.751601865,3475640.5483926,9.7146214621462,0,0
-144.72004332381,-54.197919963654,4.5190519051905,1395649.2279043,12508.751601865,3475640.5483926,9.7190519051905,0,0
-144.72004323298,-54.212274064705,4.5234823482348,1395649.2279043,12508.751601865,3475640.5483926,9.7234823482348,0,0
-144.72004314215,-54.226628165756,4.5279127912791,1395649.2279043,12508.751601865,3475640.5483926,9.7279127912791,0,0
-144.72004305133,-54.240982266807,4.5323432343234,1395649.2279043,12508.751601865,3475640.5483926,9.7323432343234,0,0
-144.7200429605,-54.255336367858,4.5367736773677,1395649.2279043,12508.751601865,3475640.5483926,9.7367736773677,0,0
-144.72004286967,-54.269690468909,4.541204120412,1395649.2279043,12508.751601865,3475640.5483926,9.741204120412,0,0
-144.72004277885,-54.28404456996,4.5456345634563,1395649.2279043,12508.751601865,3475640.5483926,9.7456345634563,0,0
-144.72004268802,-54.298398671011,4.5500650065006,1395649.2279043,12508.751601865,3475640.5483926,9.7500650065007,0,0
-144.72004259719,-54.312752772062,4.554495449545,1395649.2279043,12508.751601865,3475640.5483926,9.754495449545,0,0
-144.72004250518,-54.327106878389,4.5589258925893,1393254.7185526,-13210.71335733,3412674.9756091,9.7589258925893,0,0
-144.72004241286,-54.341460986036,4.5633563356336,1393254.7185526,-13210.71335733,3412674.9756091,9.7633563356336,0,0
-144.72004232055,-54.355815093683,4.5677867786779,1393254.7185526,-13210.71335733,3412674.9756091,9.7677867786779,0,0
-144.72004222824,-54.370169201331,4.5722172217222,1393254.7185526,-13210.71335733,3412674.9756091,9.7722172217222,0,0
-144.72004213593,-54.384523308978,4.5766476647665,1393254.7185526,-13210.71335733,3412674.9756091,9.7766476647665,0,0
-144.72004204362,-54.398877416626,4.5810781078108,1393254.7185526,-13210.71335733,3412674.9756091,9.7810781078108,0,0
-144.7200419513,-54.413231524273,4.5855085508551,1393254.7185526,-13210.71335733,3412674.9756091,9.7855085508551,0,0
-144.72004185899,-54.42758563192,4.5899389938994,1393254.7185526,-13210.71335733,3412674.9756091,9.7899389938994,0,0
-144.72004176668,-54.441939739568,4.5943694369437,1393254.7185526,-13210.71335733,3412674.9756091,9.7943694369437,0,0
-144.72004167437,-54.456293847215,4.598799879988,1393254.7185526,-13210.71335733,3412674.9756091,9.798799879988,0,0
-144.72004158206,-54.470647954863,4.6032303230323,1393254.7185526,-13210.71335733,3412674.9756091,9.8032303230323,0,0
-144.72004148974,-54.48500206251,4.6076607660766,1393254.7185526,-13210.71335733,3412674.9756091,9.8076607660766,0,0
-144.72004139743,-54.499356170157,4.6120912091209,1393254.7185526,-13210.71335733,3412674.9756091,9.8120912091209,0,0
-144.72004130512,-54.513710277805,4.6165216521652,1393254.7185526,-13210.71335733,3412674.9756091,9.8165216521652,0,0
-144.72004121281,-54.528064385452,4.6209520952095,1393254.7185526,-13210.71335733,3412674.9756091,9.8209520952095,0,0
-144.72004112049,-54.5424184931,4.6253825382538,1393254.7185526,-13210.71335733,3412674.9756091,9.8253825382538,0,0
-144.72004102818,-54.556772600747,4.6298129812981,1393254.7185526,-13210.71335733,3412674.9756091,9.8298129812981,0,0
-144.72004093587,-54.571126708394,4.6342434243424,1393254.7185526,-13210.71335733,3412674.9756091,9.8342434243424,0,0
-144.72004084356,-54.585480816042,4.6386738673867,1393254.7185526,-13210.71335733,3412674.9756091,9.8386738673867,0,0
-144.72004075125,-54.599834923689,4.643104310431,1393254.7185526,-13210.71335733,3412674.9756091,9.843104310431,0,0
-144.72004065893,-54.614189031337,4.6475347534753,1393254.7185526,-13210.71335733,3412674.9756091,9.8475347534753,0,0
-144.72004056662,-54.628543138984,4.6519651965197,1393254.7185526,-13210.71335733,3412674.9756091,9.8519651965197,0,0
-144.72004047431,-54.642897246631,4.656395639564,1393254.7185526,-13210.71335733,3412674.9756091,9.856395639564,0,0
-144.72004038096,-54.657251350677,4.6608260826083,1404897.4338515,13137.511748391,3376629.2872791,9.8608260826083,0,0
-144.72004028675,-54.67160545179,4.6652565256526,1404897.4338515,13137.511748391,3376629.2872791,9.8652565256526,0,0
-144.72004019255,-54.685959552903,4.6696869686969,1404897.4338515,13137.511748391,3376629.2872791,9.8696869686969,0,0
-144.72004009835,-54.700313654016,4.6741174117412,1404897.4338515,13137.511748391,3376629.2872791,9.8741174117412,0,0
-144.72004000415,-54.714667755129,4.6785478547855,1404897.4338515,13137.511748391,3376629.2872791,9.8785478547855,0,0
-144.72003990995,-54.729021856242,4.6829782978298,1404897.4338515,13137.511748391,3376629.2872791,9.8829782978298,0,0
-144.72003981574,-54.743375957354,4.6874087408741,1404897.4338515,13137.511748391,3376629.2872791,9.8874087408741,0,0
-144.72003972154,-54.757730058467,4.6918391839184,1404897.4338515,13137.511748391,3376629.2872791,9.8918391839184,0,0
-144.72003962734,-54.77208415958,4.6962696269627,1404897.4338515,13137.511748391,3376629.2872791,9.8962696269627,0,0
-144.72003953314,-54.786438260693,4.700700070007,1404897.4338515,13137.511748391,3376629.2872791,9.900700070007,0,0
-144.72003943894,-54.800792361806,4.7051305130513,1404897.4338515,13137.511748391,3376629.2872791,9.9051305130513,0,0
-144.72003934474,-54.815146462919,4.7095609560956,1404897.4338515,13137.511748391,3376629.2872791,9.9095609560956,0,0
-144.72003925053,-54.829500564032,4.7139913991399,1404897.4338515,13137.511748391,3376629.2872791,9.9139913991399,0,0
-144.72003915633,-54.843854665145,4.7184218421842,1404897.4338515,13137.511748391,3376629.2872791,9.9184218421842,0,0
-144.72003906213,-54.858208766258,4.7228522852285,1404897.4338515,13137.511748391,3376629.2872791,9.9228522852285,0,0
-144.72003896793,-54.872562867371,4.7272827282728,1404897.4338515,13137.511748391,3376629.2872791,9.9272827282728,0,0
-144.72003887373,-54.886916968483,4.7317131713171,1404897.4338515,13137.511748391,3376629.2872791,9.9317131713171,0,0
-144.72003877952,-54.901271069596,4.7361436143614,1404897.4338515,13137.511748391,3376629.2872791,9.9361436143614,0,0
-144.72003868532,-54.915625170709,4.7405740574057,1404897.4338515,13137.511748391,3376629.2872791,9.9405740574057,0,0
-144.72003859112,-54.929979271822,4.74500450045,1404897.4338515,13137.511748391,3376629.2872791,9.94500450045,0,0
-144.72003849692,-54.944333372935,4.7494349434943,1404897.4338515,13137.511748391,3376629.2872791,9.9494349434943,0,0
-144.72003840272,-54.958687474048,4.7538653865387,1404897.4338515,13137.511748391,3376629.2872791,9.9538653865387,0,0
-144.72003830852,-54.973041575161,4.758295829583,1404897.4338515,13137.511748391,3376629.2872791,9.958295829583,0,0
-144.72003821431,-54.987395676274,4.7627262726273,1404897.4338515,13137.511748391,3376629.2872791,9.9627262726273,0,0
-144.72003812011,-55.001749777387,4.7671567156716,1404897.4338515,13137.511748391,3376629.2872791,9.9671567156716,0,0
-144.72003802591,-55.0161038785,4.7715871587159,1404897.4338515,13137.511748391,3376629.2872791,9.9715871587159,0,0
-144.72003793171,-55.030457979612,4.7760176017602,1404897.4338515,13137.511748391,3376629.2872791,9.9760176017602,0,0
-144.72003783751,-55.044812080725,4.7804480448045,1404897.4338515,13137.511748391,3376629.2872791,9.9804480448045,0,0
-144.7200377433,-55.059166181838,4.7848784878488,1404897.4338515,13137.511748391,3376629.2872791,9.9848784878488,0,0
-144.7200376491,-55.073520282951,4.7893089308931,1404897.4338515,13137.511748391,3376629.2872791,9.9893089308931,0,0
-144.7200375549,-55.087874384064,4.7937393739374,1404897.4338515,13137.511748391,3376629.2872791,9.9937393739374,0,0
-144.7200374607,-55.102228485177,4.7981698169817,1404897.4338515,13137.511748391,3376629.2872791,9.9981698169817,0,0
-144.7200373665,-55.11658258629,4.802600260026,1404897.4338515,13137.511748391,3376629.2872791,10.002600260026,0,0
-144.72003727229,-55.130936687403,4.8070307030703,1404897.4338515,13137.511748391,3376629.2872791,10.00703070307,0,0
-144.72003717809,-55.145290788516,4.8114611461146,1404897.4338515,13137.511748391,3376629.2872791,10.011461146115,0,0
-144.72003708389,-55.159644889628,4.8158915891589,1404897.4338515,13137.511748391,3376629.2872791,10.015891589159,0,0
-144.72003698969,-55.173998990741,4.8203220322032,1404897.4338515,13137.511748391,3376629.2872791,10.020322032203,0,0
-144.72003689549,-55.188353091854,4.8247524752475,1404897.4338515,13137.511748391,3376629.2872791,10.024752475248,0,0
-144.72003680129,-55.202707192967,4.8291829182918,1404897.4338515,13137.511748391,3376629.2872791,10.029182918292,0,0
-144.72003670708,-55.21706129408,4.8336133613361,1404897.4338515,13137.511748391,3376629.2872791,10.033613361336,0,0
-144.72003661288,-55.231415395193,4.8380438043804,1404897.4338515,13137.511748391,3376629.2872791,10.03804380438,0,0
-144.72003651868,-55.245769496306,4.8424742474247,1404897.4338515,13137.511748391,3376629.2872791,10.042474247425,0,0
-144.72003642448,-55.260123597419,4.846904690469,1404897.4338515,13137.511748391,3376629.2872791,10.046904690469,0,0
-144.72003633028,-55.274477698532,4.8513351335134,1404897.4338515,13137.511748391,3376629.2872791,10.051335133513,0,0
-144.72003623607,-55.288831799645,4.8557655765577,1404897.4338515,13137.511748391,3376629.2872791,10.055765576558,0,0
-144.72003614187,-55.303185900757,4.860196019602,1404897.4338515,13137.511748391,3376629.2872791,10.060196019602,0,0
-144.72003604767,-55.31754000187,4.8646264626463,1404897.4338515,13137.511748391,3376629.2872791,10.064626462646,0,0
-144.72003595347,-55.331894102983,4.8690569056906,1404897.4338515,13137.511748391,3376629.2872791,10.069056905691,0,0
-144.72003585927,-55.346248204096,4.8734873487349,1404897.4338515,13137.511748391,3376629.2872791,10.073487348735,0,0
-144.72003576507,-55.360602305209,4.8779177917792,1404897.4338515,13137.511748391,3376629.2872791,10.077917791779,0,0
-144.72003567086,-55.374956406322,4.8823482348235,1404897.4338515,13137.511748391,3376629.2872791,10.082348234823,0,0
-144.72003557666,-55.389310507435,4.8867786778678,1404897.4338515,13137.511748391,3376629.2872791,10.086778677868,0,0
-144.72003548246,-55.403664608548,4.8912091209121,1404897.4338515,13137.511748391,3376629.2872791,10.091209120912,0,0
-144.72003538826,-55.418018709661,4.8956395639564,1404897.4338515,13137.511748391,3376629.2872791,10.095639563956,0,0
-144.72003529406,-55.432372810774,4.9000700070007,1404897.4338515,13137.511748391,3376629.2872791,10.100070007001,0,0
-144.72003519985,-55.446726911886,4.904500450045,1404897.4338515,13137.511748391,3376629.2872791,10.104500450045,0,0
-144.72003510565,-55.461081012999,4.9089308930893,1404897.4338515,13137.511748391,3376629.2872791,10.108930893089,0,0
-144.72003501145,-55.475435114112,4.9133613361336,1404897.4338515,13137.511748391,3376629.2872791,10.113361336134,0,0
-144.72003491725,-55.489789215225,4.9177917791779,1404897.4338515,13137.511748391,3376629.2872791,10.117791779178,0,0
-144.72003482305,-55.504143316338,4.9222222222222,1404897.4338515,13137.511748391,3376629.2872791,10.122222222222,0,0
-144.72003472885,-55.518497417451,4.9266526652665,1404897.4338515,13137.511748391,3376629.2872791,10.126652665267,0,0
-144.72003463464,-55.532851518564,4.9310831083108,1404897.4338515,13137.511748391,3376629.2872791,10.131083108311,0,0
-144.72003454044,-55.547205619677,4.9355135513551,1404897.4338515,13137.511748391,3376629.2872791,10.135513551355,0,0
-144.72003444624,-55.56155972079,4.9399439943994,1404897.4338515,13137.511748391,3376629.2872791,10.139943994399,0,0
-144.72003435204,-55.575913821902,4.9443744374437,1404897.4338515,13137.511748391,3376629.2872791,10.144374437444,0,0
-144.72003425784,-55.590267923015,4.948804880488,1404897.4338515,13137.511748391,3376629.2872791,10.148804880488,0,0
-144.72003416363,-55.604622024128,4.9532353235324,1404897.4338515,13137.511748391,3376629.2872791,10.153235323532,0,0
-144.72003406943,-55.618976125241,4.9576657665767,1404897.4338515,13137.511748391,3376629.2872791,10.157665766577,0,0
-144.72003397523,-55.633330226354,4.962096209621,1404897.4338515,13137.511748391,3376629.2872791,10.162096209621,0,0
-144.72003388103,-55.647684327467,4.9665266526653,1404897.4338515,13137.511748391,3376629.2872791,10.166526652665,0,0
-144.72003378683,-55.66203842858,4.9709570957096,1404897.4338515,13137.511748391,3376629.2872791,10.17095709571,0,0
-144.72003369262,-55.676392529693,4.9753875387539,1404897.4338515,13137.511748391,3376629.2872791,10.175387538754,0,0
-144.72003359842,-55.690746630806,4.9798179817982,1404897.4338515,13137.511748391,3376629.2872791,10.179817981798,0,0
-144.72003350422,-55.705100731919,4.9842484248425,1404897.4338515,13137.511748391,3376629.2872791,10.184248424842,0,0
-144.72003341002,-55.719454833031,4.9886788678868,1404897.4338515,13137.511748391,3376629.2872791,10.188678867887,0,0
-144.72003331582,-55.733808934144,4.9931093109311,1404897.4338515,13137.511748391,3376629.2872791,10.193109310931,0,0
-144.72003322127,-55.748163039376,4.9975397539754,1400759.8906368,-6522.5972640292,3350410.8083684,10.197539753975,0,0
-144.7200331267,-55.762517144844,5.0019701970197,1400759.8906368,-6522.5972640292,3350410.8083684,10.20197019702,0,0
-144.72003303213,-55.776871250312,5.006400640064,1400759.8906368,-6522.5972640292,3350410.8083684,10.206400640064,0,0
-144.72003293756,-55.79122535578,5.0108310831083,1400759.8906368,-6522.5972640292,3350410.8083684,10.210831083108,0,0
-144.72003284299,-55.805579461248,5.0152615261526,1400759.8906368,-6522.5972640292,3350410.8083684,10.215261526153,0,0
-144.72003274842,-55.819933566716,5.0196919691969,1400759.8906368,-6522.5972640292,3350410.8083684,10.219691969197,0,0
-144.72003265385,-55.834287672184,5.0241224122412,1400759.8906368,-6522.5972640292,3350410.8083684,10.224122412241,0,0
-144.72003255928,-55.848641777652,5.0285528552855,1400759.8906368,-6522.5972640292,3350410.8083684,10.228552855286,0,0
-144.72003246471,-55.86299588312,5.0329832983298,1400759.8906368,-6522.5972640292,3350410.8083684,10.23298329833,0,0
-144.72003237014,-55.877349988588,5.0374137413741,1400759.8906368,-6522.5972640292,3350410.8083684,10.237413741374,0,0
-144.72003227557,-55.891704094056,5.0418441844184,1400759.8906368,-6522.5972640292,3350410.8083684,10.241844184418,0,0
-144.720032181,-55.906058199524,5.0462746274627,1400759.8906368,-6522.5972640292,3350410.8083684,10.246274627463,0,0
-144.72003208643,-55.920412304992,5.050705070507,1400759.8906368,-6522.5972640292,3350410.8083684,10.250705070507,0,0
-144.72003199187,-55.93476641046,5.0551355135514,1400759.8906368,-6522.5972640292,3350410.8083684,10.255135513551,0,0
-144.7200318973,-55.949120515928,5.0595659565957,1400759.8906368,-6522.5972640292,3350410.8083684,10.259565956596,0,0
-144.72003180273,-55.963474621396,5.06399639964,1400759.8906368,-6522.5972640292,3350410.8083684,10.26399639964,0,0
-144.72003170816,-55.977828726864,5.0684268426843,1400759.8906368,-6522.5972640292,3350410.8083684,10.268426842684,0,0
-144.72003161359,-55.992182832332,5.0728572857286,1400759.8906368,-6522.5972640292,3350410.8083684,10.272857285729,0,0
-144.72003151902,-56.0065369378,5.0772877287729,1400759.8906368,-6522.5972640292,3350410.8083684,10.277287728773,0,0
-144.72003142445,-56.020891043268,5.0817181718172,1400759.8906368,-6522.5972640292,3350410.8083684,10.281718171817,0,0
-144.72003132988,-56.035245148736,5.0861486148615,1400759.8906368,-6522.5972640292,3350410.8083684,10.286148614861,0,0
-144.72003123531,-56.049599254204,5.0905790579058,1400759.8906368,-6522.5972640292,3350410.8083684,10.290579057906,0,0
-144.72003114074,-56.063953359672,5.0950095009501,1400759.8906368,-6522.5972640292,3350410.8083684,10.29500950095,0,0
-144.72003104617,-56.07830746514,5.0994399439944,1400759.8906368,-6522.5972640292,3350410.8083684,10.299439943994,0,0
-144.7200309516,-56.092661570608,5.1038703870387,1400759.8906368,-6522.5972640292,3350410.8083684,10.303870387039,0,0
-144.72003085703,-56.107015676076,5.108300830083,1400759.8906368,-6522.5972640292,3350410.8083684,10.308300830083,0,0
-144.72003076246,-56.121369781544,5.1127312731273,1400759.8906368,-6522.5972640292,3350410.8083684,10.312731273127,0,0
-144.72003066789,-56.135723887012,5.1171617161716,1400759.8906368,-6522.5972640292,3350410.8083684,10.317161716172,0,0
-144.72003057332,-56.15007799248,5.1215921592159,1400759.8906368,-6522.5972640292,3350410.8083684,10.321592159216,0,0
-144.72003047875,-56.164432097948,5.1260226022602,1400759.8906368,-6522.5972640292,3350410.8083684,10.32602260226,0,0
-144.72003038419,-56.178786203416,5.1304530453045,1400759.8906368,-6522.5972640292,3350410.8083684,10.330453045305,0,0
-144.72003028962,-56.193140308884,5.1348834883488,1400759.8906368,-6522.5972640292,3350410.8083684,10.334883488349,0,0
-144.72003019505,-56.207494414352,5.1393139313931,1400759.8906368,-6522.5972640292,3350410.8083684,10.339313931393,0,0
-144.72003010048,-56.22184851982,5.1437443744374,1400759.8906368,-6522.5972640292,3350410.8083684,10.343744374437,0,0
-144.72003000591,-56.236202625288,5.1481748174817,1400759.8906368,-6522.5972640292,3350410.8083684,10.348174817482,0,0
-144.72002991134,-56.250556730756,5.1526052605261,1400759.8906368,-6522.5972640292,3350410.8083684,10.352605260526,0,0
-144.72002981677,-56.264910836224,5.1570357035704,1400759.8906368,-6522.5972640292,3350410.8083684,10.35703570357,0,0
-144.7200297222,-56.279264941692,5.1614661466147,1400759.8906368,-6522.5972640292,3350410.8083684,10.361466146615,0,0
-144.72002962763,-56.29361904716,5.165896589659,1400759.8906368,-6522.5972640292,3350410.8083684,10.365896589659,0,0
-144.72002953306,-56.307973152628,5.1703270327033,1400759.8906368,-6522.5972640292,3350410.8083684,10.370327032703,0,0
-144.72002943849,-56.322327258096,5.1747574757476,1400759.8906368,-6522.5972640292,3350410.8083684,10.374757475748,0,0
-144.72002934392,-56.336681363564,5.1791879187919,1400759.8906368,-6522.5972640292,3350410.8083684,10.379187918792,0,0
-144.72002924935,-56.351035469032,5.1836183618362,1400759.8906368,-6522.5972640292,3350410.8083684,10.383618361836,0,0
-144.72002915478,-56.3653895745,5.1880488048805,1400759.8906368,-6522.5972640292,3350410.8083684,10.38804880488,0,0
-144.72002906021,-56.379743679968,5.1924792479248,1400759.8906368,-6522.5972640292,3350410.8083684,10.392479247925,0,0
-144.72002896564,-56.394097785436,5.1969096909691,1400759.8906368,-6522.5972640292,3350410.8083684,10.396909690969,0,0
-144.72002887107,-56.408451890904,5.2013401340134,1400759.8906368,-6522.5972640292,3350410.8083684,10.401340134013,0,0
-144.7200287765,-56.422805996372,5.2057705770577,1400759.8906368,-6522.5972640292,3350410.8083684,10.405770577058,0,0
-144.72002868194,-56.43716010184,5.210201020102,1400759.8906368,-6522.5972640292,3350410.8083684,10.410201020102,0,0
-144.72002858737,-56.451514207308,5.2146314631463,1400759.8906368,-6522.5972640292,3350410.8083684,10.414631463146,0,0
-144.7200284928,-56.465868312776,5.2190619061906,1400759.8906368,-6522.5972640292,3350410.8083684,10.419061906191,0,0
-144.72002839823,-56.480222418244,5.2234923492349,1400759.8906368,-6522.5972640292,3350410.8083684,10.423492349235,0,0
-144.72002830366,-56.494576523712,5.2279227922792,1400759.8906368,-6522.5972640292,3350410.8083684,10.427922792279,0,0
-144.72002820909,-56.50893062918,5.2323532353235,1400759.8906368,-6522.5972640292,3350410.8083684,10.432353235324,0,0
-144.72002811452,-56.523284734648,5.2367836783678,1400759.8906368,-6522.5972640292,3350410.8083684,10.436783678368,0,0
-144.72002801868,-56.537638838078,5.2412141214121,1409129.2429179,-4135.3933148457,3291365.2465844,10.441214121412,0,0
-144.72002792187,-56.551992939955,5.2456445644564,1409129.2429179,-4135.3933148457,3291365.2465844,10.445644564456,0,0
-144.72002782506,-56.566347041833,5.2500750075008,1409129.2429179,-4135.3933148457,3291365.2465844,10.450075007501,0,0
-144.72002772825,-56.58070114371,5.2545054505451,1409129.2429179,-4135.3933148457,3291365.2465844,10.454505450545,0,0
-144.72002763144,-56.595055245587,5.2589358935894,1409129.2429179,-4135.3933148457,3291365.2465844,10.458935893589,0,0
-144.72002753463,-56.609409347465,5.2633663366337,1409129.2429179,-4135.3933148457,3291365.2465844,10.463366336634,0,0
-144.72002743782,-56.623763449342,5.267796779678,1409129.2429179,-4135.3933148457,3291365.2465844,10.467796779678,0,0
-144.72002734101,-56.63811755122,5.2722272227223,1409129.2429179,-4135.3933148457,3291365.2465844,10.472227222722,0,0
-144.7200272442,-56.652471653097,5.2766576657666,1409129.2429179,-4135.3933148457,3291365.2465844,10.476657665767,0,0
-144.72002714739,-56.666825754974,5.2810881088109,1409129.2429179,-4135.3933148457,3291365.2465844,10.481088108811,0,0
-144.72002705058,-56.681179856852,5.2855185518552,1409129.2429179,-4135.3933148457,3291365.2465844,10.485518551855,0,0
-144.72002695377,-56.695533958729,5.2899489948995,1409129.2429179,-4135.3933148457,3291365.2465844,10.489948994899,0,0
-144.72002685696,-56.709888060607,5.2943794379438,1409129.2429179,-4135.3933148457,3291365.2465844,10.494379437944,0,0
-144.72002676015,-56.724242162484,5.2988098809881,1409129.2429179,-4135.3933148457,3291365.2465844,10.498809880988,0,0
-144.72002666334,-56.738596264361,5.3032403240324,1409129.2429179,-4135.3933148457,3291365.2465844,10.503240324032,0,0
-144.72002656653,-56.752950366239,5.3076707670767,1409129.2429179,-4135.3933148457,3291365.2465844,10.507670767077,0,0
-144.72002646972,-56.767304468116,5.312101210121,1409129.2429179,-4135.3933148457,3291365.2465844,10.512101210121,0,0
-144.72002637291,-56.781658569994,5.3165316531653,1409129.2429179,-4135.3933148457,3291365.2465844,10.516531653165,0,0
-144.7200262761,-56.796012671871,5.3209620962096,1409129.2429179,-4135.3933148457,3291365.2465844,10.52096209621,0,0
-144.72002617929,-56.810366773748,5.3253925392539,1409129.2429179,-4135.3933148457,3291365.2465844,10.525392539254,0,0
-144.72002608248,-56.824720875626,5.3298229822982,1409129.2429179,-4135.3933148457,3291365.2465844,10.529822982298,0,0
-144.72002598567,-56.839074977503,5.3342534253425,1409129.2429179,-4135.3933148457,3291365.2465844,10.534253425343,0,0
-144.72002588886,-56.853429079381,5.3386838683868,1409129.2429179,-4135.3933148457,3291365.2465844,10.538683868387,0,0
-144.72002579205,-56.867783181258,5.3431143114311,1409129.2429179,-4135.3933148457,3291365.2465844,10.543114311431,0,0
-144.72002569524,-56.882137283135,5.3475447544754,1409129.2429179,-4135.3933148457,3291365.2465844,10.547544754475,0,0
-144.72002559843,-56.896491385013,5.3519751975198,1409129.2429179,-4135.3933148457,3291365.2465844,10.55197519752,0,0
-144.72002550162,-56.91084548689,5.3564056405641,1409129.2429179,-4135.3933148457,3291365.2465844,10.556405640564,0,0
-144.72002540481,-56.925199588768,5.3608360836084,1409129.2429179,-4135.3933148457,3291365.2465844,10.560836083608,0,0
-144.720025308,-56.939553690645,5.3652665266527,1409129.2429179,-4135.3933148457,3291365.2465844,10.565266526653,0,0
-144.72002521119,-56.953907792522,5.369696969697,1409129.2429179,-4135.3933148457,3291365.2465844,10.569696969697,0,0
-144.72002511438,-56.9682618944,5.3741274127413,1409129.2429179,-4135.3933148457,3291365.2465844,10.574127412741,0,0
-144.72002501757,-56.982615996277,5.3785578557856,1409129.2429179,-4135.3933148457,3291365.2465844,10.578557855786,0,0
-144.72002492076,-56.996970098154,5.3829882988299,1409129.2429179,-4135.3933148457,3291365.2465844,10.58298829883,0,0
-144.72002482395,-57.011324200032,5.3874187418742,1409129.2429179,-4135.3933148457,3291365.2465844,10.587418741874,0,0
-144.72002472714,-57.025678301909,5.3918491849185,1409129.2429179,-4135.3933148457,3291365.2465844,10.591849184918,0,0
-144.72002463033,-57.040032403787,5.3962796279628,1409129.2429179,-4135.3933148457,3291365.2465844,10.596279627963,0,0
-144.72002453352,-57.054386505664,5.4007100710071,1409129.2429179,-4135.3933148457,3291365.2465844,10.600710071007,0,0
-144.72002443671,-57.068740607541,5.4051405140514,1409129.2429179,-4135.3933148457,3291365.2465844,10.605140514051,0,0
-144.7200243399,-57.083094709419,5.4095709570957,1409129.2429179,-4135.3933148457,3291365.2465844,10.609570957096,0,0
-144.72002424309,-57.097448811296,5.41400140014,1409129.2429179,-4135.3933148457,3291365.2465844,10.61400140014,0,0
-144.72002414628,-57.111802913174,5.4184318431843,1409129.2429179,-4135.3933148457,3291365.2465844,10.618431843184,0,0
-144.72002404947,-57.126157015051,5.4228622862286,1409129.2429179,-4135.3933148457,3291365.2465844,10.622862286229,0,0
-144.72002395266,-57.140511116928,5.4272927292729,1409129.2429179,-4135.3933148457,3291365.2465844,10.627292729273,0,0
-144.72002385585,-57.154865218806,5.4317231723172,1409129.2429179,-4135.3933148457,3291365.2465844,10.631723172317,0,0
-144.72002375904,-57.169219320683,5.4361536153615,1409129.2429179,-4135.3933148457,3291365.2465844,10.636153615362,0,0
-144.72002366223,-57.183573422561,5.4405840584058,1409129.2429179,-4135.3933148457,3291365.2465844,10.640584058406,0,0
-144.72002356542,-57.197927524438,5.4450145014501,1409129.2429179,-4135.3933148457,3291365.2465844,10.64501450145,0,0
-144.72002346861,-57.212281626315,5.4494449444944,1409129.2429179,-4135.3933148457,3291365.2465844,10.649444944494,0,0
-144.7200233718,-57.226635728193,5.4538753875388,1409129.2429179,-4135.3933148457,3291365.2465844,10.653875387539,0,0
-144.72002327499,-57.24098983007,5.4583058305831,1409129.2429179,-4135.3933148457,3291365.2465844,10.658305830583,0,0
-144.72002317818,-57.255343931948,5.4627362736274,1409129.2429179,-4135.3933148457,3291365.2465844,10.662736273627,0,0
-144.72002308137,-57.269698033825,5.4671667166717,1409129.2429179,-4135.3933148457,3291365.2465844,10.667166716672,0,0
-144.72002298474,-57.284052133988,5.471597159716,1403660.4981151,8059.6738165696,3285522.9120991,10.671597159716,0,0
-144.72002288822,-57.298406233303,5.4760276027603,1403660.4981151,8059.6738165696,3285522.9120991,10.67602760276,0,0
-144.72002279169,-57.312760332618,5.4804580458046,1403660.4981151,8059.6738165696,3285522.9120991,10.680458045805,0,0
-144.72002269516,-57.327114431933,5.4848884888489,1403660.4981151,8059.6738165696,3285522.9120991,10.684888488849,0,0
-144.72002259863,-57.341468531248,5.4893189318932,1403660.4981151,8059.6738165696,3285522.9120991,10.689318931893,0,0
-144.7200225021,-57.355822630563,5.4937493749375,1403660.4981151,8059.6738165696,3285522.9120991,10.693749374937,0,0
-144.72002240557,-57.370176729878,5.4981798179818,1403660.4981151,8059.6738165696,3285522.9120991,10.698179817982,0,0
-144.72002230904,-57.384530829193,5.5026102610261,1403660.4981151,8059.6738165696,3285522.9120991,10.702610261026,0,0
-144.72002221251,-57.398884928508,5.5070407040704,1403660.4981151,8059.6738165696,3285522.9120991,10.70704070407,0,0
-144.72002211599,-57.413239027823,5.5114711471147,1403660.4981151,8059.6738165696,3285522.9120991,10.711471147115,0,0
-144.72002201946,-57.427593127138,5.515901590159,1403660.4981151,8059.6738165696,3285522.9120991,10.715901590159,0,0
-144.72002192293,-57.441947226453,5.5203320332033,1403660.4981151,8059.6738165696,3285522.9120991,10.720332033203,0,0
-144.7200218264,-57.456301325768,5.5247624762476,1403660.4981151,8059.6738165696,3285522.9120991,10.724762476248,0,0
-144.72002172987,-57.470655425083,5.5291929192919,1403660.4981151,8059.6738165696,3285522.9120991,10.729192919292,0,0
-144.72002163334,-57.485009524398,5.5336233623362,1403660.4981151,8059.6738165696,3285522.9120991,10.733623362336,0,0
-144.72002153681,-57.499363623713,5.5380538053805,1403660.4981151,8059.6738165696,3285522.9120991,10.738053805381,0,0
-144.72002144028,-57.513717723029,5.5424842484248,1403660.4981151,8059.6738165696,3285522.9120991,10.742484248425,0,0
-144.72002134375,-57.528071822344,5.5469146914691,1403660.4981151,8059.6738165696,3285522.9120991,10.746914691469,0,0
-144.72002124723,-57.542425921659,5.5513451345134,1403660.4981151,8059.6738165696,3285522.9120991,10.751345134513,0,0
-144.7200211507,-57.556780020974,5.5557755775578,1403660.4981151,8059.6738165696,3285522.9120991,10.755775577558,0,0
-144.72002105417,-57.571134120289,5.5602060206021,1403660.4981151,8059.6738165696,3285522.9120991,10.760206020602,0,0
-144.72002095764,-57.585488219604,5.5646364636464,1403660.4981151,8059.6738165696,3285522.9120991,10.764636463646,0,0
-144.72002086111,-57.599842318919,5.5690669066907,1403660.4981151,8059.6738165696,3285522.9120991,10.769066906691,0,0
-144.72002076458,-57.614196418234,5.573497349735,1403660.4981151,8059.6738165696,3285522.9120991,10.773497349735,0,0
-144.72002066805,-57.628550517549,5.5779277927793,1403660.4981151,8059.6738165696,3285522.9120991,10.777927792779,0,0
-144.72002057152,-57.642904616864,5.5823582358236,1403660.4981151,8059.6738165696,3285522.9120991,10.782358235824,0,0
-144.720020475,-57.657258716179,5.5867886788679,1403660.4981151,8059.6738165696,3285522.9120991,10.786788678868,0,0
-144.72002037847,-57.671612815494,5.5912191219122,1403660.4981151,8059.6738165696,3285522.9120991,10.791219121912,0,0
-144.72002028194,-57.685966914809,5.5956495649565,1403660.4981151,8059.6738165696,3285522.9120991,10.795649564956,0,0
-144.72002018541,-57.700321014124,5.6000800080008,1403660.4981151,8059.6738165696,3285522.9120991,10.800080008001,0,0
-144.72002008888,-57.714675113439,5.6045104510451,1403660.4981151,8059.6738165696,3285522.9120991,10.804510451045,0,0
-144.72001999235,-57.729029212754,5.6089408940894,1403660.4981151,8059.6738165696,3285522.9120991,10.808940894089,0,0
-144.72001989582,-57.74338331207,5.6133713371337,1403660.4981151,8059.6738165696,3285522.9120991,10.813371337134,0,0
-144.72001979929,-57.757737411385,5.617801780178,1403660.4981151,8059.6738165696,3285522.9120991,10.817801780178,0,0
-144.72001970277,-57.7720915107,5.6222322232223,1403660.4981151,8059.6738165696,3285522.9120991,10.822232223222,0,0
-144.72001960624,-57.786445610015,5.6266626662666,1403660.4981151,8059.6738165696,3285522.9120991,10.826662666267,0,0
-144.72001950971,-57.80079970933,5.6310931093109,1403660.4981151,8059.6738165696,3285522.9120991,10.831093109311,0,0
-144.72001941318,-57.815153808645,5.6355235523552,1403660.4981151,8059.6738165696,3285522.9120991,10.835523552355,0,0
-144.72001931665,-57.82950790796,5.6399539953995,1403660.4981151,8059.6738165696,3285522.9120991,10.8399539954,0,0
-144.72001921935,-57.84386200937,5.6443844384438,1410576.6885642,-9346.4185034463,3233349.2660051,10.844384438444,0,0
-144.72001912088,-57.858216113986,5.6488148814881,1410576.6885642,-9346.4185034463,3233349.2660051,10.848814881488,0,0
-144.72001902241,-57.872570218602,5.6532453245325,1410576.6885642,-9346.4185034463,3233349.2660051,10.853245324532,0,0
-144.72001892394,-57.886924323219,5.6576757675768,1410576.6885642,-9346.4185034463,3233349.2660051,10.857675767577,0,0
-144.72001882547,-57.901278427835,5.6621062106211,1410576.6885642,-9346.4185034463,3233349.2660051,10.862106210621,0,0
-144.720018727,-57.915632532451,5.6665366536654,1410576.6885642,-9346.4185034463,3233349.2660051,10.866536653665,0,0
-144.72001862853,-57.929986637068,5.6709670967097,1410576.6885642,-9346.4185034463,3233349.2660051,10.87096709671,0,0
-144.72001853006,-57.944340741684,5.675397539754,1410576.6885642,-9346.4185034463,3233349.2660051,10.875397539754,0,0
-144.72001843159,-57.9586948463,5.6798279827983,1410576.6885642,-9346.4185034463,3233349.2660051,10.879827982798,0,0
-144.72001833312,-57.973048950917,5.6842584258426,1410576.6885642,-9346.4185034463,3233349.2660051,10.884258425843,0,0
-144.72001823465,-57.987403055533,5.6886888688869,1410576.6885642,-9346.4185034463,3233349.2660051,10.888688868887,0,0
-144.72001813618,-58.001757160149,5.6931193119312,1410576.6885642,-9346.4185034463,3233349.2660051,10.893119311931,0,0
-144.72001803771,-58.016111264766,5.6975497549755,1410576.6885642,-9346.4185034463,3233349.2660051,10.897549754975,0,0
-144.72001793924,-58.030465369382,5.7019801980198,1410576.6885642,-9346.4185034463,3233349.2660051,10.90198019802,0,0
-144.72001784077,-58.044819473998,5.7064106410641,1410576.6885642,-9346.4185034463,3233349.2660051,10.906410641064,0,0
-144.7200177423,-58.059173578615,5.7108410841084,1410576.6885642,-9346.4185034463,3233349.2660051,10.910841084108,0,0
-144.72001764383,-58.073527683231,5.7152715271527,1410576.6885642,-9346.4185034463,3233349.2660051,10.915271527153,0,0
-144.72001754536,-58.087881787847,5.719701970197,1410576.6885642,-9346.4185034463,3233349.2660051,10.919701970197,0,0
-144.72001744689,-58.102235892464,5.7241324132413,1410576.6885642,-9346.4185034463,3233349.2660051,10.924132413241,0,0
-144.72001734842,-58.11658999708,5.7285628562856,1410576.6885642,-9346.4185034463,3233349.2660051,10.928562856286,0,0
-144.72001724995,-58.130944101696,5.7329932993299,1410576.6885642,-9346.4185034463,3233349.2660051,10.93299329933,0,0
-144.72001715148,-58.145298206313,5.7374237423742,1410576.6885642,-9346.4185034463,3233349.2660051,10.937423742374,0,0
-144.72001705301,-58.159652310929,5.7418541854185,1410576.6885642,-9346.4185034463,3233349.2660051,10.941854185419,0,0
-144.72001695454,-58.174006415545,5.7462846284628,1410576.6885642,-9346.4185034463,3233349.2660051,10.946284628463,0,0
-144.72001685607,-58.188360520162,5.7507150715072,1410576.6885642,-9346.4185034463,3233349.2660051,10.950715071507,0,0
-144.7200167576,-58.202714624778,5.7551455145515,1410576.6885642,-9346.4185034463,3233349.2660051,10.955145514551,0,0
-144.72001665913,-58.217068729394,5.7595759575958,1410576.6885642,-9346.4185034463,3233349.2660051,10.959575957596,0,0
-144.72001656066,-58.231422834011,5.7640064006401,1410576.6885642,-9346.4185034463,3233349.2660051,10.96400640064,0,0
-144.72001646219,-58.245776938627,5.7684368436844,1410576.6885642,-9346.4185034463,3233349.2660051,10.968436843684,0,0
-144.72001636371,-58.260131043243,5.7728672867287,1410576.6885642,-9346.4185034463,3233349.2660051,10.972867286729,0,0
-144.72001626524,-58.27448514786,5.777297729773,1410576.6885642,-9346.4185034463,3233349.2660051,10.977297729773,0,0
-144.72001616677,-58.288839252476,5.7817281728173,1410576.6885642,-9346.4185034463,3233349.2660051,10.981728172817,0,0
-144.7200160683,-58.303193357092,5.7861586158616,1410576.6885642,-9346.4185034463,3233349.2660051,10.986158615862,0,0
-144.72001596983,-58.317547461709,5.7905890589059,1410576.6885642,-9346.4185034463,3233349.2660051,10.990589058906,0,0
-144.72001587136,-58.331901566325,5.7950195019502,1410576.6885642,-9346.4185034463,3233349.2660051,10.99501950195,0,0
-144.72001577289,-58.346255670941,5.7994499449945,1410576.6885642,-9346.4185034463,3233349.2660051,10.999449944994,0,0
-144.72001567442,-58.360609775558,5.8038803880388,1410576.6885642,-9346.4185034463,3233349.2660051,11.003880388039,0,0
-144.72001557595,-58.374963880174,5.8083108310831,1410576.6885642,-9346.4185034463,3233349.2660051,11.008310831083,0,0
-144.72001547748,-58.38931798479,5.8127412741274,1410576.6885642,-9346.4185034463,3233349.2660051,11.012741274127,0,0
-144.72001537901,-58.403672089407,5.8171717171717,1410576.6885642,-9346.4185034463,3233349.2660051,11.017171717172,0,0
-144.72001528054,-58.418026194023,5.821602160216,1410576.6885642,-9346.4185034463,3233349.2660051,11.021602160216,0,0
-144.72001518207,-58.432380298639,5.8260326032603,1410576.6885642,-9346.4185034463,3233349.2660051,11.02603260326,0,0
-144.7200150836,-58.446734403256,5.8304630463046,1410576.6885642,-9346.4185034463,3233349.2660051,11.030463046305,0,0
-144.72001498513,-58.461088507872,5.8348934893489,1410576.6885642,-9346.4185034463,3233349.2660051,11.034893489349,0,0
-144.72001488666,-58.475442612488,5.8393239323932,1410576.6885642,-9346.4185034463,3233349.2660051,11.039323932393,0,0
-144.72001478819,-58.489796717105,5.8437543754375,1410576.6885642,-9346.4185034463,3233349.2660051,11.043754375438,0,0
-144.72001468972,-58.504150821721,5.8481848184818,1410576.6885642,-9346.4185034463,3233349.2660051,11.048184818482,0,0
-144.72001459125,-58.518504926337,5.8526152615262,1410576.6885642,-9346.4185034463,3233349.2660051,11.052615261526,0,0
-144.72001449278,-58.532859030954,5.8570457045705,1410576.6885642,-9346.4185034463,3233349.2660051,11.05704570457,0,0
-144.72001439431,-58.54721313557,5.8614761476148,1410576.6885642,-9346.4185034463,3233349.2660051,11.061476147615,0,0
-144.72001429584,-58.561567240186,5.8659065906591,1410576.6885642,-9346.4185034463,3233349.2660051,11.065906590659,0,0
-144.72001419737,-58.575921344803,5.8703370337034,1410576.6885642,-9346.4185034463,3233349.2660051,11.070337033703,0,0
-144.7200140989,-58.590275449419,5.8747674767477,1410576.6885642,-9346.4185034463,3233349.2660051,11.074767476748,0,0
-144.72001400043,-58.604629554035,5.879197919792,1410576.6885642,-9346.4185034463,3233349.2660051,11.079197919792,0,0
-144.72001390196,-58.618983658652,5.8836283628363,1410576.6885642,-9346.4185034463,3233349.2660051,11.083628362836,0,0
-144.72001380349,-58.633337763268,5.8880588058806,1410576.6885642,-9346.4185034463,3233349.2660051,11.088058805881,0,0
-144.72001370502,-58.647691867885,5.8924892489249,1410576.6885642,-9346.4185034463,3233349.2660051,11.092489248925,0,0
-144.72001360655,-58.662045972501,5.8969196919692,1410576.6885642,-9346.4185034463,3233349.2660051,11.096919691969,0,0
-144.72001350807,-58.676400077117,5.9013501350135,1410576.6885642,-9346.4185034463,3233349.2660051,11.101350135014,0,0
-144.7200134096,-58.690754181734,5.9057805780578,1410576.6885642,-9346.4185034463,3233349.2660051,11.105780578058,0,0
-144.72001331113,-58.70510828635,5.9102110211021,1410576.6885642,-9346.4185034463,3233349.2660051,11.110211021102,0,0
-144.72001321266,-58.719462390966,5.9146414641464,1410576.6885642,-9346.4185034463,3233349.2660051,11.114641464146,0,0
-144.72001311419,-58.733816495583,5.9190719071907,1410576.6885642,-9346.4185034463,3233349.2660051,11.119071907191,0,0
-144.72001301572,-58.748170600199,5.923502350235,1410576.6885642,-9346.4185034463,3233349.2660051,11.123502350235,0,0
-144.72001291725,-58.762524704815,5.9279327932793,1410576.6885642,-9346.4185034463,3233349.2660051,11.127932793279,0,0
-144.72001281878,-58.776878809432,5.9323632363236,1410576.6885642,-9346.4185034463,3233349.2660051,11.132363236324,0,0
-144.72001272031,-58.791232914048,5.9367936793679,1410576.6885642,-9346.4185034463,3233349.2660051,11.136793679368,0,0
-144.72001262184,-58.805587018664,5.9412241224122,1410576.6885642,-9346.4185034463,3233349.2660051,11.141224122412,0,0
-144.72001252337,-58.819941123281,5.9456545654565,1410576.6885642,-9346.4185034463,3233349.2660051,11.145654565457,0,0
-144.7200124249,-58.834295227897,5.9500850085008,1410576.6885642,-9346.4185034463,3233349.2660051,11.150085008501,0,0
-144.72001232643,-58.848649332513,5.9545154515452,1410576.6885642,-9346.4185034463,3233349.2660051,11.154515451545,0,0
-144.72001222796,-58.86300343713,5.9589458945895,1410576.6885642,-9346.4185034463,3233349.2660051,11.158945894589,0,0
-144.72001212949,-58.877357541746,5.9633763376338,1410576.6885642,-9346.4185034463,3233349.2660051,11.163376337634,0,0
-144.72001203102,-58.891711646362,5.9678067806781,1410576.6885642,-9346.4185034463,3233349.2660051,11.167806780678,0,0
-144.72001193255,-58.906065750979,5.9722372237224,1410576.6885642,-9346.4185034463,3233349.2660051,11.172237223722,0,0
-144.72001183408,-58.920419855595,5.9766676667667,1410576.6885642,-9346.4185034463,3233349.2660051,11.176667666767,0,0
-144.72001173561,-58.934773960211,5.981098109811,1410576.6885642,-9346.4185034463,3233349.2660051,11.181098109811,0,0
-144.72001163714,-58.949128064828,5.9855285528553,1410576.6885642,-9346.4185034463,3233349.2660051,11.185528552855,0,0
-144.72001153867,-58.963482169444,5.9899589958996,1410576.6885642,-9346.4185034463,3233349.2660051,11.1899589959,0,0
-144.7200114402,-58.97783627406,5.9943894389439,1410576.6885642,-9346.4185034463,3233349.2660051,11.194389438944,0,0
-144.72001134173,-58.992190378677,5.9988198819882,1410576.6885642,-9346.4185034463,3233349.2660051,11.198819881988,0,0
-144.72001124326,-59.006544483293,6.0032503250325,1410576.6885642,-9346.4185034463,3233349.2660051,11.203250325033,0,0
-144.72001114479,-59.020898587909,6.0076807680768,1410576.6885642,-9346.4185034463,3233349.2660051,11.207680768077,0,0
-144.72001104632,-59.035252692526,6.0121112111211,1410576.6885642,-9346.4185034463,3233349.2660051,11.212111211121,0,0
-144.72001094785,-59.049606797142,6.0165416541654,1410576.6885642,-9346.4185034463,3233349.2660051,11.216541654165,0,0
-144.72001084938,-59.063960901758,6.0209720972097,1410576.6885642,-9346.4185034463,3233349.2660051,11.22097209721,0,0
-144.72001075091,-59.078315006375,6.025402540254,1410576.6885642,-9346.4185034463,3233349.2660051,11.225402540254,0,0
-144.72001065243,-59.092669110991,6.0298329832983,1410576.6885642,-9346.4185034463,3233349.2660051,11.229832983298,0,0
-144.72001055396,-59.107023215607,6.0342634263426,1410576.6885642,-9346.4185034463,3233349.2660051,11.234263426343,0,0
-144.72001045549,-59.121377320224,6.0386938693869,1410576.6885642,-9346.4185034463,3233349.2660051,11.238693869387,0,0
-144.72001035702,-59.13573142484,6.0431243124312,1410576.6885642,-9346.4185034463,3233349.2660051,11.243124312431,0,0
-144.72001025855,-59.150085529456,6.0475547554755,1410576.6885642,-9346.4185034463,3233349.2660051,11.247554755476,0,0
-144.72001016008,-59.164439634073,6.0519851985199,1410576.6885642,-9346.4185034463,3233349.2660051,11.25198519852,0,0
-144.72001006161,-59.178793738689,6.0564156415642,1410576.6885642,-9346.4185034463,3233349.2660051,11.256415641564,0,0
-144.72000996314,-59.193147843305,6.0608460846085,1410576.6885642,-9346.4185034463,3233349.2660051,11.260846084608,0,0
-144.7200098646,-59.207501946766,6.0652765276528,1408482.976833,8315.119045983,3217911.6377414,11.265276527653,0,0
-144.72000976588,-59.221856047546,6.0697069706971,1408482.976833,8315.119045983,3217911.6377414,11.269706970697,0,0
-144.72000966717,-59.236210148325,6.0741374137414,1408482.976833,8315.119045983,3217911.6377414,11.274137413741,0,0
-144.72000956846,-59.250564249105,6.0785678567857,1408482.976833,8315.119045983,3217911.6377414,11.278567856786,0,0
-144.72000946974,-59.264918349884,6.08299829983,1408482.976833,8315.119045983,3217911.6377414,11.28299829983,0,0
-144.72000937103,-59.279272450664,6.0874287428743,1408482.976833,8315.119045983,3217911.6377414,11.287428742874,0,0
-144.72000927231,-59.293626551444,6.0918591859186,1408482.976833,8315.119045983,3217911.6377414,11.291859185919,0,0
-144.7200091736,-59.307980652223,6.0962896289629,1408482.976833,8315.119045983,3217911.6377414,11.296289628963,0,0
-144.72000907489,-59.322334753003,6.1007200720072,1408482.976833,8315.119045983,3217911.6377414,11.300720072007,0,0
-144.72000897617,-59.336688853782,6.1051505150515,1408482.976833,8315.119045983,3217911.6377414,11.305150515052,0,0
-144.72000887746,-59.351042954562,6.1095809580958,1408482.976833,8315.119045983,3217911.6377414,11.309580958096,0,0
-144.72000877874,-59.365397055341,6.1140114011401,1408482.976833,8315.119045983,3217911.6377414,11.31401140114,0,0
-144.72000868003,-59.379751156121,6.1184418441844,1408482.976833,8315.119045983,3217911.6377414,11.318441844184,0,0
-144.72000858131,-59.394105256901,6.1228722872287,1408482.976833,8315.119045983,3217911.6377414,11.322872287229,0,0
-144.7200084826,-59.40845935768,6.127302730273,1408482.976833,8315.119045983,3217911.6377414,11.327302730273,0,0
-144.72000838389,-59.42281345846,6.1317331733173,1408482.976833,8315.119045983,3217911.6377414,11.331733173317,0,0
-144.72000828517,-59.437167559239,6.1361636163616,1408482.976833,8315.119045983,3217911.6377414,11.336163616362,0,0
-144.72000818646,-59.451521660019,6.1405940594059,1408482.976833,8315.119045983,3217911.6377414,11.340594059406,0,0
-144.72000808774,-59.465875760799,6.1450245024502,1408482.976833,8315.119045983,3217911.6377414,11.34502450245,0,0
-144.72000798903,-59.480229861578,6.1494549454945,1408482.976833,8315.119045983,3217911.6377414,11.349454945495,0,0
-144.72000789032,-59.494583962358,6.1538853885389,1408482.976833,8315.119045983,3217911.6377414,11.353885388539,0,0
-144.7200077916,-59.508938063137,6.1583158315832,1408482.976833,8315.119045983,3217911.6377414,11.358315831583,0,0
-144.72000769289,-59.523292163917,6.1627462746275,1408482.976833,8315.119045983,3217911.6377414,11.362746274627,0,0
-144.72000759417,-59.537646264696,6.1671767176718,1408482.976833,8315.119045983,3217911.6377414,11.367176717672,0,0
-144.72000749546,-59.552000365476,6.1716071607161,1408482.976833,8315.119045983,3217911.6377414,11.371607160716,0,0
-144.72000739674,-59.566354466256,6.1760376037604,1408482.976833,8315.119045983,3217911.6377414,11.37603760376,0,0
-144.72000729803,-59.580708567035,6.1804680468047,1408482.976833,8315.119045983,3217911.6377414,11.380468046805,0,0
-144.72000719932,-59.595062667815,6.184898489849,1408482.976833,8315.119045983,3217911.6377414,11.384898489849,0,0
-144.7200071006,-59.609416768594,6.1893289328933,1408482.976833,8315.119045983,3217911.6377414,11.389328932893,0,0
-144.72000700189,-59.623770869374,6.1937593759376,1408482.976833,8315.119045983,3217911.6377414,11.393759375938,0,0
-144.72000690317,-59.638124970154,6.1981898189819,1408482.976833,8315.119045983,3217911.6377414,11.398189818982,0,0
-144.72000680446,-59.652479070933,6.2026202620262,1408482.976833,8315.119045983,3217911.6377414,11.402620262026,0,0
-144.72000670575,-59.666833171713,6.2070507050705,1408482.976833,8315.119045983,3217911.6377414,11.407050705071,0,0
-144.72000660703,-59.681187272492,6.2114811481148,1408482.976833,8315.119045983,3217911.6377414,11.411481148115,0,0
-144.72000650832,-59.695541373272,6.2159115911591,1408482.976833,8315.119045983,3217911.6377414,11.415911591159,0,0
-144.7200064096,-59.709895474051,6.2203420342034,1408482.976833,8315.119045983,3217911.6377414,11.420342034203,0,0
-144.72000631089,-59.724249574831,6.2247724772477,1408482.976833,8315.119045983,3217911.6377414,11.424772477248,0,0
-144.72000621218,-59.738603675611,6.229202920292,1408482.976833,8315.119045983,3217911.6377414,11.429202920292,0,0
-144.72000611346,-59.75295777639,6.2336333633363,1408482.976833,8315.119045983,3217911.6377414,11.433633363336,0,0
-144.72000601475,-59.76731187717,6.2380638063806,1408482.976833,8315.119045983,3217911.6377414,11.438063806381,0,0
-144.72000591603,-59.781665977949,6.2424942494249,1408482.976833,8315.119045983,3217911.6377414,11.442494249425,0,0
-144.72000581732,-59.796020078729,6.2469246924692,1408482.976833,8315.119045983,3217911.6377414,11.446924692469,0,0
-144.7200057186,-59.810374179508,6.2513551355136,1408482.976833,8315.119045983,3217911.6377414,11.451355135514,0,0
-144.72000561989,-59.824728280288,6.2557855785579,1408482.976833,8315.119045983,3217911.6377414,11.455785578558,0,0
-144.72000552118,-59.839082381068,6.2602160216022,1408482.976833,8315.119045983,3217911.6377414,11.460216021602,0,0
-144.72000542246,-59.853436481847,6.2646464646465,1408482.976833,8315.119045983,3217911.6377414,11.464646464646,0,0
-144.72000532375,-59.867790582627,6.2690769076908,1408482.976833,8315.119045983,3217911.6377414,11.469076907691,0,0
-144.72000522503,-59.882144683406,6.2735073507351,1408482.976833,8315.119045983,3217911.6377414,11.473507350735,0,0
-144.72000512632,-59.896498784186,6.2779377937794,1408482.976833,8315.119045983,3217911.6377414,11.477937793779,0,0
-144.72000502761,-59.910852884966,6.2823682368237,1408482.976833,8315.119045983,3217911.6377414,11.482368236824,0,0
-144.72000492889,-59.925206985745,6.286798679868,1408482.976833,8315.119045983,3217911.6377414,11.486798679868,0,0
-144.72000483018,-59.939561086525,6.2912291229123,1408482.976833,8315.119045983,3217911.6377414,11.491229122912,0,0
-144.72000473146,-59.953915187304,6.2956595659566,1408482.976833,8315.119045983,3217911.6377414,11.495659565957,0,0
-144.72000463275,-59.968269288084,6.3000900090009,1408482.976833,8315.119045983,3217911.6377414,11.500090009001,0,0
-144.72000453403,-59.982623388863,6.3045204520452,1408482.976833,8315.119045983,3217911.6377414,11.504520452045,0,0
-144.72000443532,-59.996977489643,6.3089508950895,1408482.976833,8315.119045983,3217911.6377414,11.50895089509,0,0
-144.72000433661,-60.011331590423,6.3133813381338,1408482.976833,8315.119045983,3217911.6377414,11.513381338134,0,0
-144.72000423789,-60.025685691202,6.3178117811781,1408482.976833,8315.119045983,3217911.6377414,11.517811781178,0,0
-144.72000413918,-60.040039791982,6.3222422242224,1408482.976833,8315.119045983,3217911.6377414,11.522242224222,0,0
-144.72000404046,-60.054393892761,6.3266726672667,1408482.976833,8315.119045983,3217911.6377414,11.526672667267,0,0
-144.72000394175,-60.068747993541,6.331103110311,1408482.976833,8315.119045983,3217911.6377414,11.531103110311,0,0
-144.72000384304,-60.083102094321,6.3355335533553,1408482.976833,8315.119045983,3217911.6377414,11.535533553355,0,0
-144.72000374432,-60.0974561951,6.3399639963996,1408482.976833,8315.119045983,3217911.6377414,11.5399639964,0,0
-144.72000364561,-60.11181029588,6.3443944394439,1408482.976833,8315.119045983,3217911.6377414,11.544394439444,0,0
-144.72000354689,-60.126164396659,6.3488248824882,1408482.976833,8315.119045983,3217911.6377414,11.548824882488,0,0
-144.72000344818,-60.140518497439,6.3532553255326,1408482.976833,8315.119045983,3217911.6377414,11.553255325533,0,0
-144.72000334947,-60.154872598218,6.3576857685769,1408482.976833,8315.119045983,3217911.6377414,11.557685768577,0,0
-144.72000325075,-60.169226698998,6.3621162116212,1408482.976833,8315.119045983,3217911.6377414,11.562116211621,0,0
-144.72000315204,-60.183580799778,6.3665466546655,1408482.976833,8315.119045983,3217911.6377414,11.566546654665,0,0
-144.72000305332,-60.197934900557,6.3709770977098,1408482.976833,8315.119045983,3217911.6377414,11.57097709771,0,0
-144.72000295461,-60.212289001337,6.3754075407541,1408482.976833,8315.119045983,3217911.6377414,11.575407540754,0,0
-144.72000285589,-60.226643102116,6.3798379837984,1408482.976833,8315.119045983,3217911.6377414,11.579837983798,0,0
-144.72000275718,-60.240997202896,6.3842684268427,1408482.976833,8315.119045983,3217911.6377414,11.584268426843,0,0
-144.72000265847,-60.255351303676,6.388698869887,1408482.976833,8315.119045983,3217911.6377414,11.588698869887,0,0
-144.72000255975,-60.269705404455,6.3931293129313,1408482.976833,8315.119045983,3217911.6377414,11.593129312931,0,0
-144.72000246104,-60.284059505235,6.3975597559756,1408482.976833,8315.119045983,3217911.6377414,11.597559755976,0,0
-144.72000236232,-60.298413606014,6.4019901990199,1408482.976833,8315.119045983,3217911.6377414,11.60199019902,0,0
-144.72000226361,-60.312767706794,6.4064206420642,1408482.976833,8315.119045983,3217911.6377414,11.606420642064,0,0
-144.7200021649,-60.327121807573,6.4108510851085,1408482.976833,8315.119045983,3217911.6377414,11.610851085109,0,0
-144.72000206618,-60.341475908353,6.4152815281528,1408482.976833,8315.119045983,3217911.6377414,11.615281528153,0,0
-144.72000196747,-60.355830009133,6.4197119711971,1408482.976833,8315.119045983,3217911.6377414,11.619711971197,0,0
-144.72000186875,-60.370184109912,6.4241424142414,1408482.976833,8315.119045983,3217911.6377414,11.624142414241,0,0
-144.72000177004,-60.384538210692,6.4285728572857,1408482.976833,8315.119045983,3217911.6377414,11.628572857286,0,0
-144.72000167132,-60.398892311471,6.43300330033,1408482.976833,8315.119045983,3217911.6377414,11.63300330033,0,0
-144.72000157261,-60.413246412251,6.4374337433743,1408482.976833,8315.119045983,3217911.6377414,11.637433743374,0,0
-144.7200014739,-60.427600513031,6.4418641864186,1408482.976833,8315.119045983,3217911.6377414,11.641864186419,0,0
-144.72000137518,-60.44195461381,6.4462946294629,1408482.976833,8315.119045983,3217911.6377414,11.646294629463,0,0
-144.72000127647,-60.45630871459,6.4507250725072,1408482.976833,8315.119045983,3217911.6377414,11.650725072507,0,0
-144.72000117775,-60.470662815369,6.4551555155516,1408482.976833,8315.119045983,3217911.6377414,11.655155515552,0,0
-144.72000107904,-60.485016916149,6.4595859585959,1408482.976833,8315.119045983,3217911.6377414,11.659585958596,0,0
-144.72000097956,-60.499371019309,6.4640164016402,1410974.5376367,-7977.3701123486,3167485.7364827,11.66401640164,0,0
-144.7200008793,-60.513725124877,6.4684468446845,1410974.5376367,-7977.3701123486,3167485.7364827,11.668446844684,0,0
-144.72000077905,-60.528079230445,6.4728772877288,1410974.5376367,-7977.3701123486,3167485.7364827,11.672877287729,0,0
-144.72000067879,-60.542433336013,6.4773077307731,1410974.5376367,-7977.3701123486,3167485.7364827,11.677307730773,0,0
-144.72000057854,-60.556787441581,6.4817381738174,1410974.5376367,-7977.3701123486,3167485.7364827,11.681738173817,0,0
-144.72000047828,-60.571141547149,6.4861686168617,1410974.5376367,-7977.3701123486,3167485.7364827,11.686168616862,0,0
-144.72000037803,-60.585495652717,6.490599059906,1410974.5376367,-7977.3701123486,3167485.7364827,11.690599059906,0,0
-144.72000027777,-60.599849758285,6.4950295029503,1410974.5376367,-7977.3701123486,3167485.7364827,11.69502950295,0,0
-144.72000017751,-60.614203863853,6.4994599459946,1410974.5376367,-7977.3701123486,3167485.7364827,11.699459945995,0,0
-144.72000007726,-60.628557969421,6.5038903890389,1410974.5376367,-7977.3701123486,3167485.7364827,11.703890389039,0,0
-144.719999977,-60.642912074989,6.5083208320832,1410974.5376367,-7977.3701123486,3167485.7364827,11.708320832083,0,0
-144.71999987675,-60.657266180557,6.5127512751275,1410974.5376367,-7977.3701123486,3167485.7364827,11.712751275128,0,0
-144.71999977649,-60.671620286125,6.5171817181718,1410974.5376367,-7977.3701123486,3167485.7364827,11.717181718172,0,0
-144.71999967623,-60.685974391693,6.5216121612161,1410974.5376367,-7977.3701123486,3167485.7364827,11.721612161216,0,0
-144.71999957598,-60.700328497261,6.5260426042604,1410974.5376367,-7977.3701123486,3167485.7364827,11.72604260426,0,0
-144.71999947572,-60.714682602829,6.5304730473047,1410974.5376367,-7977.3701123486,3167485.7364827,11.730473047305,0,0
-144.71999937547,-60.729036708397,6.534903490349,1410974.5376367,-7977.3701123486,3167485.7364827,11.734903490349,0,0
-144.71999927521,-60.743390813965,6.5393339333933,1410974.5376367,-7977.3701123486,3167485.7364827,11.739333933393,0,0
-144.71999917496,-60.757744919533,6.5437643764376,1410974.5376367,-7977.3701123486,3167485.7364827,11.743764376438,0,0
-144.7199990747,-60.772099025101,6.5481948194819,1410974.5376367,-7977.3701123486,3167485.7364827,11.748194819482,0,0
-144.71999897444,-60.786453130669,6.5526252625263,1410974.5376367,-7977.3701123486,3167485.7364827,11.752625262526,0,0
-144.71999887419,-60.800807236237,6.5570557055706,1410974.5376367,-7977.3701123486,3167485.7364827,11.757055705571,0,0
-144.71999877393,-60.815161341805,6.5614861486149,1410974.5376367,-7977.3701123486,3167485.7364827,11.761486148615,0,0
-144.71999867368,-60.829515447373,6.5659165916592,1410974.5376367,-7977.3701123486,3167485.7364827,11.765916591659,0,0
-144.71999857342,-60.843869552941,6.5703470347035,1410974.5376367,-7977.3701123486,3167485.7364827,11.770347034703,0,0
-144.71999847317,-60.858223658509,6.5747774777478,1410974.5376367,-7977.3701123486,3167485.7364827,11.774777477748,0,0
-144.71999837291,-60.872577764077,6.5792079207921,1410974.5376367,-7977.3701123486,3167485.7364827,11.779207920792,0,0
-144.71999827265,-60.886931869645,6.5836383638364,1410974.5376367,-7977.3701123486,3167485.7364827,11.783638363836,0,0
-144.7199981724,-60.901285975213,6.5880688068807,1410974.5376367,-7977.3701123486,3167485.7364827,11.788068806881,0,0
-144.71999807214,-60.915640080781,6.592499249925,1410974.5376367,-7977.3701123486,3167485.7364827,11.792499249925,0,0
-144.71999797189,-60.929994186349,6.5969296929693,1410974.5376367,-7977.3701123486,3167485.7364827,11.796929692969,0,0
-144.71999787163,-60.944348291917,6.6013601360136,1410974.5376367,-7977.3701123486,3167485.7364827,11.801360136014,0,0
-144.71999777138,-60.958702397485,6.6057905790579,1410974.5376367,-7977.3701123486,3167485.7364827,11.805790579058,0,0
-144.71999767112,-60.973056503053,6.6102210221022,1410974.5376367,-7977.3701123486,3167485.7364827,11.810221022102,0,0
-144.71999757086,-60.987410608621,6.6146514651465,1410974.5376367,-7977.3701123486,3167485.7364827,11.814651465147,0,0
-144.71999747061,-61.001764714189,6.6190819081908,1410974.5376367,-7977.3701123486,3167485.7364827,11.819081908191,0,0
-144.71999737035,-61.016118819757,6.6235123512351,1410974.5376367,-7977.3701123486,3167485.7364827,11.823512351235,0,0
-144.7199972701,-61.030472925325,6.6279427942794,1410974.5376367,-7977.3701123486,3167485.7364827,11.827942794279,0,0
-144.71999716984,-61.044827030893,6.6323732373237,1410974.5376367,-7977.3701123486,3167485.7364827,11.832373237324,0,0
-144.71999706959,-61.059181136461,6.636803680368,1410974.5376367,-7977.3701123486,3167485.7364827,11.836803680368,0,0
-144.71999696933,-61.073535242029,6.6412341234123,1410974.5376367,-7977.3701123486,3167485.7364827,11.841234123412,0,0
-144.71999686907,-61.087889347597,6.6456645664566,1410974.5376367,-7977.3701123486,3167485.7364827,11.845664566457,0,0
-144.71999676882,-61.102243453165,6.650095009501,1410974.5376367,-7977.3701123486,3167485.7364827,11.850095009501,0,0
-144.71999666856,-61.116597558733,6.6545254525453,1410974.5376367,-7977.3701123486,3167485.7364827,11.854525452545,0,0
-144.71999656831,-61.130951664301,6.6589558955896,1410974.5376367,-7977.3701123486,3167485.7364827,11.85895589559,0,0
-144.71999646805,-61.145305769869,6.6633863386339,1410974.5376367,-7977.3701123486,3167485.7364827,11.863386338634,0,0
-144.71999636779,-61.159659875437,6.6678167816782,1410974.5376367,-7977.3701123486,3167485.7364827,11.867816781678,0,0
-144.71999626754,-61.174013981005,6.6722472247225,1410974.5376367,-7977.3701123486,3167485.7364827,11.872247224722,0,0
-144.71999616728,-61.188368086573,6.6766776677668,1410974.5376367,-7977.3701123486,3167485.7364827,11.876677667767,0,0
-144.71999606703,-61.202722192141,6.6811081108111,1410974.5376367,-7977.3701123486,3167485.7364827,11.881108110811,0,0
-144.71999596677,-61.217076297709,6.6855385538554,1410974.5376367,-7977.3701123486,3167485.7364827,11.885538553855,0,0
-144.71999586652,-61.231430403277,6.6899689968997,1410974.5376367,-7977.3701123486,3167485.7364827,11.8899689969,0,0
-144.71999576626,-61.245784508845,6.694399439944,1410974.5376367,-7977.3701123486,3167485.7364827,11.894399439944,0,0
-144.719995666,-61.260138614413,6.6988298829883,1410974.5376367,-7977.3701123486,3167485.7364827,11.898829882988,0,0
-144.71999556575,-61.274492719981,6.7032603260326,1410974.5376367,-7977.3701123486,3167485.7364827,11.903260326033,0,0
-144.71999546549,-61.288846825549,6.7076907690769,1410974.5376367,-7977.3701123486,3167485.7364827,11.907690769077,0,0
-144.71999536524,-61.303200931117,6.7121212121212,1410974.5376367,-7977.3701123486,3167485.7364827,11.912121212121,0,0
-144.71999526498,-61.317555036685,6.7165516551655,1410974.5376367,-7977.3701123486,3167485.7364827,11.916551655166,0,0
-144.71999516473,-61.331909142253,6.7209820982098,1410974.5376367,-7977.3701123486,3167485.7364827,11.92098209821,0,0
-144.71999506447,-61.346263247821,6.7254125412541,1410974.5376367,-7977.3701123486,3167485.7364827,11.925412541254,0,0
-144.71999496421,-61.360617353389,6.7298429842984,1410974.5376367,-7977.3701123486,3167485.7364827,11.929842984298,0,0
-144.71999486382,-61.374971457428,6.7342734273427,1408992.1783147,8098.7342947992,3149530.1623203,11.934273427343,0,0
-144.71999476325,-61.389325559448,6.738703870387,1408992.1783147,8098.7342947992,3149530.1623203,11.938703870387,0,0
-144.71999466267,-61.403679661467,6.7431343134313,1408992.1783147,8098.7342947992,3149530.1623203,11.943134313431,0,0
-144.71999456209,-61.418033763486,6.7475647564756,1408992.1783147,8098.7342947992,3149530.1623203,11.947564756476,0,0
-144.71999446152,-61.432387865506,6.75199519952,1408992.1783147,8098.7342947992,3149530.1623203,11.95199519952,0,0
-144.71999436094,-61.446741967525,6.7564256425643,1408992.1783147,8098.7342947992,3149530.1623203,11.956425642564,0,0
-144.71999426037,-61.461096069544,6.7608560856086,1408992.1783147,8098.7342947992,3149530.1623203,11.960856085609,0,0
-144.71999415979,-61.475450171563,6.7652865286529,1408992.1783147,8098.7342947992,3149530.1623203,11.965286528653,0,0
-144.71999405922,-61.489804273583,6.7697169716972,1408992.1783147,8098.7342947992,3149530.1623203,11.969716971697,0,0
-144.71999395864,-61.504158375602,6.7741474147415,1408992.1783147,8098.7342947992,3149530.1623203,11.974147414741,0,0
-144.71999385807,-61.518512477621,6.7785778577858,1408992.1783147,8098.7342947992,3149530.1623203,11.978577857786,0,0
-144.71999375749,-61.532866579641,6.7830083008301,1408992.1783147,8098.7342947992,3149530.1623203,11.98300830083,0,0
-144.71999365691,-61.54722068166,6.7874387438744,1408992.1783147,8098.7342947992,3149530.1623203,11.987438743874,0,0
-144.71999355634,-61.561574783679,6.7918691869187,1408992.1783147,8098.7342947992,3149530.1623203,11.991869186919,0,0
-144.71999345576,-61.575928885699,6.796299629963,1408992.1783147,8098.7342947992,3149530.1623203,11.996299629963,0,0
-144.71999335519,-61.590282987718,6.8007300730073,1408992.1783147,8098.7342947992,3149530.1623203,12.000730073007,0,0
-144.71999325461,-61.604637089737,6.8051605160516,1408992.1783147,8098.7342947992,3149530.1623203,12.005160516052,0,0
-144.71999315404,-61.618991191757,6.8095909590959,1408992.1783147,8098.7342947992,3149530.1623203,12.009590959096,0,0
-144.71999305346,-61.633345293776,6.8140214021402,1408992.1783147,8098.7342947992,3149530.1623203,12.01402140214,0,0
-144.71999295289,-61.647699395795,6.8184518451845,1408992.1783147,8098.7342947992,3149530.1623203,12.018451845185,0,0
-144.71999285231,-61.662053497814,6.8228822882288,1408992.1783147,8098.7342947992,3149530.1623203,12.022882288229,0,0
-144.71999275174,-61.676407599834,6.8273127312731,1408992.1783147,8098.7342947992,3149530.1623203,12.027312731273,0,0
-144.71999265116,-61.690761701853,6.8317431743174,1408992.1783147,8098.7342947992,3149530.1623203,12.031743174317,0,0
-144.71999255058,-61.705115803872,6.8361736173617,1408992.1783147,8098.7342947992,3149530.1623203,12.036173617362,0,0
-144.71999245001,-61.719469905892,6.840604060406,1408992.1783147,8098.7342947992,3149530.1623203,12.040604060406,0,0
-144.71999234943,-61.733824007911,6.8450345034503,1408992.1783147,8098.7342947992,3149530.1623203,12.04503450345,0,0
-144.71999224886,-61.74817810993,6.8494649464946,1408992.1783147,8098.7342947992,3149530.1623203,12.049464946495,0,0
-144.71999214828,-61.76253221195,6.853895389539,1408992.1783147,8098.7342947992,3149530.1623203,12.053895389539,0,0
-144.71999204771,-61.776886313969,6.8583258325833,1408992.1783147,8098.7342947992,3149530.1623203,12.058325832583,0,0
-144.71999194713,-61.791240415988,6.8627562756276,1408992.1783147,8098.7342947992,3149530.1623203,12.062756275628,0,0
-144.71999184656,-61.805594518007,6.8671867186719,1408992.1783147,8098.7342947992,3149530.1623203,12.067186718672,0,0
-144.71999174598,-61.819948620027,6.8716171617162,1408992.1783147,8098.7342947992,3149530.1623203,12.071617161716,0,0
-144.71999164541,-61.834302722046,6.8760476047605,1408992.1783147,8098.7342947992,3149530.1623203,12.07604760476,0,0
-144.71999154483,-61.848656824065,6.8804780478048,1408992.1783147,8098.7342947992,3149530.1623203,12.080478047805,0,0
-144.71999144425,-61.863010926085,6.8849084908491,1408992.1783147,8098.7342947992,3149530.1623203,12.084908490849,0,0
-144.71999134368,-61.877365028104,6.8893389338934,1408992.1783147,8098.7342947992,3149530.1623203,12.089338933893,0,0
-144.7199912431,-61.891719130123,6.8937693769377,1408992.1783147,8098.7342947992,3149530.1623203,12.093769376938,0,0
-144.71999114253,-61.906073232143,6.898199819982,1408992.1783147,8098.7342947992,3149530.1623203,12.098199819982,0,0
-144.71999104195,-61.920427334162,6.9026302630263,1408992.1783147,8098.7342947992,3149530.1623203,12.102630263026,0,0
-144.71999094138,-61.934781436181,6.9070607060706,1408992.1783147,8098.7342947992,3149530.1623203,12.107060706071,0,0
-144.7199908408,-61.949135538201,6.9114911491149,1408992.1783147,8098.7342947992,3149530.1623203,12.111491149115,0,0
-144.71999074023,-61.96348964022,6.9159215921592,1408992.1783147,8098.7342947992,3149530.1623203,12.115921592159,0,0
-144.71999063965,-61.977843742239,6.9203520352035,1408992.1783147,8098.7342947992,3149530.1623203,12.120352035204,0,0
-144.71999053907,-61.992197844258,6.9247824782478,1408992.1783147,8098.7342947992,3149530.1623203,12.124782478248,0,0
-144.7199904385,-62.006551946278,6.9292129212921,1408992.1783147,8098.7342947992,3149530.1623203,12.129212921292,0,0
-144.71999033792,-62.020906048297,6.9336433643364,1408992.1783147,8098.7342947992,3149530.1623203,12.133643364336,0,0
-144.71999023735,-62.035260150316,6.9380738073807,1408992.1783147,8098.7342947992,3149530.1623203,12.138073807381,0,0
-144.71999013677,-62.049614252336,6.942504250425,1408992.1783147,8098.7342947992,3149530.1623203,12.142504250425,0,0
-144.7199900362,-62.063968354355,6.9469346934693,1408992.1783147,8098.7342947992,3149530.1623203,12.146934693469,0,0
-144.71998993562,-62.078322456374,6.9513651365137,1408992.1783147,8098.7342947992,3149530.1623203,12.151365136514,0,0
-144.71998983505,-62.092676558394,6.955795579558,1408992.1783147,8098.7342947992,3149530.1623203,12.155795579558,0,0
-144.71998973447,-62.107030660413,6.9602260226023,1408992.1783147,8098.7342947992,3149530.1623203,12.160226022602,0,0
-144.7199896339,-62.121384762432,6.9646564656466,1408992.1783147,8098.7342947992,3149530.1623203,12.164656465647,0,0
-144.71998953332,-62.135738864451,6.9690869086909,1408992.1783147,8098.7342947992,3149530.1623203,12.169086908691,0,0
-144.71998943274,-62.150092966471,6.9735173517352,1408992.1783147,8098.7342947992,3149530.1623203,12.173517351735,0,0
-144.71998933217,-62.16444706849,6.9779477947795,1408992.1783147,8098.7342947992,3149530.1623203,12.177947794779,0,0
-144.71998923159,-62.178801170509,6.9823782378238,1408992.1783147,8098.7342947992,3149530.1623203,12.182378237824,0,0
-144.71998913102,-62.193155272529,6.9868086808681,1408992.1783147,8098.7342947992,3149530.1623203,12.186808680868,0,0
-144.71998903044,-62.207509374548,6.9912391239124,1408992.1783147,8098.7342947992,3149530.1623203,12.191239123912,0,0
-144.71998892987,-62.221863476567,6.9956695669567,1408992.1783147,8098.7342947992,3149530.1623203,12.195669566957,0,0
-144.71998882929,-62.236217578587,7.000100010001,1408992.1783147,8098.7342947992,3149530.1623203,12.200100010001,0,0
-144.71998872872,-62.250571680606,7.0045304530453,1408992.1783147,8098.7342947992,3149530.1623203,12.204530453045,0,0
-144.71998862814,-62.264925782625,7.0089608960896,1408992.1783147,8098.7342947992,3149530.1623203,12.20896089609,0,0
-144.71998852757,-62.279279884645,7.0133913391339,1408992.1783147,8098.7342947992,3149530.1623203,12.213391339134,0,0
-144.71998842699,-62.293633986664,7.0178217821782,1408992.1783147,8098.7342947992,3149530.1623203,12.217821782178,0,0
-144.71998832641,-62.307988088683,7.0222522252225,1408992.1783147,8098.7342947992,3149530.1623203,12.222252225223,0,0
-144.71998822584,-62.322342190702,7.0266826682668,1408992.1783147,8098.7342947992,3149530.1623203,12.226682668267,0,0
-144.71998812526,-62.336696292722,7.0311131113111,1408992.1783147,8098.7342947992,3149530.1623203,12.231113111311,0,0
-144.71998802469,-62.351050394741,7.0355435543554,1408992.1783147,8098.7342947992,3149530.1623203,12.235543554355,0,0
-144.71998792411,-62.36540449676,7.0399739973997,1408992.1783147,8098.7342947992,3149530.1623203,12.2399739974,0,0
-144.71998782354,-62.37975859878,7.044404440444,1408992.1783147,8098.7342947992,3149530.1623203,12.244404440444,0,0
-144.71998772296,-62.394112700799,7.0488348834883,1408992.1783147,8098.7342947992,3149530.1623203,12.248834883488,0,0
-144.71998762239,-62.408466802818,7.0532653265327,1408992.1783147,8098.7342947992,3149530.1623203,12.253265326533,0,0
-144.71998752181,-62.422820904838,7.057695769577,1408992.1783147,8098.7342947992,3149530.1623203,12.257695769577,0,0
-144.71998742123,-62.437175006857,7.0621262126213,1408992.1783147,8098.7342947992,3149530.1623203,12.262126212621,0,0
-144.71998732066,-62.451529108876,7.0665566556656,1408992.1783147,8098.7342947992,3149530.1623203,12.266556655666,0,0
-144.71998722008,-62.465883210896,7.0709870987099,1408992.1783147,8098.7342947992,3149530.1623203,12.27098709871,0,0
-144.71998711951,-62.480237312915,7.0754175417542,1408992.1783147,8098.7342947992,3149530.1623203,12.275417541754,0,0
-144.71998701893,-62.494591414934,7.0798479847985,1408992.1783147,8098.7342947992,3149530.1623203,12.279847984798,0,0
-144.71998691836,-62.508945516953,7.0842784278428,1408992.1783147,8098.7342947992,3149530.1623203,12.284278427843,0,0
-144.71998681778,-62.523299618973,7.0887088708871,1408992.1783147,8098.7342947992,3149530.1623203,12.288708870887,0,0
-144.71998671721,-62.537653720992,7.0931393139314,1408992.1783147,8098.7342947992,3149530.1623203,12.293139313931,0,0
-144.71998661663,-62.552007823011,7.0975697569757,1408992.1783147,8098.7342947992,3149530.1623203,12.297569756976,0,0
-144.71998651606,-62.566361925031,7.10200020002,1408992.1783147,8098.7342947992,3149530.1623203,12.30200020002,0,0
-144.71998641548,-62.58071602705,7.1064306430643,1408992.1783147,8098.7342947992,3149530.1623203,12.306430643064,0,0
-144.7199863149,-62.595070129069,7.1108610861086,1408992.1783147,8098.7342947992,3149530.1623203,12.310861086109,0,0
-144.71998621433,-62.609424231089,7.1152915291529,1408992.1783147,8098.7342947992,3149530.1623203,12.315291529153,0,0
-144.71998611375,-62.623778333108,7.1197219721972,1408992.1783147,8098.7342947992,3149530.1623203,12.319721972197,0,0
-144.71998601318,-62.638132435127,7.1241524152415,1408992.1783147,8098.7342947992,3149530.1623203,12.324152415242,0,0
-144.7199859126,-62.652486537146,7.1285828582858,1408992.1783147,8098.7342947992,3149530.1623203,12.328582858286,0,0
-144.71998581203,-62.666840639166,7.1330133013301,1408992.1783147,8098.7342947992,3149530.1623203,12.33301330133,0,0
-144.71998571145,-62.681194741185,7.1374437443744,1408992.1783147,8098.7342947992,3149530.1623203,12.337443744374,0,0
-144.71998561088,-62.695548843204,7.1418741874187,1408992.1783147,8098.7342947992,3149530.1623203,12.341874187419,0,0
-144.7199855103,-62.709902945224,7.146304630463,1408992.1783147,8098.7342947992,3149530.1623203,12.346304630463,0,0
-144.71998540972,-62.724257047243,7.1507350735073,1408992.1783147,8098.7342947992,3149530.1623203,12.350735073507,0,0
-144.71998530915,-62.738611149262,7.1551655165517,1408992.1783147,8098.7342947992,3149530.1623203,12.355165516552,0,0
-144.71998520857,-62.752965251282,7.159595959596,1408992.1783147,8098.7342947992,3149530.1623203,12.359595959596,0,0
-144.719985108,-62.767319353301,7.1640264026403,1408992.1783147,8098.7342947992,3149530.1623203,12.36402640264,0,0
-144.71998500742,-62.78167345532,7.1684568456846,1408992.1783147,8098.7342947992,3149530.1623203,12.368456845685,0,0
-144.71998490685,-62.79602755734,7.1728872887289,1408992.1783147,8098.7342947992,3149530.1623203,12.372887288729,0,0
-144.71998480627,-62.810381659359,7.1773177317732,1408992.1783147,8098.7342947992,3149530.1623203,12.377317731773,0,0
-144.7199847057,-62.824735761378,7.1817481748175,1408992.1783147,8098.7342947992,3149530.1623203,12.381748174817,0,0
-144.71998460512,-62.839089863397,7.1861786178618,1408992.1783147,8098.7342947992,3149530.1623203,12.386178617862,0,0
-144.71998450455,-62.853443965417,7.1906090609061,1408992.1783147,8098.7342947992,3149530.1623203,12.390609060906,0,0
-144.71998440397,-62.867798067436,7.1950395039504,1408992.1783147,8098.7342947992,3149530.1623203,12.39503950395,0,0
-144.71998430339,-62.882152169455,7.1994699469947,1408992.1783147,8098.7342947992,3149530.1623203,12.399469946995,0,0
-144.71998420282,-62.896506271475,7.203900390039,1408992.1783147,8098.7342947992,3149530.1623203,12.403900390039,0,0
-144.71998410224,-62.910860373494,7.2083308330833,1408992.1783147,8098.7342947992,3149530.1623203,12.408330833083,0,0
-144.71998400167,-62.925214475513,7.2127612761276,1408992.1783147,8098.7342947992,3149530.1623203,12.412761276128,0,0
-144.71998390109,-62.939568577533,7.2171917191719,1408992.1783147,8098.7342947992,3149530.1623203,12.417191719172,0,0
-144.71998380052,-62.953922679552,7.2216221622162,1408992.1783147,8098.7342947992,3149530.1623203,12.421622162216,0,0
-144.71998369994,-62.968276781571,7.2260526052605,1408992.1783147,8098.7342947992,3149530.1623203,12.426052605261,0,0
-144.71998359937,-62.98263088359,7.2304830483048,1408992.1783147,8098.7342947992,3149530.1623203,12.430483048305,0,0
-144.71998349879,-62.99698498561,7.2349134913491,1408992.1783147,8098.7342947992,3149530.1623203,12.434913491349,0,0
-144.71998339822,-63.011339087629,7.2393439343934,1408992.1783147,8098.7342947992,3149530.1623203,12.439343934393,0,0
-144.71998329764,-63.025693189648,7.2437743774377,1408992.1783147,8098.7342947992,3149530.1623203,12.443774377438,0,0
-144.71998319706,-63.040047291668,7.248204820482,1408992.1783147,8098.7342947992,3149530.1623203,12.448204820482,0,0
-144.71998309649,-63.054401393687,7.2526352635264,1408992.1783147,8098.7342947992,3149530.1623203,12.452635263526,0,0
-144.71998299591,-63.068755495706,7.2570657065707,1408992.1783147,8098.7342947992,3149530.1623203,12.457065706571,0,0
-144.71998289534,-63.083109597726,7.261496149615,1408992.1783147,8098.7342947992,3149530.1623203,12.461496149615,0,0
-144.71998279476,-63.097463699745,7.2659265926593,1408992.1783147,8098.7342947992,3149530.1623203,12.465926592659,0,0
-144.71998269419,-63.111817801764,7.2703570357036,1408992.1783147,8098.7342947992,3149530.1623203,12.470357035704,0,0
-144.71998259361,-63.126171903784,7.2747874787479,1408992.1783147,8098.7342947992,3149530.1623203,12.474787478748,0,0
-144.71998249304,-63.140526005803,7.2792179217922,1408992.1783147,8098.7342947992,3149530.1623203,12.479217921792,0,0
-144.71998239246,-63.154880107822,7.2836483648365,1408992.1783147,8098.7342947992,3149530.1623203,12.483648364836,0,0
-144.71998229188,-63.169234209841,7.2880788078808,1408992.1783147,8098.7342947992,3149530.1623203,12.488078807881,0,0
-144.71998219131,-63.183588311861,7.2925092509251,1408992.1783147,8098.7342947992,3149530.1623203,12.492509250925,0,0
-144.71998209073,-63.19794241388,7.2969396939694,1408992.1783147,8098.7342947992,3149530.1623203,12.496939693969,0,0
-144.71998199016,-63.212296515899,7.3013701370137,1408992.1783147,8098.7342947992,3149530.1623203,12.501370137014,0,0
-144.71998188958,-63.226650617919,7.305800580058,1408992.1783147,8098.7342947992,3149530.1623203,12.505800580058,0,0
-144.71998178901,-63.241004719938,7.3102310231023,1408992.1783147,8098.7342947992,3149530.1623203,12.510231023102,0,0
-144.71998168843,-63.255358821957,7.3146614661466,1408992.1783147,8098.7342947992,3149530.1623203,12.514661466147,0,0
-144.71998158786,-63.269712923977,7.3190919091909,1408992.1783147,8098.7342947992,3149530.1623203,12.519091909191,0,0
-144.71998148728,-63.284067025996,7.3235223522352,1408992.1783147,8098.7342947992,3149530.1623203,12.523522352235,0,0
-144.71998138671,-63.298421128015,7.3279527952795,1408992.1783147,8098.7342947992,3149530.1623203,12.52795279528,0,0
-144.71998128613,-63.312775230034,7.3323832383238,1408992.1783147,8098.7342947992,3149530.1623203,12.532383238324,0,0
-144.71998118555,-63.327129332054,7.3368136813681,1408992.1783147,8098.7342947992,3149530.1623203,12.536813681368,0,0
-144.71998108498,-63.341483434073,7.3412441244124,1408992.1783147,8098.7342947992,3149530.1623203,12.541244124412,0,0
-144.7199809844,-63.355837536092,7.3456745674567,1408992.1783147,8098.7342947992,3149530.1623203,12.545674567457,0,0
-144.71998088383,-63.370191638112,7.350105010501,1408992.1783147,8098.7342947992,3149530.1623203,12.550105010501,0,0
-144.71998078325,-63.384545740131,7.3545354535454,1408992.1783147,8098.7342947992,3149530.1623203,12.554535453545,0,0
-144.71998068268,-63.39889984215,7.3589658965897,1408992.1783147,8098.7342947992,3149530.1623203,12.55896589659,0,0
-144.7199805821,-63.41325394417,7.363396339634,1408992.1783147,8098.7342947992,3149530.1623203,12.563396339634,0,0
-144.71998048153,-63.427608046189,7.3678267826783,1408992.1783147,8098.7342947992,3149530.1623203,12.567826782678,0,0
-144.71998038095,-63.441962148208,7.3722572257226,1408992.1783147,8098.7342947992,3149530.1623203,12.572257225723,0,0
-144.71998028038,-63.456316250228,7.3766876687669,1408992.1783147,8098.7342947992,3149530.1623203,12.576687668767,0,0
-144.7199801798,-63.470670352247,7.3811181118112,1408992.1783147,8098.7342947992,3149530.1623203,12.581118111811,0,0
-144.71998007922,-63.485024454266,7.3855485548555,1408992.1783147,8098.7342947992,3149530.1623203,12.585548554855,0,0
-144.71997997865,-63.499378556285,7.3899789978998,1408992.1783147,8098.7342947992,3149530.1623203,12.5899789979,0,0
-144.71997987807,-63.513732658305,7.3944094409441,1408992.1783147,8098.7342947992,3149530.1623203,12.594409440944,0,0
-144.7199797767,-63.528086763447,7.3988398839884,1407484.2861895,-6723.5739414627,3106236.4928652,12.598839883988,0,0
-144.71997967509,-63.542440869498,7.4032703270327,1407484.2861895,-6723.5739414627,3106236.4928652,12.603270327033,0,0
-144.71997957348,-63.55679497555,7.407700770077,1407484.2861895,-6723.5739414627,3106236.4928652,12.607700770077,0,0
-144.71997947188,-63.571149081601,7.4121312131213,1407484.2861895,-6723.5739414627,3106236.4928652,12.612131213121,0,0
-144.71997937027,-63.585503187653,7.4165616561656,1407484.2861895,-6723.5739414627,3106236.4928652,12.616561656166,0,0
-144.71997926866,-63.599857293704,7.4209920992099,1407484.2861895,-6723.5739414627,3106236.4928652,12.62099209921,0,0
-144.71997916705,-63.614211399756,7.4254225422542,1407484.2861895,-6723.5739414627,3106236.4928652,12.625422542254,0,0
-144.71997906544,-63.628565505807,7.4298529852985,1407484.2861895,-6723.5739414627,3106236.4928652,12.629852985299,0,0
-144.71997896384,-63.642919611859,7.4342834283428,1407484.2861895,-6723.5739414627,3106236.4928652,12.634283428343,0,0
-144.71997886223,-63.65727371791,7.4387138713871,1407484.2861895,-6723.5739414627,3106236.4928652,12.638713871387,0,0
-144.71997876062,-63.671627823962,7.4431443144314,1407484.2861895,-6723.5739414627,3106236.4928652,12.643144314431,0,0
-144.71997865901,-63.685981930013,7.4475747574757,1407484.2861895,-6723.5739414627,3106236.4928652,12.647574757476,0,0
-144.71997855741,-63.700336036065,7.4520052005201,1407484.2861895,-6723.5739414627,3106236.4928652,12.65200520052,0,0
-144.7199784558,-63.714690142116,7.4564356435644,1407484.2861895,-6723.5739414627,3106236.4928652,12.656435643564,0,0
-144.71997835419,-63.729044248168,7.4608660866087,1407484.2861895,-6723.5739414627,3106236.4928652,12.660866086609,0,0
-144.71997825258,-63.743398354219,7.465296529653,1407484.2861895,-6723.5739414627,3106236.4928652,12.665296529653,0,0
-144.71997815097,-63.757752460271,7.4697269726973,1407484.2861895,-6723.5739414627,3106236.4928652,12.669726972697,0,0
-144.71997804937,-63.772106566322,7.4741574157416,1407484.2861895,-6723.5739414627,3106236.4928652,12.674157415742,0,0
-144.71997794776,-63.786460672374,7.4785878587859,1407484.2861895,-6723.5739414627,3106236.4928652,12.678587858786,0,0
-144.71997784615,-63.800814778425,7.4830183018302,1407484.2861895,-6723.5739414627,3106236.4928652,12.68301830183,0,0
-144.71997774454,-63.815168884477,7.4874487448745,1407484.2861895,-6723.5739414627,3106236.4928652,12.687448744874,0,0
-144.71997764294,-63.829522990528,7.4918791879188,1407484.2861895,-6723.5739414627,3106236.4928652,12.691879187919,0,0
-144.71997754133,-63.84387709658,7.4963096309631,1407484.2861895,-6723.5739414627,3106236.4928652,12.696309630963,0,0
-144.71997743972,-63.858231202631,7.5007400740074,1407484.2861895,-6723.5739414627,3106236.4928652,12.700740074007,0,0
-144.71997733792,-63.8725853076,7.5051705170517,1408304.4659309,8490.7717813621,3084461.3747967,12.705170517052,0,0
-144.71997723566,-63.886939410091,7.509600960096,1408304.4659309,8490.7717813621,3084461.3747967,12.709600960096,0,0
-144.71997713341,-63.901293512583,7.5140314031403,1408304.4659309,8490.7717813621,3084461.3747967,12.71403140314,0,0
-144.71997703116,-63.915647615075,7.5184618461846,1408304.4659309,8490.7717813621,3084461.3747967,12.718461846185,0,0
-144.7199769289,-63.930001717566,7.5228922892289,1408304.4659309,8490.7717813621,3084461.3747967,12.722892289229,0,0
-144.71997682665,-63.944355820058,7.5273227322732,1408304.4659309,8490.7717813621,3084461.3747967,12.727322732273,0,0
-144.7199767244,-63.958709922549,7.5317531753175,1408304.4659309,8490.7717813621,3084461.3747967,12.731753175318,0,0
-144.71997662214,-63.973064025041,7.5361836183618,1408304.4659309,8490.7717813621,3084461.3747967,12.736183618362,0,0
-144.71997651989,-63.987418127532,7.5406140614061,1408304.4659309,8490.7717813621,3084461.3747967,12.740614061406,0,0
-144.71997641764,-64.001772230024,7.5450445044504,1408304.4659309,8490.7717813621,3084461.3747967,12.74504450445,0,0
-144.71997631539,-64.016126332516,7.5494749474947,1408304.4659309,8490.7717813621,3084461.3747967,12.749474947495,0,0
-144.71997621313,-64.030480435007,7.5539053905391,1408304.4659309,8490.7717813621,3084461.3747967,12.753905390539,0,0
-144.71997611088,-64.044834537499,7.5583358335834,1408304.4659309,8490.7717813621,3084461.3747967,12.758335833583,0,0
-144.71997600863,-64.05918863999,7.5627662766277,1408304.4659309,8490.7717813621,3084461.3747967,12.762766276628,0,0
-144.71997590637,-64.073542742482,7.567196719672,1408304.4659309,8490.7717813621,3084461.3747967,12.767196719672,0,0
-144.71997580412,-64.087896844974,7.5716271627163,1408304.4659309,8490.7717813621,3084461.3747967,12.771627162716,0,0
-144.71997570187,-64.102250947465,7.5760576057606,1408304.4659309,8490.7717813621,3084461.3747967,12.776057605761,0,0
-144.71997559961,-64.116605049957,7.5804880488049,1408304.4659309,8490.7717813621,3084461.3747967,12.780488048805,0,0
-144.71997549736,-64.130959152448,7.5849184918492,1408304.4659309,8490.7717813621,3084461.3747967,12.784918491849,0,0
-144.71997539511,-64.14531325494,7.5893489348935,1408304.4659309,8490.7717813621,3084461.3747967,12.789348934893,0,0
-144.71997529286,-64.159667357431,7.5937793779378,1408304.4659309,8490.7717813621,3084461.3747967,12.793779377938,0,0
-144.7199751906,-64.174021459923,7.5982098209821,1408304.4659309,8490.7717813621,3084461.3747967,12.798209820982,0,0
-144.71997508835,-64.188375562415,7.6026402640264,1408304.4659309,8490.7717813621,3084461.3747967,12.802640264026,0,0
-144.7199749861,-64.202729664906,7.6070707070707,1408304.4659309,8490.7717813621,3084461.3747967,12.807070707071,0,0
-144.71997488384,-64.217083767398,7.611501150115,1408304.4659309,8490.7717813621,3084461.3747967,12.811501150115,0,0
-144.71997478159,-64.231437869889,7.6159315931593,1408304.4659309,8490.7717813621,3084461.3747967,12.815931593159,0,0
-144.71997467934,-64.245791972381,7.6203620362036,1408304.4659309,8490.7717813621,3084461.3747967,12.820362036204,0,0
-144.71997457708,-64.260146074873,7.6247924792479,1408304.4659309,8490.7717813621,3084461.3747967,12.824792479248,0,0
-144.71997447483,-64.274500177364,7.6292229222922,1408304.4659309,8490.7717813621,3084461.3747967,12.829222922292,0,0
-144.71997437258,-64.288854279856,7.6336533653365,1408304.4659309,8490.7717813621,3084461.3747967,12.833653365337,0,0
-144.71997427033,-64.303208382347,7.6380838083808,1408304.4659309,8490.7717813621,3084461.3747967,12.838083808381,0,0
-144.71997416807,-64.317562484839,7.6425142514251,1408304.4659309,8490.7717813621,3084461.3747967,12.842514251425,0,0
-144.71997406582,-64.331916587331,7.6469446944694,1408304.4659309,8490.7717813621,3084461.3747967,12.846944694469,0,0
-144.71997396357,-64.346270689822,7.6513751375138,1408304.4659309,8490.7717813621,3084461.3747967,12.851375137514,0,0
-144.71997386131,-64.360624792314,7.6558055805581,1408304.4659309,8490.7717813621,3084461.3747967,12.855805580558,0,0
-144.71997375906,-64.374978894805,7.6602360236024,1408304.4659309,8490.7717813621,3084461.3747967,12.860236023602,0,0
-144.71997365681,-64.389332997297,7.6646664666467,1408304.4659309,8490.7717813621,3084461.3747967,12.864666466647,0,0
-144.71997355455,-64.403687099788,7.669096909691,1408304.4659309,8490.7717813621,3084461.3747967,12.869096909691,0,0
-144.7199734523,-64.41804120228,7.6735273527353,1408304.4659309,8490.7717813621,3084461.3747967,12.873527352735,0,0
-144.71997335005,-64.432395304772,7.6779577957796,1408304.4659309,8490.7717813621,3084461.3747967,12.87795779578,0,0
-144.71997324779,-64.446749407263,7.6823882388239,1408304.4659309,8490.7717813621,3084461.3747967,12.882388238824,0,0
-144.71997314554,-64.461103509755,7.6868186818682,1408304.4659309,8490.7717813621,3084461.3747967,12.886818681868,0,0
-144.71997304329,-64.475457612246,7.6912491249125,1408304.4659309,8490.7717813621,3084461.3747967,12.891249124912,0,0
-144.71997294104,-64.489811714738,7.6956795679568,1408304.4659309,8490.7717813621,3084461.3747967,12.895679567957,0,0
-144.71997283878,-64.50416581723,7.7001100110011,1408304.4659309,8490.7717813621,3084461.3747967,12.900110011001,0,0
-144.71997273653,-64.518519919721,7.7045404540454,1408304.4659309,8490.7717813621,3084461.3747967,12.904540454045,0,0
-144.71997263428,-64.532874022213,7.7089708970897,1408304.4659309,8490.7717813621,3084461.3747967,12.90897089709,0,0
-144.71997253202,-64.547228124704,7.713401340134,1408304.4659309,8490.7717813621,3084461.3747967,12.913401340134,0,0
-144.71997242977,-64.561582227196,7.7178317831783,1408304.4659309,8490.7717813621,3084461.3747967,12.917831783178,0,0
-144.71997232752,-64.575936329687,7.7222622262226,1408304.4659309,8490.7717813621,3084461.3747967,12.922262226223,0,0
-144.71997222526,-64.590290432179,7.7266926692669,1408304.4659309,8490.7717813621,3084461.3747967,12.926692669267,0,0
-144.71997212301,-64.604644534671,7.7311231123112,1408304.4659309,8490.7717813621,3084461.3747967,12.931123112311,0,0
-144.71997202076,-64.618998637162,7.7355535553555,1408304.4659309,8490.7717813621,3084461.3747967,12.935553555356,0,0
-144.71997191851,-64.633352739654,7.7399839983998,1408304.4659309,8490.7717813621,3084461.3747967,12.9399839984,0,0
-144.71997181625,-64.647706842145,7.7444144414441,1408304.4659309,8490.7717813621,3084461.3747967,12.944414441444,0,0
-144.719971714,-64.662060944637,7.7488448844884,1408304.4659309,8490.7717813621,3084461.3747967,12.948844884488,0,0
-144.71997161175,-64.676415047129,7.7532753275328,1408304.4659309,8490.7717813621,3084461.3747967,12.953275327533,0,0
-144.71997150949,-64.69076914962,7.7577057705771,1408304.4659309,8490.7717813621,3084461.3747967,12.957705770577,0,0
-144.71997140724,-64.705123252112,7.7621362136214,1408304.4659309,8490.7717813621,3084461.3747967,12.962136213621,0,0
-144.71997130499,-64.719477354603,7.7665666566657,1408304.4659309,8490.7717813621,3084461.3747967,12.966566656666,0,0
-144.71997120273,-64.733831457095,7.77099709971,1408304.4659309,8490.7717813621,3084461.3747967,12.97099709971,0,0
-144.71997110048,-64.748185559587,7.7754275427543,1408304.4659309,8490.7717813621,3084461.3747967,12.975427542754,0,0
-144.71997099823,-64.762539662078,7.7798579857986,1408304.4659309,8490.7717813621,3084461.3747967,12.979857985799,0,0
-144.71997089598,-64.77689376457,7.7842884288429,1408304.4659309,8490.7717813621,3084461.3747967,12.984288428843,0,0
-144.71997079372,-64.791247867061,7.7887188718872,1408304.4659309,8490.7717813621,3084461.3747967,12.988718871887,0,0
-144.71997069147,-64.805601969553,7.7931493149315,1408304.4659309,8490.7717813621,3084461.3747967,12.993149314931,0,0
-144.71997058922,-64.819956072044,7.7975797579758,1408304.4659309,8490.7717813621,3084461.3747967,12.997579757976,0,0
-144.71997048696,-64.834310174536,7.8020102010201,1408304.4659309,8490.7717813621,3084461.3747967,13.00201020102,0,0
-144.71997038471,-64.848664277028,7.8064406440644,1408304.4659309,8490.7717813621,3084461.3747967,13.006440644064,0,0
-144.71997028246,-64.863018379519,7.8108710871087,1408304.4659309,8490.7717813621,3084461.3747967,13.010871087109,0,0
-144.7199701802,-64.877372482011,7.815301530153,1408304.4659309,8490.7717813621,3084461.3747967,13.015301530153,0,0
-144.71997007795,-64.891726584502,7.8197319731973,1408304.4659309,8490.7717813621,3084461.3747967,13.019731973197,0,0
-144.7199699757,-64.906080686994,7.8241624162416,1408304.4659309,8490.7717813621,3084461.3747967,13.024162416242,0,0
-144.71996987344,-64.920434789486,7.8285928592859,1408304.4659309,8490.7717813621,3084461.3747967,13.028592859286,0,0
-144.71996977119,-64.934788891977,7.8330233023302,1408304.4659309,8490.7717813621,3084461.3747967,13.03302330233,0,0
-144.71996966894,-64.949142994469,7.8374537453745,1408304.4659309,8490.7717813621,3084461.3747967,13.037453745375,0,0
-144.71996956669,-64.96349709696,7.8418841884188,1408304.4659309,8490.7717813621,3084461.3747967,13.041884188419,0,0
-144.71996946443,-64.977851199452,7.8463146314631,1408304.4659309,8490.7717813621,3084461.3747967,13.046314631463,0,0
-144.71996936218,-64.992205301943,7.8507450745074,1408304.4659309,8490.7717813621,3084461.3747967,13.050745074507,0,0
-144.71996925993,-65.006559404435,7.8551755175518,1408304.4659309,8490.7717813621,3084461.3747967,13.055175517552,0,0
-144.71996915767,-65.020913506927,7.8596059605961,1408304.4659309,8490.7717813621,3084461.3747967,13.059605960596,0,0
-144.71996905542,-65.035267609418,7.8640364036404,1408304.4659309,8490.7717813621,3084461.3747967,13.06403640364,0,0
-144.71996895317,-65.04962171191,7.8684668466847,1408304.4659309,8490.7717813621,3084461.3747967,13.068466846685,0,0
-144.71996885091,-65.063975814401,7.872897289729,1408304.4659309,8490.7717813621,3084461.3747967,13.072897289729,0,0
-144.71996874866,-65.078329916893,7.8773277327733,1408304.4659309,8490.7717813621,3084461.3747967,13.077327732773,0,0
-144.71996864641,-65.092684019385,7.8817581758176,1408304.4659309,8490.7717813621,3084461.3747967,13.081758175818,0,0
-144.71996854416,-65.107038121876,7.8861886188619,1408304.4659309,8490.7717813621,3084461.3747967,13.086188618862,0,0
-144.7199684419,-65.121392224368,7.8906190619062,1408304.4659309,8490.7717813621,3084461.3747967,13.090619061906,0,0
-144.71996833965,-65.135746326859,7.8950495049505,1408304.4659309,8490.7717813621,3084461.3747967,13.09504950495,0,0
-144.7199682374,-65.150100429351,7.8994799479948,1408304.4659309,8490.7717813621,3084461.3747967,13.099479947995,0,0
-144.71996813514,-65.164454531842,7.9039103910391,1408304.4659309,8490.7717813621,3084461.3747967,13.103910391039,0,0
-144.71996803289,-65.178808634334,7.9083408340834,1408304.4659309,8490.7717813621,3084461.3747967,13.108340834083,0,0
-144.71996793064,-65.193162736826,7.9127712771277,1408304.4659309,8490.7717813621,3084461.3747967,13.112771277128,0,0
-144.71996782838,-65.207516839317,7.917201720172,1408304.4659309,8490.7717813621,3084461.3747967,13.117201720172,0,0
-144.71996772613,-65.221870941809,7.9216321632163,1408304.4659309,8490.7717813621,3084461.3747967,13.121632163216,0,0
-144.71996762388,-65.2362250443,7.9260626062606,1408304.4659309,8490.7717813621,3084461.3747967,13.126062606261,0,0
-144.71996752163,-65.250579146792,7.9304930493049,1408304.4659309,8490.7717813621,3084461.3747967,13.130493049305,0,0
-144.71996741937,-65.264933249284,7.9349234923492,1408304.4659309,8490.7717813621,3084461.3747967,13.134923492349,0,0
-144.71996731712,-65.279287351775,7.9393539353935,1408304.4659309,8490.7717813621,3084461.3747967,13.139353935394,0,0
-144.71996721487,-65.293641454267,7.9437843784378,1408304.4659309,8490.7717813621,3084461.3747967,13.143784378438,0,0
-144.71996711261,-65.307995556758,7.9482148214821,1408304.4659309,8490.7717813621,3084461.3747967,13.148214821482,0,0
-144.71996701036,-65.32234965925,7.9526452645265,1408304.4659309,8490.7717813621,3084461.3747967,13.152645264526,0,0
-144.71996690811,-65.336703761742,7.9570757075708,1408304.4659309,8490.7717813621,3084461.3747967,13.157075707571,0,0
-144.71996680585,-65.351057864233,7.9615061506151,1408304.4659309,8490.7717813621,3084461.3747967,13.161506150615,0,0
-144.7199667036,-65.365411966725,7.9659365936594,1408304.4659309,8490.7717813621,3084461.3747967,13.165936593659,0,0
-144.71996660135,-65.379766069216,7.9703670367037,1408304.4659309,8490.7717813621,3084461.3747967,13.170367036704,0,0
-144.71996649909,-65.394120171708,7.974797479748,1408304.4659309,8490.7717813621,3084461.3747967,13.174797479748,0,0
-144.71996639684,-65.408474274199,7.9792279227923,1408304.4659309,8490.7717813621,3084461.3747967,13.179227922792,0,0
-144.71996629459,-65.422828376691,7.9836583658366,1408304.4659309,8490.7717813621,3084461.3747967,13.183658365837,0,0
-144.71996619234,-65.437182479183,7.9880888088809,1408304.4659309,8490.7717813621,3084461.3747967,13.188088808881,0,0
-144.71996609008,-65.451536581674,7.9925192519252,1408304.4659309,8490.7717813621,3084461.3747967,13.192519251925,0,0
-144.71996598783,-65.465890684166,7.9969496949695,1408304.4659309,8490.7717813621,3084461.3747967,13.196949694969,0,0
-144.71996588558,-65.480244786657,8.0013801380138,1408304.4659309,8490.7717813621,3084461.3747967,13.201380138014,0,0
-144.71996578332,-65.494598889149,8.0058105810581,1408304.4659309,8490.7717813621,3084461.3747967,13.205810581058,0,0
-144.71996568107,-65.508952991641,8.0102410241024,1408304.4659309,8490.7717813621,3084461.3747967,13.210241024102,0,0
-144.71996557882,-65.523307094132,8.0146714671467,1408304.4659309,8490.7717813621,3084461.3747967,13.214671467147,0,0
-144.71996547656,-65.537661196624,8.019101910191,1408304.4659309,8490.7717813621,3084461.3747967,13.219101910191,0,0
-144.71996537431,-65.552015299115,8.0235323532353,1408304.4659309,8490.7717813621,3084461.3747967,13.223532353235,0,0
-144.71996527206,-65.566369401607,8.0279627962796,1408304.4659309,8490.7717813621,3084461.3747967,13.22796279628,0,0
-144.71996516981,-65.580723504098,8.0323932393239,1408304.4659309,8490.7717813621,3084461.3747967,13.232393239324,0,0
-144.71996506755,-65.59507760659,8.0368236823682,1408304.4659309,8490.7717813621,3084461.3747967,13.236823682368,0,0
-144.7199649653,-65.609431709082,8.0412541254125,1408304.4659309,8490.7717813621,3084461.3747967,13.241254125413,0,0
-144.71996486305,-65.623785811573,8.0456845684568,1408304.4659309,8490.7717813621,3084461.3747967,13.245684568457,0,0
-144.71996476079,-65.638139914065,8.0501150115011,1408304.4659309,8490.7717813621,3084461.3747967,13.250115011501,0,0
-144.71996465854,-65.652494016556,8.0545454545455,1408304.4659309,8490.7717813621,3084461.3747967,13.254545454545,0,0
-144.71996455629,-65.666848119048,8.0589758975898,1408304.4659309,8490.7717813621,3084461.3747967,13.25897589759,0,0
-144.71996445403,-65.68120222154,8.0634063406341,1408304.4659309,8490.7717813621,3084461.3747967,13.263406340634,0,0
-144.71996435178,-65.695556324031,8.0678367836784,1408304.4659309,8490.7717813621,3084461.3747967,13.267836783678,0,0
-144.71996424953,-65.709910426523,8.0722672267227,1408304.4659309,8490.7717813621,3084461.3747967,13.272267226723,0,0
-144.71996414728,-65.724264529014,8.076697669767,1408304.4659309,8490.7717813621,3084461.3747967,13.276697669767,0,0
-144.71996404502,-65.738618631506,8.0811281128113,1408304.4659309,8490.7717813621,3084461.3747967,13.281128112811,0,0
-144.71996394277,-65.752972733998,8.0855585558556,1408304.4659309,8490.7717813621,3084461.3747967,13.285558555856,0,0
-144.71996384052,-65.767326836489,8.0899889988999,1408304.4659309,8490.7717813621,3084461.3747967,13.2899889989,0,0
-144.71996373826,-65.781680938981,8.0944194419442,1408304.4659309,8490.7717813621,3084461.3747967,13.294419441944,0,0
-144.71996363601,-65.796035041472,8.0988498849885,1408304.4659309,8490.7717813621,3084461.3747967,13.298849884988,0,0
-144.71996353376,-65.810389143964,8.1032803280328,1408304.4659309,8490.7717813621,3084461.3747967,13.303280328033,0,0
-144.7199634315,-65.824743246455,8.1077107710771,1408304.4659309,8490.7717813621,3084461.3747967,13.307710771077,0,0
-144.71996332925,-65.839097348947,8.1121412141214,1408304.4659309,8490.7717813621,3084461.3747967,13.312141214121,0,0
-144.719963227,-65.853451451439,8.1165716571657,1408304.4659309,8490.7717813621,3084461.3747967,13.316571657166,0,0
-144.71996312475,-65.86780555393,8.12100210021,1408304.4659309,8490.7717813621,3084461.3747967,13.32100210021,0,0
-144.71996302249,-65.882159656422,8.1254325432543,1408304.4659309,8490.7717813621,3084461.3747967,13.325432543254,0,0
-144.71996292024,-65.896513758913,8.1298629862986,1408304.4659309,8490.7717813621,3084461.3747967,13.329862986299,0,0
-144.71996281799,-65.910867861405,8.1342934293429,1408304.4659309,8490.7717813621,3084461.3747967,13.334293429343,0,0
-144.71996271573,-65.925221963897,8.1387238723872,1408304.4659309,8490.7717813621,3084461.3747967,13.338723872387,0,0
-144.71996261348,-65.939576066388,8.1431543154315,1408304.4659309,8490.7717813621,3084461.3747967,13.343154315432,0,0
-144.71996251123,-65.95393016888,8.1475847584758,1408304.4659309,8490.7717813621,3084461.3747967,13.347584758476,0,0
-144.71996240897,-65.968284271371,8.1520152015202,1408304.4659309,8490.7717813621,3084461.3747967,13.35201520152,0,0
-144.71996230672,-65.982638373863,8.1564456445645,1408304.4659309,8490.7717813621,3084461.3747967,13.356445644564,0,0
-144.71996220447,-65.996992476354,8.1608760876088,1408304.4659309,8490.7717813621,3084461.3747967,13.360876087609,0,0
-144.71996210221,-66.011346578846,8.1653065306531,1408304.4659309,8490.7717813621,3084461.3747967,13.365306530653,0,0
-144.71996199996,-66.025700681338,8.1697369736974,1408304.4659309,8490.7717813621,3084461.3747967,13.369736973697,0,0
-144.71996189771,-66.040054783829,8.1741674167417,1408304.4659309,8490.7717813621,3084461.3747967,13.374167416742,0,0
-144.71996179546,-66.054408886321,8.178597859786,1408304.4659309,8490.7717813621,3084461.3747967,13.378597859786,0,0
-144.7199616932,-66.068762988812,8.1830283028303,1408304.4659309,8490.7717813621,3084461.3747967,13.38302830283,0,0
-144.71996159095,-66.083117091304,8.1874587458746,1408304.4659309,8490.7717813621,3084461.3747967,13.387458745875,0,0
-144.7199614887,-66.097471193796,8.1918891889189,1408304.4659309,8490.7717813621,3084461.3747967,13.391889188919,0,0
-144.71996138644,-66.111825296287,8.1963196319632,1408304.4659309,8490.7717813621,3084461.3747967,13.396319631963,0,0
-144.71996128419,-66.126179398779,8.2007500750075,1408304.4659309,8490.7717813621,3084461.3747967,13.400750075008,0,0
-144.71996118194,-66.14053350127,8.2051805180518,1408304.4659309,8490.7717813621,3084461.3747967,13.405180518052,0,0
-144.71996107968,-66.154887603762,8.2096109610961,1408304.4659309,8490.7717813621,3084461.3747967,13.409610961096,0,0
-144.71996097743,-66.169241706253,8.2140414041404,1408304.4659309,8490.7717813621,3084461.3747967,13.41404140414,0,0
-144.71996087518,-66.183595808745,8.2184718471847,1408304.4659309,8490.7717813621,3084461.3747967,13.418471847185,0,0
-144.71996077293,-66.197949911237,8.222902290229,1408304.4659309,8490.7717813621,3084461.3747967,13.422902290229,0,0
-144.71996067067,-66.212304013728,8.2273327332733,1408304.4659309,8490.7717813621,3084461.3747967,13.427332733273,0,0
-144.71996056842,-66.22665811622,8.2317631763176,1408304.4659309,8490.7717813621,3084461.3747967,13.431763176318,0,0
-144.71996046617,-66.241012218711,8.2361936193619,1408304.4659309,8490.7717813622,3084461.3747967,13.436193619362,0,0
-144.71996036391,-66.255366321203,8.2406240624062,1408304.4659309,8490.7717813622,3084461.3747967,13.440624062406,0,0
-144.71996026166,-66.269720423695,8.2450545054505,1408304.4659309,8490.7717813622,3084461.3747967,13.445054505451,0,0
-144.71996015941,-66.284074526186,8.2494849484948,1408304.4659309,8490.7717813622,3084461.3747967,13.449484948495,0,0
-144.71996005715,-66.298428628678,8.2539153915392,1408304.4659309,8490.7717813622,3084461.3747967,13.453915391539,0,0
-144.7199599549,-66.312782731169,8.2583458345835,1408304.4659309,8490.7717813622,3084461.3747967,13.458345834583,0,0
-144.71995985265,-66.327136833661,8.2627762776278,1408304.4659309,8490.7717813622,3084461.3747967,13.462776277628,0,0
-144.7199597504,-66.341490936153,8.2672067206721,1408304.4659309,8490.7717813622,3084461.3747967,13.467206720672,0,0
-144.71995964814,-66.355845038644,8.2716371637164,1408304.4659309,8490.7717813622,3084461.3747967,13.471637163716,0,0
-144.71995954589,-66.370199141136,8.2760676067607,1408304.4659309,8490.7717813622,3084461.3747967,13.476067606761,0,0
-144.71995944364,-66.384553243627,8.280498049805,1408304.4659309,8490.7717813622,3084461.3747967,13.480498049805,0,0
-144.71995934138,-66.398907346119,8.2849284928493,1408304.4659309,8490.7717813622,3084461.3747967,13.484928492849,0,0
-144.71995923913,-66.41326144861,8.2893589358936,1408304.4659309,8490.7717813622,3084461.3747967,13.489358935894,0,0
-144.71995913688,-66.427615551102,8.2937893789379,1408304.4659309,8490.7717813622,3084461.3747967,13.493789378938,0,0
-144.71995903462,-66.441969653594,8.2982198219822,1408304.4659309,8490.7717813622,3084461.3747967,13.498219821982,0,0
-144.71995893237,-66.456323756085,8.3026502650265,1408304.4659309,8490.7717813622,3084461.3747967,13.502650265027,0,0
-144.71995883012,-66.470677858577,8.3070807080708,1408304.4659309,8490.7717813622,3084461.3747967,13.507080708071,0,0
-144.71995872786,-66.485031961068,8.3115111511151,1408304.4659309,8490.7717813622,3084461.3747967,13.511511151115,0,0
-144.71995862561,-66.49938606356,8.3159415941594,1408304.4659309,8490.7717813622,3084461.3747967,13.515941594159,0,0
-144.71995852336,-66.513740166052,8.3203720372037,1408304.4659309,8490.7717813622,3084461.3747967,13.520372037204,0,0
-144.71995842111,-66.528094268543,8.324802480248,1408304.4659309,8490.7717813622,3084461.3747967,13.524802480248,0,0
-144.71995831885,-66.542448371035,8.3292329232923,1408304.4659309,8490.7717813622,3084461.3747967,13.529232923292,0,0
-144.7199582166,-66.556802473526,8.3336633663366,1408304.4659309,8490.7717813622,3084461.3747967,13.533663366337,0,0
-144.71995811435,-66.571156576018,8.3380938093809,1408304.4659309,8490.7717813622,3084461.3747967,13.538093809381,0,0
-144.71995801178,-66.585510680563,8.3425242524252,1404879.4904646,-5633.266116638,3054836.6419361,13.542524252425,0,0
-144.71995790901,-66.599864786412,8.3469546954695,1404879.4904646,-5633.266116638,3054836.6419361,13.54695469547,0,0
-144.71995780616,-66.614218891789,8.3513851385139,1405140.72585,7207.5263439843,3036290.117094,13.551385138514,0,0
-144.71995770288,-66.628572994647,8.3558155815582,1405140.72585,7207.5263439843,3036290.117094,13.555815581558,0,0
-144.7199575996,-66.642927097505,8.3602460246025,1405140.72585,7207.5263439843,3036290.117094,13.560246024602,0,0
-144.71995749631,-66.657281200362,8.3646764676468,1405140.72585,7207.5263439843,3036290.117094,13.564676467647,0,0
-144.71995739303,-66.67163530322,8.3691069106911,1405140.72585,7207.5263439843,3036290.117094,13.569106910691,0,0
-144.71995728975,-66.685989406078,8.3735373537354,1405140.72585,7207.5263439843,3036290.117094,13.573537353735,0,0
-144.71995718646,-66.700343508936,8.3779677967797,1405140.72585,7207.5263439843,3036290.117094,13.57796779678,0,0
-144.71995708318,-66.714697611794,8.382398239824,1405140.72585,7207.5263439843,3036290.117094,13.582398239824,0,0
-144.7199569799,-66.729051714652,8.3868286828683,1405140.72585,7207.5263439843,3036290.117094,13.586828682868,0,0
-144.71995687661,-66.74340581751,8.3912591259126,1405140.72585,7207.5263439843,3036290.117094,13.591259125913,0,0
-144.71995677333,-66.757759920368,8.3956895689569,1405140.72585,7207.5263439843,3036290.117094,13.595689568957,0,0
-144.71995667005,-66.772114023226,8.4001200120012,1405140.72585,7207.5263439843,3036290.117094,13.600120012001,0,0
-144.71995656677,-66.786468126084,8.4045504550455,1405140.72585,7207.5263439843,3036290.117094,13.604550455046,0,0
-144.71995646348,-66.800822228942,8.4089808980898,1405140.72585,7207.5263439843,3036290.117094,13.60898089809,0,0
-144.7199563602,-66.8151763318,8.4134113411341,1405140.72585,7207.5263439843,3036290.117094,13.613411341134,0,0
-144.71995625692,-66.829530434658,8.4178417841784,1405140.72585,7207.5263439843,3036290.117094,13.617841784178,0,0
-144.71995615363,-66.843884537516,8.4222722272227,1405140.72585,7207.5263439843,3036290.117094,13.622272227223,0,0
-144.71995605035,-66.858238640373,8.426702670267,1405140.72585,7207.5263439843,3036290.117094,13.626702670267,0,0
-144.71995594707,-66.872592743231,8.4311331133113,1405140.72585,7207.5263439843,3036290.117094,13.631133113311,0,0
-144.71995584379,-66.886946846089,8.4355635563556,1405140.72585,7207.5263439843,3036290.117094,13.635563556356,0,0
-144.7199557405,-66.901300948947,8.4399939993999,1405140.72585,7207.5263439843,3036290.117094,13.6399939994,0,0
-144.71995563722,-66.915655051805,8.4444244424442,1405140.72585,7207.5263439843,3036290.117094,13.644424442444,0,0
-144.71995553394,-66.930009154663,8.4488548854885,1405140.72585,7207.5263439843,3036290.117094,13.648854885489,0,0
-144.71995543065,-66.944363257521,8.4532853285329,1405140.72585,7207.5263439843,3036290.117094,13.653285328533,0,0
-144.71995532737,-66.958717360379,8.4577157715772,1405140.72585,7207.5263439843,3036290.117094,13.657715771577,0,0
-144.71995522409,-66.973071463237,8.4621462146215,1405140.72585,7207.5263439843,3036290.117094,13.662146214621,0,0
-144.71995512081,-66.987425566095,8.4665766576658,1405140.72585,7207.5263439843,3036290.117094,13.666576657666,0,0
-144.71995501752,-67.001779668953,8.4710071007101,1405140.72585,7207.5263439843,3036290.117094,13.67100710071,0,0
-144.71995491424,-67.016133771811,8.4754375437544,1405140.72585,7207.5263439843,3036290.117094,13.675437543754,0,0
-144.71995481096,-67.030487874669,8.4798679867987,1405140.72585,7207.5263439843,3036290.117094,13.679867986799,0,0
-144.71995470767,-67.044841977527,8.484298429843,1405140.72585,7207.5263439843,3036290.117094,13.684298429843,0,0
-144.71995460439,-67.059196080384,8.4887288728873,1405140.72585,7207.5263439843,3036290.117094,13.688728872887,0,0
-144.71995450108,-67.073550183237,8.4931593159316,1405339.3477433,-7521.3569267362,3029357.0955472,13.693159315932,0,0
-144.71995439759,-67.08790428606,8.4975897589759,1405339.3477433,-7521.3569267362,3029357.0955472,13.697589758976,0,0
-144.71995429411,-67.102258388882,8.5020202020202,1405339.3477433,-7521.3569267362,3029357.0955472,13.70202020202,0,0
-144.71995419063,-67.116612491705,8.5064506450645,1405339.3477433,-7521.3569267362,3029357.0955472,13.706450645065,0,0
-144.71995408714,-67.130966594527,8.5108810881088,1405339.3477433,-7521.3569267362,3029357.0955472,13.710881088109,0,0
-144.71995398366,-67.14532069735,8.5153115311531,1405339.3477433,-7521.3569267362,3029357.0955472,13.715311531153,0,0
-144.71995388018,-67.159674800173,8.5197419741974,1405339.3477433,-7521.3569267362,3029357.0955472,13.719741974197,0,0
-144.71995377669,-67.174028902995,8.5241724172417,1405339.3477433,-7521.3569267362,3029357.0955472,13.724172417242,0,0
-144.71995367321,-67.188383005818,8.528602860286,1405339.3477433,-7521.3569267362,3029357.0955472,13.728602860286,0,0
-144.71995356973,-67.20273710864,8.5330333033303,1405339.3477433,-7521.3569267362,3029357.0955472,13.73303330333,0,0
-144.71995346624,-67.217091211463,8.5374637463746,1405339.3477433,-7521.3569267362,3029357.0955472,13.737463746375,0,0
-144.71995336276,-67.231445314286,8.5418941894189,1405339.3477433,-7521.3569267362,3029357.0955472,13.741894189419,0,0
-144.71995325928,-67.245799417108,8.5463246324632,1405339.3477433,-7521.3569267362,3029357.0955472,13.746324632463,0,0
-144.71995315579,-67.260153519931,8.5507550755075,1405339.3477433,-7521.3569267362,3029357.0955472,13.750755075508,0,0
-144.71995305231,-67.274507622753,8.5551855185519,1405339.3477433,-7521.3569267362,3029357.0955472,13.755185518552,0,0
-144.71995294883,-67.288861725576,8.5596159615962,1405339.3477433,-7521.3569267362,3029357.0955472,13.759615961596,0,0
-144.71995284534,-67.303215828399,8.5640464046405,1405339.3477433,-7521.3569267362,3029357.0955472,13.76404640464,0,0
-144.71995274186,-67.317569931221,8.5684768476848,1405339.3477433,-7521.3569267362,3029357.0955472,13.768476847685,0,0
-144.71995263838,-67.331924034044,8.5729072907291,1405339.3477433,-7521.3569267362,3029357.0955472,13.772907290729,0,0
-144.71995253489,-67.346278136866,8.5773377337734,1405339.3477433,-7521.3569267362,3029357.0955472,13.777337733773,0,0
-144.71995243141,-67.360632239689,8.5817681768177,1405339.3477433,-7521.3569267362,3029357.0955472,13.781768176818,0,0
-144.71995232793,-67.374986342512,8.586198619862,1405339.3477433,-7521.3569267362,3029357.0955472,13.786198619862,0,0
-144.71995222444,-67.389340445334,8.5906290629063,1405339.3477433,-7521.3569267362,3029357.0955472,13.790629062906,0,0
-144.71995212096,-67.403694548157,8.5950595059506,1405339.3477433,-7521.3569267362,3029357.0955472,13.795059505951,0,0
-144.71995201748,-67.418048650979,8.5994899489949,1405339.3477433,-7521.3569267362,3029357.0955472,13.799489948995,0,0
-144.71995191399,-67.432402753802,8.6039203920392,1405339.3477433,-7521.3569267362,3029357.0955472,13.803920392039,0,0
-144.71995181051,-67.446756856625,8.6083508350835,1405339.3477433,-7521.3569267362,3029357.0955472,13.808350835084,0,0
-144.71995170703,-67.461110959447,8.6127812781278,1405339.3477433,-7521.3569267362,3029357.0955472,13.812781278128,0,0
-144.71995160354,-67.47546506227,8.6172117211721,1405339.3477433,-7521.3569267362,3029357.0955472,13.817211721172,0,0
-144.71995150006,-67.489819165092,8.6216421642164,1405339.3477433,-7521.3569267362,3029357.0955472,13.821642164216,0,0
-144.71995139658,-67.504173267915,8.6260726072607,1405339.3477433,-7521.3569267362,3029357.0955472,13.826072607261,0,0
-144.71995129309,-67.518527370738,8.630503050305,1405339.3477433,-7521.3569267362,3029357.0955472,13.830503050305,0,0
-144.71995118961,-67.53288147356,8.6349334933493,1405339.3477433,-7521.3569267362,3029357.0955472,13.834933493349,0,0
-144.71995108613,-67.547235576383,8.6393639363936,1405339.3477433,-7521.3569267362,3029357.0955472,13.839363936394,0,0
-144.71995098264,-67.561589679205,8.6437943794379,1405339.3477433,-7521.3569267362,3029357.0955472,13.843794379438,0,0
-144.71995087916,-67.575943782028,8.6482248224822,1405339.3477433,-7521.3569267362,3029357.0955472,13.848224822482,0,0
-144.71995077568,-67.590297884851,8.6526552655266,1405339.3477433,-7521.3569267362,3029357.0955472,13.852655265527,0,0
-144.71995067219,-67.604651987673,8.6570857085709,1405339.3477433,-7521.3569267362,3029357.0955472,13.857085708571,0,0
-144.71995056871,-67.619006090496,8.6615161516152,1405339.3477433,-7521.3569267362,3029357.0955472,13.861516151615,0,0
-144.71995046523,-67.633360193318,8.6659465946595,1405339.3477433,-7521.3569267362,3029357.0955472,13.865946594659,0,0
-144.71995036174,-67.647714296141,8.6703770377038,1405339.3477433,-7521.3569267362,3029357.0955472,13.870377037704,0,0
-144.71995025826,-67.662068398964,8.6748074807481,1405339.3477433,-7521.3569267362,3029357.0955472,13.874807480748,0,0
-144.71995015478,-67.676422501786,8.6792379237924,1405339.3477433,-7521.3569267362,3029357.0955472,13.879237923792,0,0
-144.71995005129,-67.690776604609,8.6836683668367,1405339.3477433,-7521.3569267362,3029357.0955472,13.883668366837,0,0
-144.71994994781,-67.705130707432,8.688098809881,1405339.3477433,-7521.3569267362,3029357.0955472,13.888098809881,0,0
-144.71994984433,-67.719484810254,8.6925292529253,1405339.3477433,-7521.3569267362,3029357.0955472,13.892529252925,0,0
-144.71994974084,-67.733838913077,8.6969596959696,1405339.3477433,-7521.3569267362,3029357.0955472,13.89695969597,0,0
-144.71994963736,-67.748193015899,8.7013901390139,1405339.3477433,-7521.3569267362,3029357.0955472,13.901390139014,0,0
-144.71994953388,-67.762547118722,8.7058205820582,1405339.3477433,-7521.3569267362,3029357.0955472,13.905820582058,0,0
-144.71994943039,-67.776901221545,8.7102510251025,1405339.3477433,-7521.3569267362,3029357.0955472,13.910251025103,0,0
-144.71994932691,-67.791255324367,8.7146814681468,1405339.3477433,-7521.3569267362,3029357.0955472,13.914681468147,0,0
-144.71994922343,-67.80560942719,8.7191119111911,1405339.3477433,-7521.3569267362,3029357.0955472,13.919111911191,0,0
-144.71994911994,-67.819963530012,8.7235423542354,1405339.3477433,-7521.3569267362,3029357.0955472,13.923542354235,0,0
-144.71994901646,-67.834317632835,8.7279727972797,1405339.3477433,-7521.3569267362,3029357.0955472,13.92797279728,0,0
-144.71994891298,-67.848671735658,8.732403240324,1405339.3477433,-7521.3569267362,3029357.0955472,13.932403240324,0,0
-144.71994880949,-67.86302583848,8.7368336833683,1405339.3477433,-7521.3569267362,3029357.0955472,13.936833683368,0,0
-144.71994870601,-67.877379941303,8.7412641264126,1405339.3477433,-7521.3569267362,3029357.0955472,13.941264126413,0,0
-144.71994860253,-67.891734044125,8.7456945694569,1405339.3477433,-7521.3569267362,3029357.0955472,13.945694569457,0,0
-144.71994849904,-67.906088146948,8.7501250125013,1405339.3477433,-7521.3569267362,3029357.0955472,13.950125012501,0,0
-144.71994839556,-67.920442249771,8.7545554555456,1405339.3477433,-7521.3569267362,3029357.0955472,13.954555455546,0,0
-144.71994829208,-67.934796352593,8.7589858985899,1405339.3477433,-7521.3569267362,3029357.0955472,13.95898589859,0,0
-144.71994818859,-67.949150455416,8.7634163416342,1405339.3477433,-7521.3569267362,3029357.0955472,13.963416341634,0,0
-144.71994808511,-67.963504558238,8.7678467846785,1405339.3477433,-7521.3569267362,3029357.0955472,13.967846784678,0,0
-144.71994798163,-67.977858661061,8.7722772277228,1405339.3477433,-7521.3569267362,3029357.0955472,13.972277227723,0,0
-144.71994787814,-67.992212763884,8.7767076707671,1405339.3477433,-7521.3569267362,3029357.0955472,13.976707670767,0,0
-144.71994777466,-68.006566866706,8.7811381138114,1405339.3477433,-7521.3569267362,3029357.0955472,13.981138113811,0,0
-144.71994767118,-68.020920969529,8.7855685568557,1405339.3477433,-7521.3569267362,3029357.0955472,13.985568556856,0,0
-144.71994756769,-68.035275072351,8.7899989999,1405339.3477433,-7521.3569267362,3029357.0955472,13.9899989999,0,0
-144.71994746421,-68.049629175174,8.7944294429443,1405339.3477433,-7521.3569267362,3029357.0955472,13.994429442944,0,0
-144.71994736073,-68.063983277997,8.7988598859886,1405339.3477433,-7521.3569267362,3029357.0955472,13.998859885989,0,0
-144.71994725724,-68.078337380819,8.8032903290329,1405339.3477433,-7521.3569267362,3029357.0955472,14.003290329033,0,0
-144.71994715376,-68.092691483642,8.8077207720772,1405339.3477433,-7521.3569267362,3029357.0955472,14.007720772077,0,0
-144.71994705028,-68.107045586464,8.8121512151215,1405339.3477433,-7521.3569267362,3029357.0955472,14.012151215122,0,0
-144.71994694679,-68.121399689287,8.8165816581658,1405339.3477433,-7521.3569267362,3029357.0955472,14.016581658166,0,0
-144.71994684331,-68.13575379211,8.8210121012101,1405339.3477433,-7521.3569267362,3029357.0955472,14.02101210121,0,0
-144.71994673983,-68.150107894932,8.8254425442544,1405339.3477433,-7521.3569267362,3029357.0955472,14.025442544254,0,0
-144.71994663634,-68.164461997755,8.8298729872987,1405339.3477433,-7521.3569267362,3029357.0955472,14.029872987299,0,0
-144.71994653286,-68.178816100577,8.834303430343,1405339.3477433,-7521.3569267362,3029357.0955472,14.034303430343,0,0
-144.71994642938,-68.1931702034,8.8387338733873,1405339.3477433,-7521.3569267362,3029357.0955472,14.038733873387,0,0
-144.71994632589,-68.207524306223,8.8431643164316,1405339.3477433,-7521.3569267362,3029357.0955472,14.043164316432,0,0
-144.71994622241,-68.221878409045,8.8475947594759,1405339.3477433,-7521.3569267362,3029357.0955472,14.047594759476,0,0
-144.71994611893,-68.236232511868,8.8520252025203,1405339.3477433,-7521.3569267362,3029357.0955472,14.05202520252,0,0
-144.71994601544,-68.25058661469,8.8564556455646,1405339.3477433,-7521.3569267362,3029357.0955472,14.056455645565,0,0
-144.71994591196,-68.264940717513,8.8608860886089,1405339.3477433,-7521.3569267362,3029357.0955472,14.060886088609,0,0
-144.71994580848,-68.279294820336,8.8653165316532,1405339.3477433,-7521.3569267362,3029357.0955472,14.065316531653,0,0
-144.71994570499,-68.293648923158,8.8697469746975,1405339.3477433,-7521.3569267362,3029357.0955472,14.069746974697,0,0
-144.71994560151,-68.308003025981,8.8741774177418,1405339.3477433,-7521.3569267362,3029357.0955472,14.074177417742,0,0
-144.71994549803,-68.322357128803,8.8786078607861,1405339.3477433,-7521.3569267362,3029357.0955472,14.078607860786,0,0
-144.71994539454,-68.336711231626,8.8830383038304,1405339.3477433,-7521.3569267362,3029357.0955472,14.08303830383,0,0
-144.71994529106,-68.351065334449,8.8874687468747,1405339.3477433,-7521.3569267362,3029357.0955472,14.087468746875,0,0
-144.71994518758,-68.365419437271,8.891899189919,1405339.3477433,-7521.3569267362,3029357.0955472,14.091899189919,0,0
-144.71994508409,-68.379773540094,8.8963296329633,1405339.3477433,-7521.3569267362,3029357.0955472,14.096329632963,0,0
-144.71994498061,-68.394127642916,8.9007600760076,1405339.3477433,-7521.3569267362,3029357.0955472,14.100760076008,0,0
-144.71994487713,-68.408481745739,8.9051905190519,1405339.3477433,-7521.3569267362,3029357.0955472,14.105190519052,0,0
-144.71994477364,-68.422835848562,8.9096209620962,1405339.3477433,-7521.3569267362,3029357.0955472,14.109620962096,0,0
-144.71994467016,-68.437189951384,8.9140514051405,1405339.3477433,-7521.3569267362,3029357.0955472,14.114051405141,0,0
-144.71994456668,-68.451544054207,8.9184818481848,1405339.3477433,-7521.3569267362,3029357.0955472,14.118481848185,0,0
-144.71994446319,-68.46589815703,8.9229122912291,1405339.3477433,-7521.3569267362,3029357.0955472,14.122912291229,0,0
-144.71994435971,-68.480252259852,8.9273427342734,1405339.3477433,-7521.3569267362,3029357.0955472,14.127342734273,0,0
-144.71994425623,-68.494606362675,8.9317731773177,1405339.3477433,-7521.3569267362,3029357.0955472,14.131773177318,0,0
-144.71994415274,-68.508960465497,8.936203620362,1405339.3477433,-7521.3569267362,3029357.0955472,14.136203620362,0,0
-144.71994404926,-68.52331456832,8.9406340634063,1405339.3477433,-7521.3569267362,3029357.0955472,14.140634063406,0,0
-144.71994394578,-68.537668671143,8.9450645064506,1405339.3477433,-7521.3569267362,3029357.0955472,14.145064506451,0,0
-144.71994384229,-68.552022773965,8.9494949494949,1405339.3477433,-7521.3569267362,3029357.0955472,14.149494949495,0,0
-144.71994373881,-68.566376876788,8.9539253925393,1405339.3477433,-7521.3569267362,3029357.0955472,14.153925392539,0,0
-144.71994363533,-68.58073097961,8.9583558355836,1405339.3477433,-7521.3569267362,3029357.0955472,14.158355835584,0,0
-144.71994353184,-68.595085082433,8.9627862786279,1405339.3477433,-7521.3569267362,3029357.0955472,14.162786278628,0,0
-144.71994342836,-68.609439185256,8.9672167216722,1405339.3477433,-7521.3569267362,3029357.0955472,14.167216721672,0,0
-144.71994332488,-68.623793288078,8.9716471647165,1405339.3477433,-7521.3569267362,3029357.0955472,14.171647164716,0,0
-144.71994322139,-68.638147390901,8.9760776077608,1405339.3477433,-7521.3569267362,3029357.0955472,14.176077607761,0,0
-144.71994311791,-68.652501493723,8.9805080508051,1405339.3477433,-7521.3569267362,3029357.0955472,14.180508050805,0,0
-144.71994301443,-68.666855596546,8.9849384938494,1405339.3477433,-7521.3569267362,3029357.0955472,14.184938493849,0,0
-144.71994291094,-68.681209699369,8.9893689368937,1405339.3477433,-7521.3569267362,3029357.0955472,14.189368936894,0,0
-144.71994280746,-68.695563802191,8.993799379938,1405339.3477433,-7521.3569267362,3029357.0955472,14.193799379938,0,0
-144.71994270398,-68.709917905014,8.9982298229823,1405339.3477433,-7521.3569267362,3029357.0955472,14.198229822982,0,0
-144.71994260049,-68.724272007836,9.0026602660266,1405339.3477433,-7521.3569267362,3029357.0955472,14.202660266027,0,0
-144.71994249701,-68.738626110659,9.0070907090709,1405339.3477433,-7521.3569267362,3029357.0955472,14.207090709071,0,0
-144.71994239353,-68.752980213482,9.0115211521152,1405339.3477433,-7521.3569267362,3029357.0955472,14.211521152115,0,0
-144.71994229004,-68.767334316304,9.0159515951595,1405339.3477433,-7521.3569267362,3029357.0955472,14.21595159516,0,0
-144.71994218656,-68.781688419127,9.0203820382038,1405339.3477433,-7521.3569267362,3029357.0955472,14.220382038204,0,0
-144.71994208308,-68.796042521949,9.0248124812481,1405339.3477433,-7521.3569267362,3029357.0955472,14.224812481248,0,0
-144.71994197959,-68.810396624772,9.0292429242924,1405339.3477433,-7521.3569267362,3029357.0955472,14.229242924292,0,0
-144.71994187611,-68.824750727595,9.0336733673367,1405339.3477433,-7521.3569267362,3029357.0955472,14.233673367337,0,0
-144.71994177263,-68.839104830417,9.038103810381,1405339.3477433,-7521.3569267362,3029357.0955472,14.238103810381,0,0
-144.71994166914,-68.85345893324,9.0425342534253,1405339.3477433,-7521.3569267362,3029357.0955472,14.242534253425,0,0
-144.71994156566,-68.867813036062,9.0469646964696,1405339.3477433,-7521.3569267362,3029357.0955472,14.24696469647,0,0
-144.71994146217,-68.882167138885,9.051395139514,1405339.3477433,-7521.3569267362,3029357.0955472,14.251395139514,0,0
-144.71994135869,-68.896521241708,9.0558255825583,1405339.3477433,-7521.3569267362,3029357.0955472,14.255825582558,0,0
-144.71994125521,-68.91087534453,9.0602560256026,1405339.3477433,-7521.3569267362,3029357.0955472,14.260256025603,0,0
-144.71994115172,-68.925229447353,9.0646864686469,1405339.3477433,-7521.3569267362,3029357.0955472,14.264686468647,0,0
-144.71994104824,-68.939583550175,9.0691169116912,1405339.3477433,-7521.3569267362,3029357.0955472,14.269116911691,0,0
-144.71994094476,-68.953937652998,9.0735473547355,1405339.3477433,-7521.3569267362,3029357.0955472,14.273547354735,0,0
-144.71994084127,-68.968291755821,9.0779777977798,1405339.3477433,-7521.3569267362,3029357.0955472,14.27797779778,0,0
-144.71994073779,-68.982645858643,9.0824082408241,1405339.3477433,-7521.3569267362,3029357.0955472,14.282408240824,0,0
-144.71994063431,-68.996999961466,9.0868386838684,1405339.3477433,-7521.3569267362,3029357.0955472,14.286838683868,0,0
-144.71994053082,-69.011354064288,9.0912691269127,1405339.3477433,-7521.3569267362,3029357.0955472,14.291269126913,0,0
-144.71994042734,-69.025708167111,9.095699569957,1405339.3477433,-7521.3569267362,3029357.0955472,14.295699569957,0,0
-144.71994032386,-69.040062269934,9.1001300130013,1405339.3477433,-7521.3569267362,3029357.0955472,14.300130013001,0,0
-144.71994022037,-69.054416372756,9.1045604560456,1405339.3477433,-7521.3569267362,3029357.0955472,14.304560456046,0,0
-144.71994011689,-69.068770475579,9.1089908990899,1405339.3477433,-7521.3569267362,3029357.0955472,14.30899089909,0,0
-144.71994001341,-69.083124578401,9.1134213421342,1405339.3477433,-7521.3569267362,3029357.0955472,14.313421342134,0,0
-144.71993990992,-69.097478681224,9.1178517851785,1405339.3477433,-7521.3569267362,3029357.0955472,14.317851785179,0,0
-144.71993980644,-69.111832784047,9.1222822282228,1405339.3477433,-7521.3569267362,3029357.0955472,14.322282228223,0,0
-144.71993970296,-69.126186886869,9.1267126712671,1405339.3477433,-7521.3569267362,3029357.0955472,14.326712671267,0,0
-144.71993959947,-69.140540989692,9.1311431143114,1405339.3477433,-7521.3569267362,3029357.0955472,14.331143114311,0,0
-144.71993949599,-69.154895092514,9.1355735573557,1405339.3477433,-7521.3569267362,3029357.0955472,14.335573557356,0,0
-144.71993939251,-69.169249195337,9.1400040004,1405339.3477433,-7521.3569267362,3029357.0955472,14.3400040004,0,0
-144.71993928902,-69.18360329816,9.1444344434443,1405339.3477433,-7521.3569267362,3029357.0955472,14.344434443444,0,0
-144.71993918554,-69.197957400982,9.1488648864886,1405339.3477433,-7521.3569267362,3029357.0955472,14.348864886489,0,0
-144.71993908206,-69.212311503805,9.153295329533,1405339.3477433,-7521.3569267362,3029357.0955472,14.353295329533,0,0
-144.71993897857,-69.226665606627,9.1577257725773,1405339.3477433,-7521.3569267362,3029357.0955472,14.357725772577,0,0
-144.71993887509,-69.24101970945,9.1621562156216,1405339.3477433,-7521.3569267362,3029357.0955472,14.362156215622,0,0
-144.71993877161,-69.255373812273,9.1665866586659,1405339.3477433,-7521.3569267362,3029357.0955472,14.366586658666,0,0
-144.71993866812,-69.269727915095,9.1710171017102,1405339.3477433,-7521.3569267362,3029357.0955472,14.37101710171,0,0
-144.71993856464,-69.284082017918,9.1754475447545,1405339.3477433,-7521.3569267362,3029357.0955472,14.375447544754,0,0
-144.71993846116,-69.298436120741,9.1798779877988,1405339.3477433,-7521.3569267362,3029357.0955472,14.379877987799,0,0
-144.71993835767,-69.312790223563,9.1843084308431,1405339.3477433,-7521.3569267362,3029357.0955472,14.384308430843,0,0
-144.71993825419,-69.327144326386,9.1887388738874,1405339.3477433,-7521.3569267362,3029357.0955472,14.388738873887,0,0
-144.71993815071,-69.341498429208,9.1931693169317,1405339.3477433,-7521.3569267362,3029357.0955472,14.393169316932,0,0
-144.71993804722,-69.355852532031,9.197599759976,1405339.3477433,-7521.3569267362,3029357.0955472,14.397599759976,0,0
-144.71993794374,-69.370206634854,9.2020302030203,1405339.3477433,-7521.3569267362,3029357.0955472,14.40203020302,0,0
-144.71993784026,-69.384560737676,9.2064606460646,1405339.3477433,-7521.3569267362,3029357.0955472,14.406460646065,0,0
-144.71993773677,-69.398914840499,9.2108910891089,1405339.3477433,-7521.3569267362,3029357.0955472,14.410891089109,0,0
-144.71993763329,-69.413268943321,9.2153215321532,1405339.3477433,-7521.3569267362,3029357.0955472,14.415321532153,0,0
-144.71993752981,-69.427623046144,9.2197519751975,1405339.3477433,-7521.3569267362,3029357.0955472,14.419751975198,0,0
-144.71993742632,-69.441977148967,9.2241824182418,1405339.3477433,-7521.3569267362,3029357.0955472,14.424182418242,0,0
-144.71993732284,-69.456331251789,9.2286128612861,1405339.3477433,-7521.3569267362,3029357.0955472,14.428612861286,0,0
-144.71993721936,-69.470685354612,9.2330433043304,1405339.3477433,-7521.3569267362,3029357.0955472,14.43304330433,0,0
-144.71993711587,-69.485039457434,9.2374737473747,1405339.3477433,-7521.3569267362,3029357.0955472,14.437473747375,0,0
-144.71993701239,-69.499393560257,9.241904190419,1405339.3477433,-7521.3569267362,3029357.0955472,14.441904190419,0,0
-144.71993690891,-69.51374766308,9.2463346334633,1405339.3477433,-7521.3569267362,3029357.0955472,14.446334633463,0,0
-144.71993680542,-69.528101765902,9.2507650765077,1405339.3477433,-7521.3569267362,3029357.0955472,14.450765076508,0,0
-144.71993670194,-69.542455868725,9.255195519552,1405339.3477433,-7521.3569267362,3029357.0955472,14.455195519552,0,0
-144.71993659846,-69.556809971547,9.2596259625963,1405339.3477433,-7521.3569267362,3029357.0955472,14.459625962596,0,0
-144.71993649489,-69.571164072617,9.2640564056406,1401096.5254464,3803.0547579183,3012173.3422583,14.464056405641,0,0
-144.71993639129,-69.585518172967,9.2684868486849,1401096.5254464,3803.0547579183,3012173.3422583,14.468486848685,0,0
-144.71993628769,-69.599872273317,9.2729172917292,1401096.5254464,3803.0547579183,3012173.3422583,14.472917291729,0,0
-144.71993618408,-69.614226373667,9.2773477347735,1401096.5254464,3803.0547579183,3012173.3422583,14.477347734773,0,0
-144.71993608048,-69.628580474017,9.2817781778178,1401096.5254464,3803.0547579183,3012173.3422583,14.481778177818,0,0
-144.71993597688,-69.642934574368,9.2862086208621,1401096.5254464,3803.0547579183,3012173.3422583,14.486208620862,0,0
-144.71993587328,-69.657288674718,9.2906390639064,1401096.5254464,3803.0547579183,3012173.3422583,14.490639063906,0,0
-144.71993576968,-69.671642775068,9.2950695069507,1401096.5254464,3803.0547579183,3012173.3422583,14.495069506951,0,0
-144.71993566607,-69.685996875418,9.299499949995,1401096.5254464,3803.0547579183,3012173.3422583,14.499499949995,0,0
-144.71993556247,-69.700350975768,9.3039303930393,1401096.5254464,3803.0547579183,3012173.3422583,14.503930393039,0,0
-144.71993545887,-69.714705076118,9.3083608360836,1401096.5254464,3803.0547579183,3012173.3422583,14.508360836084,0,0
-144.71993535527,-69.729059176468,9.3127912791279,1401096.5254464,3803.0547579183,3012173.3422583,14.512791279128,0,0
-144.71993525167,-69.743413276818,9.3172217221722,1401096.5254464,3803.0547579183,3012173.3422583,14.517221722172,0,0
-144.71993514806,-69.757767377168,9.3216521652165,1401096.5254464,3803.0547579183,3012173.3422583,14.521652165217,0,0
-144.71993504414,-69.772121478689,9.3260826082608,1401872.9748977,-6110.7669103876,2987524.869868,14.526082608261,0,0
-144.71993493982,-69.78647558169,9.3305130513051,1401872.9748977,-6110.7669103876,2987524.869868,14.530513051305,0,0
-144.7199348355,-69.800829684691,9.3349434943494,1401872.9748977,-6110.7669103876,2987524.869868,14.534943494349,0,0
-144.71993473118,-69.815183787691,9.3393739373937,1401872.9748977,-6110.7669103876,2987524.869868,14.539373937394,0,0
-144.71993462686,-69.829537890692,9.343804380438,1401872.9748977,-6110.7669103876,2987524.869868,14.543804380438,0,0
-144.71993452254,-69.843891993693,9.3482348234823,1401872.9748977,-6110.7669103876,2987524.869868,14.548234823482,0,0
-144.71993441822,-69.858246096694,9.3526652665267,1401872.9748977,-6110.7669103876,2987524.869868,14.552665266527,0,0
-144.7199343139,-69.872600199695,9.357095709571,1401872.9748977,-6110.7669103876,2987524.869868,14.557095709571,0,0
-144.71993420958,-69.886954302695,9.3615261526153,1401872.9748977,-6110.7669103876,2987524.869868,14.561526152615,0,0
-144.71993410526,-69.901308405696,9.3659565956596,1401872.9748977,-6110.7669103876,2987524.869868,14.56595659566,0,0
-144.71993400094,-69.915662508697,9.3703870387039,1401872.9748977,-6110.7669103876,2987524.869868,14.570387038704,0,0
-144.71993389662,-69.930016611698,9.3748174817482,1401872.9748977,-6110.7669103876,2987524.869868,14.574817481748,0,0
-144.7199337923,-69.944370714699,9.3792479247925,1401872.9748977,-6110.7669103876,2987524.869868,14.579247924792,0,0
-144.71993368798,-69.9587248177,9.3836783678368,1401872.9748977,-6110.7669103876,2987524.869868,14.583678367837,0,0
-144.71993358366,-69.9730789207,9.3881088108811,1401872.9748977,-6110.7669103876,2987524.869868,14.588108810881,0,0
-144.71993347934,-69.987433023701,9.3925392539254,1401872.9748977,-6110.7669103876,2987524.869868,14.592539253925,0,0
-144.71993337502,-70.001787126702,9.3969696969697,1401872.9748977,-6110.7669103876,2987524.869868,14.59696969697,0,0
-144.7199332707,-70.016141229703,9.401400140014,1401872.9748977,-6110.7669103876,2987524.869868,14.601400140014,0,0
-144.71993316638,-70.030495332704,9.4058305830583,1401872.9748977,-6110.7669103876,2987524.869868,14.605830583058,0,0
-144.71993306206,-70.044849435704,9.4102610261026,1401872.9748977,-6110.7669103876,2987524.869868,14.610261026103,0,0
-144.71993295774,-70.059203538705,9.4146914691469,1401872.9748977,-6110.7669103876,2987524.869868,14.614691469147,0,0
-144.71993285342,-70.073557641706,9.4191219121912,1401872.9748977,-6110.7669103876,2987524.869868,14.619121912191,0,0
-144.7199327491,-70.087911744707,9.4235523552355,1401872.9748977,-6110.7669103876,2987524.869868,14.623552355236,0,0
-144.71993264478,-70.102265847708,9.4279827982798,1401872.9748977,-6110.7669103876,2987524.869868,14.62798279828,0,0
-144.71993254046,-70.116619950709,9.4324132413241,1401872.9748977,-6110.7669103876,2987524.869868,14.632413241324,0,0
-144.71993243614,-70.130974053709,9.4368436843684,1401872.9748977,-6110.7669103876,2987524.869868,14.636843684368,0,0
-144.71993233182,-70.14532815671,9.4412741274127,1401872.9748977,-6110.7669103876,2987524.869868,14.641274127413,0,0
-144.7199322275,-70.159682259711,9.445704570457,1401872.9748977,-6110.7669103876,2987524.869868,14.645704570457,0,0
-144.71993212318,-70.174036362712,9.4501350135013,1401872.9748977,-6110.7669103876,2987524.869868,14.650135013501,0,0
-144.71993201886,-70.188390465713,9.4545654565457,1401872.9748977,-6110.7669103876,2987524.869868,14.654565456546,0,0
-144.71993191454,-70.202744568713,9.45899589959,1401872.9748977,-6110.7669103876,2987524.869868,14.65899589959,0,0
-144.71993181022,-70.217098671714,9.4634263426343,1401872.9748977,-6110.7669103876,2987524.869868,14.663426342634,0,0
-144.7199317059,-70.231452774715,9.4678567856786,1401872.9748977,-6110.7669103876,2987524.869868,14.667856785679,0,0
-144.71993160158,-70.245806877716,9.4722872287229,1401872.9748977,-6110.7669103876,2987524.869868,14.672287228723,0,0
-144.71993149726,-70.260160980717,9.4767176717672,1401872.9748977,-6110.7669103876,2987524.869868,14.676717671767,0,0
-144.71993139294,-70.274515083718,9.4811481148115,1401872.9748977,-6110.7669103876,2987524.869868,14.681148114811,0,0
-144.71993128862,-70.288869186718,9.4855785578558,1401872.9748977,-6110.7669103876,2987524.869868,14.685578557856,0,0
-144.7199311843,-70.303223289719,9.4900090009001,1401872.9748977,-6110.7669103876,2987524.869868,14.6900090009,0,0
-144.71993107997,-70.31757739272,9.4944394439444,1401872.9748977,-6110.7669103876,2987524.869868,14.694439443944,0,0
-144.71993097565,-70.331931495721,9.4988698869887,1401872.9748977,-6110.7669103876,2987524.869868,14.698869886989,0,0
-144.71993087133,-70.346285598722,9.503300330033,1401872.9748977,-6110.7669103876,2987524.869868,14.703300330033,0,0
-144.71993076701,-70.360639701722,9.5077307730773,1401872.9748977,-6110.7669103876,2987524.869868,14.707730773077,0,0
-144.71993066269,-70.374993804723,9.5121612161216,1401872.9748977,-6110.7669103876,2987524.869868,14.712161216122,0,0
-144.71993055837,-70.389347907724,9.5165916591659,1401872.9748977,-6110.7669103876,2987524.869868,14.716591659166,0,0
-144.71993045405,-70.403702010725,9.5210221022102,1401872.9748977,-6110.7669103876,2987524.869868,14.72102210221,0,0
-144.71993034973,-70.418056113726,9.5254525452545,1401872.9748977,-6110.7669103876,2987524.869868,14.725452545255,0,0
-144.71993024541,-70.432410216726,9.5298829882988,1401872.9748977,-6110.7669103876,2987524.869868,14.729882988299,0,0
-144.71993014109,-70.446764319727,9.5343134313431,1401872.9748977,-6110.7669103876,2987524.869868,14.734313431343,0,0
-144.71993003677,-70.461118422728,9.5387438743874,1401872.9748977,-6110.7669103876,2987524.869868,14.738743874387,0,0
-144.71992993245,-70.475472525729,9.5431743174317,1401872.9748977,-6110.7669103876,2987524.869868,14.743174317432,0,0
-144.71992982813,-70.48982662873,9.547604760476,1401872.9748977,-6110.7669103876,2987524.869868,14.747604760476,0,0
-144.71992972381,-70.504180731731,9.5520352035204,1401872.9748977,-6110.7669103876,2987524.869868,14.75203520352,0,0
-144.71992961949,-70.518534834731,9.5564656465647,1401872.9748977,-6110.7669103876,2987524.869868,14.756465646565,0,0
-144.71992951517,-70.532888937732,9.560896089609,1401872.9748977,-6110.7669103876,2987524.869868,14.760896089609,0,0
-144.71992941085,-70.547243040733,9.5653265326533,1401872.9748977,-6110.7669103876,2987524.869868,14.765326532653,0,0
-144.71992930653,-70.561597143734,9.5697569756976,1401872.9748977,-6110.7669103876,2987524.869868,14.769756975698,0,0
-144.71992920221,-70.575951246735,9.5741874187419,1401872.9748977,-6110.7669103876,2987524.869868,14.774187418742,0,0
-144.71992909789,-70.590305349735,9.5786178617862,1401872.9748977,-6110.7669103876,2987524.869868,14.778617861786,0,0
-144.71992899357,-70.604659452736,9.5830483048305,1401872.9748977,-6110.7669103876,2987524.869868,14.78304830483,0,0
-144.71992888925,-70.619013555737,9.5874787478748,1401872.9748977,-6110.7669103876,2987524.869868,14.787478747875,0,0
-144.71992878493,-70.633367658738,9.5919091909191,1401872.9748977,-6110.7669103876,2987524.869868,14.791909190919,0,0
-144.71992868061,-70.647721761739,9.5963396339634,1401872.9748977,-6110.7669103876,2987524.869868,14.796339633963,0,0
-144.71992857629,-70.66207586474,9.6007700770077,1401872.9748977,-6110.7669103876,2987524.869868,14.800770077008,0,0
-144.71992847197,-70.67642996774,9.605200520052,1401872.9748977,-6110.7669103876,2987524.869868,14.805200520052,0,0
-144.71992836765,-70.690784070741,9.6096309630963,1401872.9748977,-6110.7669103876,2987524.869868,14.809630963096,0,0
-144.71992826333,-70.705138173742,9.6140614061406,1401872.9748977,-6110.7669103876,2987524.869868,14.814061406141,0,0
-144.71992815901,-70.719492276743,9.6184918491849,1401872.9748977,-6110.7669103876,2987524.869868,14.818491849185,0,0
-144.71992805469,-70.733846379744,9.6229222922292,1401872.9748977,-6110.7669103876,2987524.869868,14.822922292229,0,0
-144.71992795037,-70.748200482744,9.6273527352735,1401872.9748977,-6110.7669103876,2987524.869868,14.827352735274,0,0
-144.71992784605,-70.762554585745,9.6317831783178,1401872.9748977,-6110.7669103876,2987524.869868,14.831783178318,0,0
-144.71992774173,-70.776908688746,9.6362136213621,1401872.9748977,-6110.7669103876,2987524.869868,14.836213621362,0,0
-144.71992763741,-70.791262791747,9.6406440644064,1401872.9748977,-6110.7669103876,2987524.869868,14.840644064406,0,0
-144.71992753309,-70.805616894748,9.6450745074507,1401872.9748977,-6110.7669103876,2987524.869868,14.845074507451,0,0
-144.71992742877,-70.819970997749,9.6495049504951,1401872.9748977,-6110.7669103876,2987524.869868,14.849504950495,0,0
-144.71992732445,-70.834325100749,9.6539353935394,1401872.9748977,-6110.7669103876,2987524.869868,14.853935393539,0,0
-144.71992722012,-70.84867920375,9.6583658365837,1401872.9748977,-6110.7669103876,2987524.869868,14.858365836584,0,0
-144.7199271158,-70.863033306751,9.662796279628,1401872.9748977,-6110.7669103876,2987524.869868,14.862796279628,0,0
-144.71992701148,-70.877387409752,9.6672267226723,1401872.9748977,-6110.7669103876,2987524.869868,14.867226722672,0,0
-144.71992690716,-70.891741512753,9.6716571657166,1401872.9748977,-6110.7669103876,2987524.869868,14.871657165717,0,0
-144.71992680284,-70.906095615753,9.6760876087609,1401872.9748977,-6110.7669103876,2987524.869868,14.876087608761,0,0
-144.71992669852,-70.920449718754,9.6805180518052,1401872.9748977,-6110.7669103876,2987524.869868,14.880518051805,0,0
-144.7199265942,-70.934803821755,9.6849484948495,1401872.9748977,-6110.7669103876,2987524.869868,14.884948494849,0,0
-144.71992648988,-70.949157924756,9.6893789378938,1401872.9748977,-6110.7669103876,2987524.869868,14.889378937894,0,0
-144.71992638556,-70.963512027757,9.6938093809381,1401872.9748977,-6110.7669103876,2987524.869868,14.893809380938,0,0
-144.71992628124,-70.977866130757,9.6982398239824,1401872.9748977,-6110.7669103876,2987524.869868,14.898239823982,0,0
-144.71992617692,-70.992220233758,9.7026702670267,1401872.9748977,-6110.7669103876,2987524.869868,14.902670267027,0,0
-144.7199260726,-71.006574336759,9.707100710071,1401872.9748977,-6110.7669103876,2987524.869868,14.907100710071,0,0
-144.71992596828,-71.02092843976,9.7115311531153,1401872.9748977,-6110.7669103876,2987524.869868,14.911531153115,0,0
-144.71992586396,-71.035282542761,9.7159615961596,1401872.9748977,-6110.7669103876,2987524.869868,14.91596159616,0,0
-144.71992575964,-71.049636645762,9.7203920392039,1401872.9748977,-6110.7669103876,2987524.869868,14.920392039204,0,0
-144.71992565532,-71.063990748762,9.7248224822482,1401872.9748977,-6110.7669103876,2987524.869868,14.924822482248,0,0
-144.719925551,-71.078344851763,9.7292529252925,1401872.9748977,-6110.7669103876,2987524.869868,14.929252925293,0,0
-144.71992544668,-71.092698954764,9.7336833683368,1401872.9748977,-6110.7669103876,2987524.869868,14.933683368337,0,0
-144.71992534236,-71.107053057765,9.7381138113811,1401872.9748977,-6110.7669103876,2987524.869868,14.938113811381,0,0
-144.71992523804,-71.121407160766,9.7425442544254,1401872.9748977,-6110.7669103876,2987524.869868,14.942544254425,0,0
-144.71992513372,-71.135761263766,9.7469746974697,1401872.9748977,-6110.7669103876,2987524.869868,14.94697469747,0,0
-144.7199250294,-71.150115366767,9.7514051405141,1401872.9748977,-6110.7669103876,2987524.869868,14.951405140514,0,0
-144.71992492508,-71.164469469768,9.7558355835584,1401872.9748977,-6110.7669103876,2987524.869868,14.955835583558,0,0
-144.71992482076,-71.178823572769,9.7602660266027,1401872.9748977,-6110.7669103876,2987524.869868,14.960266026603,0,0
-144.71992471644,-71.19317767577,9.764696469647,1401872.9748977,-6110.7669103876,2987524.869868,14.964696469647,0,0
-144.71992461212,-71.207531778771,9.7691269126913,1401872.9748977,-6110.7669103876,2987524.869868,14.969126912691,0,0
-144.7199245078,-71.221885881771,9.7735573557356,1401872.9748977,-6110.7669103876,2987524.869868,14.973557355736,0,0
-144.71992440348,-71.236239984772,9.7779877987799,1401872.9748977,-6110.7669103876,2987524.869868,14.97798779878,0,0
-144.71992429916,-71.250594087773,9.7824182418242,1401872.9748977,-6110.7669103876,2987524.869868,14.982418241824,0,0
-144.71992419484,-71.264948190774,9.7868486848685,1401872.9748977,-6110.7669103876,2987524.869868,14.986848684868,0,0
-144.71992409052,-71.279302293775,9.7912791279128,1401872.9748977,-6110.7669103876,2987524.869868,14.991279127913,0,0
-144.7199239862,-71.293656396775,9.7957095709571,1401872.9748977,-6110.7669103876,2987524.869868,14.995709570957,0,0
-144.71992388188,-71.308010499776,9.8001400140014,1401872.9748977,-6110.7669103876,2987524.869868,15.000140014001,0,0
-144.71992377756,-71.322364602777,9.8045704570457,1401872.9748977,-6110.7669103876,2987524.869868,15.004570457046,0,0
-144.71992367324,-71.336718705778,9.80900090009,1401872.9748977,-6110.7669103876,2987524.869868,15.00900090009,0,0
-144.71992356892,-71.351072808779,9.8134313431343,1401872.9748977,-6110.7669103876,2987524.869868,15.013431343134,0,0
-144.7199234646,-71.36542691178,9.8178617861786,1401872.9748977,-6110.7669103876,2987524.869868,15.017861786179,0,0
-144.71992336027,-71.37978101478,9.8222922292229,1401872.9748977,-6110.7669103876,2987524.869868,15.022292229223,0,0
-144.71992325595,-71.394135117781,9.8267226722672,1401872.9748977,-6110.7669103876,2987524.869868,15.026722672267,0,0
-144.71992315163,-71.408489220782,9.8311531153115,1401872.9748977,-6110.7669103876,2987524.869868,15.031153115312,0,0
-144.71992304731,-71.422843323783,9.8355835583558,1401872.9748977,-6110.7669103876,2987524.869868,15.035583558356,0,0
-144.71992294299,-71.437197426784,9.8400140014001,1401872.9748977,-6110.7669103876,2987524.869868,15.0400140014,0,0
-144.71992283867,-71.451551529784,9.8444444444444,1401872.9748977,-6110.7669103876,2987524.869868,15.044444444444,0,0
-144.71992273435,-71.465905632785,9.8488748874887,1401872.9748977,-6110.7669103876,2987524.869868,15.048874887489,0,0
-144.71992263003,-71.480259735786,9.8533053305331,1401872.9748977,-6110.7669103876,2987524.869868,15.053305330533,0,0
-144.71992252571,-71.494613838787,9.8577357735774,1401872.9748977,-6110.7669103876,2987524.869868,15.057735773577,0,0
-144.71992242139,-71.508967941788,9.8621662166217,1401872.9748977,-6110.7669103876,2987524.869868,15.062166216622,0,0
-144.71992231707,-71.523322044789,9.866596659666,1401872.9748977,-6110.7669103876,2987524.869868,15.066596659666,0,0
-144.71992221275,-71.537676147789,9.8710271027103,1401872.9748977,-6110.7669103876,2987524.869868,15.07102710271,0,0
-144.71992210843,-71.55203025079,9.8754575457546,1401872.9748977,-6110.7669103876,2987524.869868,15.075457545755,0,0
-144.71992200411,-71.566384353791,9.8798879887989,1401872.9748977,-6110.7669103876,2987524.869868,15.079887988799,0,0
-144.71992189979,-71.580738456792,9.8843184318432,1401872.9748977,-6110.7669103876,2987524.869868,15.084318431843,0,0
-144.71992179547,-71.595092559793,9.8887488748875,1401872.9748977,-6110.7669103876,2987524.869868,15.088748874887,0,0
-144.71992169115,-71.609446662793,9.8931793179318,1401872.9748977,-6110.7669103876,2987524.869868,15.093179317932,0,0
-144.71992158683,-71.623800765794,9.8976097609761,1401872.9748977,-6110.7669103876,2987524.869868,15.097609760976,0,0
-144.71992148251,-71.638154868795,9.9020402040204,1401872.9748977,-6110.7669103876,2987524.869868,15.10204020402,0,0
-144.71992137819,-71.652508971796,9.9064706470647,1401872.9748977,-6110.7669103876,2987524.869868,15.106470647065,0,0
-144.71992127387,-71.666863074797,9.910901090109,1401872.9748977,-6110.7669103876,2987524.869868,15.110901090109,0,0
-144.71992116955,-71.681217177797,9.9153315331533,1401872.9748977,-6110.7669103876,2987524.869868,15.115331533153,0,0
-144.71992106523,-71.695571280798,9.9197619761976,1401872.9748977,-6110.7669103876,2987524.869868,15.119761976198,0,0
-144.71992096091,-71.709925383799,9.9241924192419,1401872.9748977,-6110.7669103876,2987524.869868,15.124192419242,0,0
-144.71992085659,-71.7242794868,9.9286228622862,1401872.9748977,-6110.7669103876,2987524.869868,15.128622862286,0,0
-144.71992075227,-71.738633589801,9.9330533053305,1401872.9748977,-6110.7669103876,2987524.869868,15.133053305331,0,0
-144.71992064795,-71.752987692802,9.9374837483748,1401872.9748977,-6110.7669103876,2987524.869868,15.137483748375,0,0
-144.71992054363,-71.767341795802,9.9419141914191,1401872.9748977,-6110.7669103876,2987524.869868,15.141914191419,0,0
-144.71992043931,-71.781695898803,9.9463446344634,1401872.9748977,-6110.7669103876,2987524.869868,15.146344634463,0,0
-144.71992033499,-71.796050001804,9.9507750775077,1401872.9748977,-6110.7669103876,2987524.869868,15.150775077508,0,0
-144.71992023067,-71.810404104805,9.9552055205521,1401872.9748977,-6110.7669103876,2987524.869868,15.155205520552,0,0
-144.71992012635,-71.824758207806,9.9596359635964,1401872.9748977,-6110.7669103876,2987524.869868,15.159635963596,0,0
-144.71992002203,-71.839112310806,9.9640664066407,1401872.9748977,-6110.7669103876,2987524.869868,15.164066406641,0,0
-144.71991991771,-71.853466413807,9.968496849685,1401872.9748977,-6110.7669103876,2987524.869868,15.168496849685,0,0
-144.71991981339,-71.867820516808,9.9729272927293,1401872.9748977,-6110.7669103876,2987524.869868,15.172927292729,0,0
-144.71991970907,-71.882174619809,9.9773577357736,1401872.9748977,-6110.7669103876,2987524.869868,15.177357735774,0,0
-144.71991960475,-71.89652872281,9.9817881788179,1401872.9748977,-6110.7669103876,2987524.869868,15.181788178818,0,0
-144.71991950043,-71.910882825811,9.9862186218622,1401872.9748977,-6110.7669103876,2987524.869868,15.186218621862,0,0
-144.7199193961,-71.925236928811,9.9906490649065,1401872.9748977,-6110.7669103876,2987524.869868,15.190649064906,0,0
-144.71991929178,-71.939591031812,9.9950795079508,1401872.9748977,-6110.7669103876,2987524.869868,15.195079507951,0,0
-144.71991918746,-71.953945134813,9.9995099509951,1401872.9748977,-6110.7669103876,2987524.869868,15.199509950995,0,0
-144.71991908314,-71.968299237814,10.003940394039,1401872.9748977,-6110.7669103876,2987524.869868,15.203940394039,0,0
-144.71991897882,-71.982653340815,10.008370837084,1401872.9748977,-6110.7669103876,2987524.869868,15.208370837084,0,0
-144.7199188745,-71.997007443815,10.012801280128,1401872.9748977,-6110.7669103876,2987524.869868,15.212801280128,0,0
-144.71991877018,-72.011361546816,10.017231723172,1401872.9748977,-6110.7669103876,2987524.869868,15.217231723172,0,0
-144.71991866586,-72.025715649817,10.021662166217,1401872.9748977,-6110.7669103876,2987524.869868,15.221662166217,0,0
-144.71991856154,-72.040069752818,10.026092609261,1401872.9748977,-6110.7669103876,2987524.869868,15.226092609261,0,0
-144.71991845722,-72.054423855819,10.030523052305,1401872.9748977,-6110.7669103876,2987524.869868,15.230523052305,0,0
-144.7199183529,-72.068777958819,10.03495349535,1401872.9748977,-6110.7669103876,2987524.869868,15.23495349535,0,0
-144.71991824858,-72.08313206182,10.039383938394,1401872.9748977,-6110.7669103876,2987524.869868,15.239383938394,0,0
-144.71991814426,-72.097486164821,10.043814381438,1401872.9748977,-6110.7669103876,2987524.869868,15.243814381438,0,0
-144.71991803994,-72.111840267822,10.048244824482,1401872.9748977,-6110.7669103876,2987524.869868,15.248244824482,0,0
-144.71991793562,-72.126194370823,10.052675267527,1401872.9748977,-6110.7669103876,2987524.869868,15.252675267527,0,0
-144.7199178313,-72.140548473824,10.057105710571,1401872.9748977,-6110.7669103876,2987524.869868,15.257105710571,0,0
-144.71991772698,-72.154902576824,10.061536153615,1401872.9748977,-6110.7669103876,2987524.869868,15.261536153615,0,0
-144.71991762266,-72.169256679825,10.06596659666,1401872.9748977,-6110.7669103876,2987524.869868,15.26596659666,0,0
-144.71991751834,-72.183610782826,10.070397039704,1401872.9748977,-6110.7669103876,2987524.869868,15.270397039704,0,0
-144.71991741402,-72.197964885827,10.074827482748,1401872.9748977,-6110.7669103876,2987524.869868,15.274827482748,0,0
-144.7199173097,-72.212318988828,10.079257925793,1401872.9748977,-6110.7669103876,2987524.869868,15.279257925793,0,0
-144.71991720538,-72.226673091828,10.083688368837,1401872.9748977,-6110.7669103876,2987524.869868,15.283688368837,0,0
-144.71991710106,-72.241027194829,10.088118811881,1401872.9748977,-6110.7669103876,2987524.869868,15.288118811881,0,0
-144.71991699674,-72.25538129783,10.092549254925,1401872.9748977,-6110.7669103876,2987524.869868,15.292549254925,0,0
-144.71991689242,-72.269735400831,10.09697969797,1401872.9748977,-6110.7669103876,2987524.869868,15.29697969797,0,0
-144.7199167881,-72.284089503832,10.101410141014,1401872.9748977,-6110.7669103876,2987524.869868,15.301410141014,0,0
-144.71991668378,-72.298443606833,10.105840584058,1401872.9748977,-6110.7669103876,2987524.869868,15.305840584058,0,0
-144.71991657946,-72.312797709833,10.110271027103,1401872.9748977,-6110.7669103876,2987524.869868,15.310271027103,0,0
-144.71991647514,-72.327151812834,10.114701470147,1401872.9748977,-6110.7669103876,2987524.869868,15.314701470147,0,0
-144.71991637082,-72.341505915835,10.119131913191,1401872.9748977,-6110.7669103876,2987524.869868,15.319131913191,0,0
-144.7199162665,-72.355860018836,10.123562356236,1401872.9748977,-6110.7669103876,2987524.869868,15.323562356236,0,0
-144.71991616218,-72.370214121837,10.12799279928,1401872.9748977,-6110.7669103876,2987524.869868,15.32799279928,0,0
-144.71991605786,-72.384568224837,10.132423242324,1401872.9748977,-6110.7669103876,2987524.869868,15.332423242324,0,0
-144.71991595354,-72.398922327838,10.136853685369,1401872.9748977,-6110.7669103876,2987524.869868,15.336853685369,0,0
-144.71991584922,-72.413276430839,10.141284128413,1401872.9748977,-6110.7669103876,2987524.869868,15.341284128413,0,0
-144.7199157449,-72.42763053384,10.145714571457,1401872.9748977,-6110.7669103876,2987524.869868,15.345714571457,0,0
-144.71991564058,-72.441984636841,10.150145014501,1401872.9748977,-6110.7669103876,2987524.869868,15.350145014501,0,0
-144.71991553625,-72.456338739842,10.154575457546,1401872.9748977,-6110.7669103876,2987524.869868,15.354575457546,0,0
-144.71991543193,-72.470692842842,10.15900590059,1401872.9748977,-6110.7669103876,2987524.869868,15.35900590059,0,0
-144.71991532761,-72.485046945843,10.163436343634,1401872.9748977,-6110.7669103876,2987524.869868,15.363436343634,0,0
-144.71991522329,-72.499401048844,10.167866786679,1401872.9748977,-6110.7669103876,2987524.869868,15.367866786679,0,0
-144.71991511897,-72.513755151845,10.172297229723,1401872.9748977,-6110.7669103876,2987524.869868,15.372297229723,0,0
-144.71991501465,-72.528109254846,10.176727672767,1401872.9748977,-6110.7669103876,2987524.869868,15.376727672767,0,0
-144.71991491033,-72.542463357846,10.181158115812,1401872.9748977,-6110.7669103876,2987524.869868,15.381158115812,0,0
-144.71991480601,-72.556817460847,10.185588558856,1401872.9748977,-6110.7669103876,2987524.869868,15.385588558856,0,0
-144.71991470169,-72.571171563848,10.1900190019,1401872.9748977,-6110.7669103876,2987524.869868,15.3900190019,0,0
-144.71991459737,-72.585525666849,10.194449444944,1401872.9748977,-6110.7669103876,2987524.869868,15.394449444944,0,0
-144.71991449305,-72.59987976985,10.198879887989,1401872.9748977,-6110.7669103876,2987524.869868,15.398879887989,0,0
-144.71991438873,-72.614233872851,10.203310331033,1401872.9748977,-6110.7669103876,2987524.869868,15.403310331033,0,0
-144.71991428441,-72.628587975851,10.207740774077,1401872.9748977,-6110.7669103876,2987524.869868,15.407740774077,0,0
-144.71991418009,-72.642942078852,10.212171217122,1401872.9748977,-6110.7669103876,2987524.869868,15.412171217122,0,0
-144.71991407576,-72.657296180793,10.216601660166,1397298.6849261,2961.5903280501,2972853.0892065,15.416601660166,0,0
-144.71991397141,-72.671650281848,10.22103210321,1397298.6849261,2961.5903280501,2972853.0892065,15.42103210321,0,0
-144.71991386707,-72.686004382902,10.225462546255,1397298.6849261,2961.5903280501,2972853.0892065,15.425462546255,0,0
-144.71991376272,-72.700358483957,10.229892989299,1397298.6849261,2961.5903280501,2972853.0892065,15.429892989299,0,0
-144.71991365838,-72.714712585012,10.234323432343,1397298.6849261,2961.5903280501,2972853.0892065,15.434323432343,0,0
-144.71991355403,-72.729066686067,10.238753875388,1397298.6849261,2961.5903280501,2972853.0892065,15.438753875388,0,0
-144.71991344968,-72.743420787122,10.243184318432,1397298.6849261,2961.5903280501,2972853.0892065,15.443184318432,0,0
-144.71991334534,-72.757774888176,10.247614761476,1397298.6849261,2961.5903280501,2972853.0892065,15.447614761476,0,0
-144.71991324099,-72.772128989231,10.25204520452,1397298.6849261,2961.5903280501,2972853.0892065,15.45204520452,0,0
-144.71991313665,-72.786483090286,10.256475647565,1397298.6849261,2961.5903280501,2972853.0892065,15.456475647565,0,0
-144.7199130323,-72.800837191341,10.260906090609,1397298.6849261,2961.5903280501,2972853.0892065,15.460906090609,0,0
-144.71991292796,-72.815191292395,10.265336533653,1397298.6849261,2961.5903280501,2972853.0892065,15.465336533653,0,0
-144.71991282361,-72.82954539345,10.269766976698,1397298.6849261,2961.5903280501,2972853.0892065,15.469766976698,0,0
-144.71991271927,-72.843899494505,10.274197419742,1397298.6849261,2961.5903280501,2972853.0892065,15.474197419742,0,0
-144.71991261492,-72.85825359556,10.278627862786,1397298.6849261,2961.5903280501,2972853.0892065,15.478627862786,0,0
-144.71991251057,-72.872607696614,10.283058305831,1397298.6849261,2961.5903280501,2972853.0892065,15.483058305831,0,0
-144.71991240623,-72.886961797669,10.287488748875,1397298.6849261,2961.5903280501,2972853.0892065,15.487488748875,0,0
-144.71991230188,-72.901315898724,10.291919191919,1397298.6849261,2961.5903280501,2972853.0892065,15.491919191919,0,0
-144.71991219754,-72.915669999779,10.296349634963,1397298.6849261,2961.5903280501,2972853.0892065,15.496349634963,0,0
-144.71991209319,-72.930024100833,10.300780078008,1397298.6849261,2961.5903280501,2972853.0892065,15.500780078008,0,0
-144.71991198885,-72.944378201888,10.305210521052,1397298.6849261,2961.5903280501,2972853.0892065,15.505210521052,0,0
-144.7199118845,-72.958732302943,10.309640964096,1397298.6849261,2961.5903280501,2972853.0892065,15.509640964096,0,0
-144.71991178016,-72.973086403998,10.314071407141,1397298.6849261,2961.5903280501,2972853.0892065,15.514071407141,0,0
-144.71991167581,-72.987440505052,10.318501850185,1397298.6849261,2961.5903280501,2972853.0892065,15.518501850185,0,0
-144.71991157146,-73.001794606107,10.322932293229,1397298.6849261,2961.5903280501,2972853.0892065,15.522932293229,0,0
-144.71991146712,-73.016148707162,10.327362736274,1397298.6849261,2961.5903280501,2972853.0892065,15.527362736274,0,0
-144.71991136277,-73.030502808217,10.331793179318,1397298.6849261,2961.5903280501,2972853.0892065,15.531793179318,0,0
-144.71991125843,-73.044856909271,10.336223622362,1397298.6849261,2961.5903280501,2972853.0892065,15.536223622362,0,0
-144.71991115408,-73.059211010326,10.340654065407,1397298.6849261,2961.5903280501,2972853.0892065,15.540654065407,0,0
-144.71991104974,-73.073565111381,10.345084508451,1397298.6849261,2961.5903280501,2972853.0892065,15.545084508451,0,0
-144.71991094539,-73.087919212436,10.349514951495,1397298.6849261,2961.5903280501,2972853.0892065,15.549514951495,0,0
-144.71991084105,-73.10227331349,10.353945394539,1397298.6849261,2961.5903280501,2972853.0892065,15.553945394539,0,0
-144.7199107367,-73.116627414545,10.358375837584,1397298.6849261,2961.5903280501,2972853.0892065,15.558375837584,0,0
-144.71991063235,-73.1309815156,10.362806280628,1397298.6849261,2961.5903280501,2972853.0892065,15.562806280628,0,0
-144.71991052801,-73.145335616655,10.367236723672,1397298.6849261,2961.5903280501,2972853.0892065,15.567236723672,0,0
-144.71991042366,-73.159689717709,10.371667166717,1397298.6849261,2961.5903280501,2972853.0892065,15.571667166717,0,0
-144.71991031932,-73.174043818764,10.376097609761,1397298.6849261,2961.5903280501,2972853.0892065,15.576097609761,0,0
-144.71991021497,-73.188397919819,10.380528052805,1397298.6849261,2961.5903280501,2972853.0892065,15.580528052805,0,0
-144.71991011063,-73.202752020874,10.38495849585,1397298.6849261,2961.5903280501,2972853.0892065,15.58495849585,0,0
-144.71991000628,-73.217106121928,10.389388938894,1397298.6849261,2961.5903280501,2972853.0892065,15.589388938894,0,0
-144.71990990194,-73.231460222983,10.393819381938,1397298.6849261,2961.5903280501,2972853.0892065,15.593819381938,0,0
-144.71990979735,-73.245814325013,10.398249824982,1397363.7678895,-5333.216697727,2953387.2585283,15.598249824982,0,0
-144.71990969248,-73.260168428214,10.402680268027,1397363.7678895,-5333.216697727,2953387.2585283,15.602680268027,0,0
-144.71990958761,-73.274522531415,10.407110711071,1397363.7678895,-5333.216697727,2953387.2585283,15.607110711071,0,0
-144.71990948275,-73.288876634616,10.411541154115,1397363.7678895,-5333.216697727,2953387.2585283,15.611541154115,0,0
-144.71990937788,-73.303230737817,10.41597159716,1397363.7678895,-5333.216697727,2953387.2585283,15.61597159716,0,0
-144.71990927301,-73.317584841019,10.420402040204,1397363.7678895,-5333.216697727,2953387.2585283,15.620402040204,0,0
-144.71990916814,-73.33193894422,10.424832483248,1397363.7678895,-5333.216697727,2953387.2585283,15.624832483248,0,0
-144.71990906327,-73.346293047421,10.429262926293,1397363.7678895,-5333.216697727,2953387.2585283,15.629262926293,0,0
-144.7199089584,-73.360647150622,10.433693369337,1397363.7678895,-5333.216697727,2953387.2585283,15.633693369337,0,0
-144.71990885353,-73.375001253823,10.438123812381,1397363.7678895,-5333.216697727,2953387.2585283,15.638123812381,0,0
-144.71990874866,-73.389355357025,10.442554255426,1397363.7678895,-5333.216697727,2953387.2585283,15.642554255426,0,0
-144.71990864379,-73.403709460226,10.44698469847,1397363.7678895,-5333.216697727,2953387.2585283,15.64698469847,0,0
-144.71990853892,-73.418063563427,10.451415141514,1397363.7678895,-5333.216697727,2953387.2585283,15.651415141514,0,0
-144.71990843406,-73.432417666628,10.455845584558,1397363.7678895,-5333.216697727,2953387.2585283,15.655845584558,0,0
-144.71990832919,-73.446771769829,10.460276027603,1397363.7678895,-5333.216697727,2953387.2585283,15.660276027603,0,0
-144.71990822432,-73.46112587303,10.464706470647,1397363.7678895,-5333.216697727,2953387.2585283,15.664706470647,0,0
-144.71990811945,-73.475479976232,10.469136913691,1397363.7678895,-5333.216697727,2953387.2585283,15.669136913691,0,0
-144.71990801458,-73.489834079433,10.473567356736,1397363.7678895,-5333.216697727,2953387.2585283,15.673567356736,0,0
-144.71990790971,-73.504188182634,10.47799779978,1397363.7678895,-5333.216697727,2953387.2585283,15.67799779978,0,0
-144.71990780484,-73.518542285835,10.482428242824,1397363.7678895,-5333.216697727,2953387.2585283,15.682428242824,0,0
-144.71990769997,-73.532896389036,10.486858685869,1397363.7678895,-5333.216697727,2953387.2585283,15.686858685869,0,0
-144.7199075951,-73.547250492238,10.491289128913,1397363.7678895,-5333.216697727,2953387.2585283,15.691289128913,0,0
-144.71990749023,-73.561604595439,10.495719571957,1397363.7678895,-5333.216697727,2953387.2585283,15.695719571957,0,0
-144.71990738537,-73.57595869864,10.500150015001,1397363.7678895,-5333.216697727,2953387.2585283,15.700150015001,0,0
-144.7199072805,-73.590312801841,10.504580458046,1397363.7678895,-5333.216697727,2953387.2585283,15.704580458046,0,0
-144.71990717563,-73.604666905042,10.50901090109,1397363.7678895,-5333.216697727,2953387.2585283,15.70901090109,0,0
-144.71990707076,-73.619021008244,10.513441344134,1397363.7678895,-5333.216697727,2953387.2585283,15.713441344134,0,0
-144.71990696589,-73.633375111445,10.517871787179,1397363.7678895,-5333.216697727,2953387.2585283,15.717871787179,0,0
-144.71990686102,-73.647729214646,10.522302230223,1397363.7678895,-5333.216697727,2953387.2585283,15.722302230223,0,0
-144.71990675615,-73.662083317847,10.526732673267,1397363.7678895,-5333.216697727,2953387.2585283,15.726732673267,0,0
-144.71990665128,-73.676437421048,10.531163116312,1397363.7678895,-5333.216697727,2953387.2585283,15.731163116312,0,0
-144.71990654641,-73.690791524249,10.535593559356,1397363.7678895,-5333.216697727,2953387.2585283,15.735593559356,0,0
-144.71990644154,-73.705145627451,10.5400240024,1397363.7678895,-5333.216697727,2953387.2585283,15.7400240024,0,0
-144.71990633668,-73.719499730652,10.544454445445,1397363.7678895,-5333.216697727,2953387.2585283,15.744454445445,0,0
-144.71990623181,-73.733853833853,10.548884888489,1397363.7678895,-5333.216697727,2953387.2585283,15.748884888489,0,0
-144.71990612694,-73.748207937054,10.553315331533,1397363.7678895,-5333.216697727,2953387.2585283,15.753315331533,0,0
-144.71990602207,-73.762562040255,10.557745774577,1397363.7678895,-5333.216697727,2953387.2585283,15.757745774577,0,0
-144.7199059172,-73.776916143457,10.562176217622,1397363.7678895,-5333.216697727,2953387.2585283,15.762176217622,0,0
-144.71990581233,-73.791270246658,10.566606660666,1397363.7678895,-5333.216697727,2953387.2585283,15.766606660666,0,0
-144.71990570746,-73.805624349859,10.57103710371,1397363.7678895,-5333.216697727,2953387.2585283,15.77103710371,0,0
-144.71990560259,-73.81997845306,10.575467546755,1397363.7678895,-5333.216697727,2953387.2585283,15.775467546755,0,0
-144.71990549772,-73.834332556261,10.579897989799,1397363.7678895,-5333.216697727,2953387.2585283,15.779897989799,0,0
-144.71990539285,-73.848686659463,10.584328432843,1397363.7678895,-5333.216697727,2953387.2585283,15.784328432843,0,0
-144.71990528799,-73.863040762664,10.588758875888,1397363.7678895,-5333.216697727,2953387.2585283,15.788758875888,0,0
-144.71990518312,-73.877394865865,10.593189318932,1397363.7678895,-5333.216697727,2953387.2585283,15.793189318932,0,0
-144.71990507825,-73.891748969066,10.597619761976,1397363.7678895,-5333.216697727,2953387.2585283,15.797619761976,0,0
-144.71990497338,-73.906103072267,10.602050205021,1397363.7678895,-5333.216697727,2953387.2585283,15.80205020502,0,0
-144.71990486851,-73.920457175469,10.606480648065,1397363.7678895,-5333.216697727,2953387.2585283,15.806480648065,0,0
-144.71990476364,-73.93481127867,10.610911091109,1397363.7678895,-5333.216697727,2953387.2585283,15.810911091109,0,0
-144.71990465877,-73.949165381871,10.615341534153,1397363.7678895,-5333.216697727,2953387.2585283,15.815341534153,0,0
-144.7199045539,-73.963519485072,10.619771977198,1397363.7678895,-5333.216697727,2953387.2585283,15.819771977198,0,0
-144.71990444903,-73.977873588273,10.624202420242,1397363.7678895,-5333.216697727,2953387.2585283,15.824202420242,0,0
-144.71990434416,-73.992227691474,10.628632863286,1397363.7678895,-5333.216697727,2953387.2585283,15.828632863286,0,0
-144.7199042393,-74.006581794676,10.633063306331,1397363.7678895,-5333.216697727,2953387.2585283,15.833063306331,0,0
-144.71990413443,-74.020935897877,10.637493749375,1397363.7678895,-5333.216697727,2953387.2585283,15.837493749375,0,0
-144.71990402956,-74.035290001078,10.641924192419,1397363.7678895,-5333.216697727,2953387.2585283,15.841924192419,0,0
-144.71990392469,-74.049644104279,10.646354635464,1397363.7678895,-5333.216697727,2953387.2585283,15.846354635464,0,0
-144.71990381982,-74.06399820748,10.650785078508,1397363.7678895,-5333.216697727,2953387.2585283,15.850785078508,0,0
-144.71990371495,-74.078352310682,10.655215521552,1397363.7678895,-5333.216697727,2953387.2585283,15.855215521552,0,0
-144.71990361008,-74.092706413883,10.659645964596,1397363.7678895,-5333.216697727,2953387.2585283,15.859645964596,0,0
-144.71990350521,-74.107060517084,10.664076407641,1397363.7678895,-5333.216697727,2953387.2585283,15.864076407641,0,0
-144.71990340034,-74.121414620285,10.668506850685,1397363.7678895,-5333.216697727,2953387.2585283,15.868506850685,0,0
-144.71990329547,-74.135768723486,10.672937293729,1397363.7678895,-5333.216697727,2953387.2585283,15.872937293729,0,0
-144.7199031906,-74.150122826688,10.677367736774,1397363.7678895,-5333.216697727,2953387.2585283,15.877367736774,0,0
-144.71990308574,-74.164476929889,10.681798179818,1397363.7678895,-5333.216697727,2953387.2585283,15.881798179818,0,0
-144.71990298087,-74.17883103309,10.686228622862,1397363.7678895,-5333.216697727,2953387.2585283,15.886228622862,0,0
-144.719902876,-74.193185136291,10.690659065907,1397363.7678895,-5333.216697727,2953387.2585283,15.890659065907,0,0
-144.71990277113,-74.207539239492,10.695089508951,1397363.7678895,-5333.216697727,2953387.2585283,15.895089508951,0,0
-144.71990266626,-74.221893342693,10.699519951995,1397363.7678895,-5333.216697727,2953387.2585283,15.899519951995,0,0
-144.71990256139,-74.236247445895,10.70395039504,1397363.7678895,-5333.216697727,2953387.2585283,15.90395039504,0,0
-144.71990245652,-74.250601549096,10.708380838084,1397363.7678895,-5333.216697727,2953387.2585283,15.908380838084,0,0
-144.71990235165,-74.264955652297,10.712811281128,1397363.7678895,-5333.216697727,2953387.2585283,15.912811281128,0,0
-144.71990224678,-74.279309755498,10.717241724172,1397363.7678895,-5333.216697727,2953387.2585283,15.917241724172,0,0
-144.71990214191,-74.293663858699,10.721672167217,1397363.7678895,-5333.216697727,2953387.2585283,15.921672167217,0,0
-144.71990203705,-74.308017961901,10.726102610261,1397363.7678895,-5333.216697727,2953387.2585283,15.926102610261,0,0
-144.71990193218,-74.322372065102,10.730533053305,1397363.7678895,-5333.216697727,2953387.2585283,15.930533053305,0,0
-144.71990182731,-74.336726168303,10.73496349635,1397363.7678895,-5333.216697727,2953387.2585283,15.93496349635,0,0
-144.71990172244,-74.351080271504,10.739393939394,1397363.7678895,-5333.216697727,2953387.2585283,15.939393939394,0,0
-144.71990161757,-74.365434374705,10.743824382438,1397363.7678895,-5333.216697727,2953387.2585283,15.943824382438,0,0
-144.7199015127,-74.379788477907,10.748254825483,1397363.7678895,-5333.216697727,2953387.2585283,15.948254825483,0,0
-144.71990140783,-74.394142581108,10.752685268527,1397363.7678895,-5333.216697727,2953387.2585283,15.952685268527,0,0
-144.71990130296,-74.408496684309,10.757115711571,1397363.7678895,-5333.216697727,2953387.2585283,15.957115711571,0,0
-144.71990119809,-74.42285078751,10.761546154615,1397363.7678895,-5333.216697727,2953387.2585283,15.961546154615,0,0
-144.71990109322,-74.437204890711,10.76597659766,1397363.7678895,-5333.216697727,2953387.2585283,15.96597659766,0,0
-144.71990098836,-74.451558993912,10.770407040704,1397363.7678895,-5333.216697727,2953387.2585283,15.970407040704,0,0
-144.71990088349,-74.465913097114,10.774837483748,1397363.7678895,-5333.216697727,2953387.2585283,15.974837483748,0,0
-144.71990077862,-74.480267200315,10.779267926793,1397363.7678895,-5333.216697727,2953387.2585283,15.979267926793,0,0
-144.71990067375,-74.494621303516,10.783698369837,1397363.7678895,-5333.216697727,2953387.2585283,15.983698369837,0,0
-144.71990056888,-74.508975406717,10.788128812881,1397363.7678895,-5333.216697727,2953387.2585283,15.988128812881,0,0
-144.71990046401,-74.523329509918,10.792559255926,1397363.7678895,-5333.216697727,2953387.2585283,15.992559255926,0,0
-144.71990035914,-74.53768361312,10.79698969897,1397363.7678895,-5333.216697727,2953387.2585283,15.99698969897,0,0
-144.71990025427,-74.552037716321,10.801420142014,1397363.7678895,-5333.216697727,2953387.2585283,16.001420142014,0,0
-144.7199001494,-74.566391819522,10.805850585059,1397363.7678895,-5333.216697727,2953387.2585283,16.005850585059,0,0
-144.71990004453,-74.580745922723,10.810281028103,1397363.7678895,-5333.216697727,2953387.2585283,16.010281028103,0,0
-144.71989993967,-74.595100025924,10.814711471147,1397363.7678895,-5333.216697727,2953387.2585283,16.014711471147,0,0
-144.7198998348,-74.609454129126,10.819141914191,1397363.7678895,-5333.216697727,2953387.2585283,16.019141914191,0,0
-144.71989972993,-74.623808232327,10.823572357236,1397363.7678895,-5333.216697727,2953387.2585283,16.023572357236,0,0
-144.71989962506,-74.638162335528,10.82800280028,1397363.7678895,-5333.216697727,2953387.2585283,16.02800280028,0,0
-144.71989952019,-74.652516438729,10.832433243324,1397363.7678895,-5333.216697727,2953387.2585283,16.032433243324,0,0
-144.71989941532,-74.66687054193,10.836863686369,1397363.7678895,-5333.216697727,2953387.2585283,16.036863686369,0,0
-144.71989931045,-74.681224645131,10.841294129413,1397363.7678895,-5333.216697727,2953387.2585283,16.041294129413,0,0
-144.71989920558,-74.695578748333,10.845724572457,1397363.7678895,-5333.216697727,2953387.2585283,16.045724572457,0,0
-144.71989910071,-74.709932851534,10.850155015502,1397363.7678895,-5333.216697727,2953387.2585283,16.050155015502,0,0
-144.71989899584,-74.724286954735,10.854585458546,1397363.7678895,-5333.216697727,2953387.2585283,16.054585458546,0,0
-144.71989889098,-74.738641057936,10.85901590159,1397363.7678895,-5333.216697727,2953387.2585283,16.05901590159,0,0
-144.71989878611,-74.752995161137,10.863446344634,1397363.7678895,-5333.216697727,2953387.2585283,16.063446344634,0,0
-144.71989868124,-74.767349264339,10.867876787679,1397363.7678895,-5333.216697727,2953387.2585283,16.067876787679,0,0
-144.71989857637,-74.78170336754,10.872307230723,1397363.7678895,-5333.216697727,2953387.2585283,16.072307230723,0,0
-144.7198984715,-74.796057470741,10.876737673767,1397363.7678895,-5333.216697727,2953387.2585283,16.076737673767,0,0
-144.71989836663,-74.810411573942,10.881168116812,1397363.7678895,-5333.216697727,2953387.2585283,16.081168116812,0,0
-144.71989826176,-74.824765677143,10.885598559856,1397363.7678895,-5333.216697727,2953387.2585283,16.085598559856,0,0
-144.71989815689,-74.839119780345,10.8900290029,1397363.7678895,-5333.216697727,2953387.2585283,16.0900290029,0,0
-144.71989805202,-74.853473883546,10.894459445945,1397363.7678895,-5333.216697727,2953387.2585283,16.094459445945,0,0
-144.71989794715,-74.867827986747,10.898889888989,1397363.7678895,-5333.216697727,2953387.2585283,16.098889888989,0,0
-144.71989784229,-74.882182089948,10.903320332033,1397363.7678895,-5333.216697727,2953387.2585283,16.103320332033,0,0
-144.71989773742,-74.896536193149,10.907750775078,1397363.7678895,-5333.216697727,2953387.2585283,16.107750775078,0,0
-144.71989763255,-74.91089029635,10.912181218122,1397363.7678895,-5333.216697727,2953387.2585283,16.112181218122,0,0
-144.71989752768,-74.925244399552,10.916611661166,1397363.7678895,-5333.216697727,2953387.2585283,16.116611661166,0,0
-144.71989742281,-74.939598502753,10.92104210421,1397363.7678895,-5333.216697727,2953387.2585283,16.12104210421,0,0
-144.71989731794,-74.953952605954,10.925472547255,1397363.7678895,-5333.216697727,2953387.2585283,16.125472547255,0,0
-144.71989721307,-74.968306709155,10.929902990299,1397363.7678895,-5333.216697727,2953387.2585283,16.129902990299,0,0
-144.7198971082,-74.982660812356,10.934333433343,1397363.7678895,-5333.216697727,2953387.2585283,16.134333433343,0,0
-144.71989700333,-74.997014915558,10.938763876388,1397363.7678895,-5333.216697727,2953387.2585283,16.138763876388,0,0
-144.71989689846,-75.011369018759,10.943194319432,1397363.7678895,-5333.216697727,2953387.2585283,16.143194319432,0,0
-144.7198967936,-75.02572312196,10.947624762476,1397363.7678895,-5333.216697727,2953387.2585283,16.147624762476,0,0
-144.71989668873,-75.040077225161,10.952055205521,1397363.7678895,-5333.216697727,2953387.2585283,16.152055205521,0,0
-144.71989658386,-75.054431328362,10.956485648565,1397363.7678895,-5333.216697727,2953387.2585283,16.156485648565,0,0
-144.71989647899,-75.068785431564,10.960916091609,1397363.7678895,-5333.216697727,2953387.2585283,16.160916091609,0,0
-144.71989637412,-75.083139534765,10.965346534653,1397363.7678895,-5333.216697727,2953387.2585283,16.165346534653,0,0
-144.71989626925,-75.097493637966,10.969776977698,1397363.7678895,-5333.216697727,2953387.2585283,16.169776977698,0,0
-144.71989616438,-75.111847741167,10.974207420742,1397363.7678895,-5333.216697727,2953387.2585283,16.174207420742,0,0
-144.71989605951,-75.126201844368,10.978637863786,1397363.7678895,-5333.216697727,2953387.2585283,16.178637863786,0,0
-144.71989595464,-75.140555947569,10.983068306831,1397363.7678895,-5333.216697727,2953387.2585283,16.183068306831,0,0
-144.71989584977,-75.154910050771,10.987498749875,1397363.7678895,-5333.216697727,2953387.2585283,16.187498749875,0,0
-144.7198957449,-75.169264153972,10.991929192919,1397363.7678895,-5333.216697727,2953387.2585283,16.191929192919,0,0
-144.71989564004,-75.183618257173,10.996359635964,1397363.7678895,-5333.216697727,2953387.2585283,16.196359635964,0,0
-144.71989553517,-75.197972360374,11.000790079008,1397363.7678895,-5333.216697727,2953387.2585283,16.200790079008,0,0
-144.7198954303,-75.212326463575,11.005220522052,1397363.7678895,-5333.216697727,2953387.2585283,16.205220522052,0,0
-144.71989532543,-75.226680566777,11.009650965097,1397363.7678895,-5333.216697727,2953387.2585283,16.209650965097,0,0
-144.71989522056,-75.241034669978,11.014081408141,1397363.7678895,-5333.216697727,2953387.2585283,16.214081408141,0,0
-144.71989511569,-75.255388773179,11.018511851185,1397363.7678895,-5333.216697727,2953387.2585283,16.218511851185,0,0
-144.71989501082,-75.26974287638,11.022942294229,1397363.7678895,-5333.216697727,2953387.2585283,16.222942294229,0,0
-144.71989490595,-75.284096979581,11.027372737274,1397363.7678895,-5333.216697727,2953387.2585283,16.227372737274,0,0
-144.71989480108,-75.298451082783,11.031803180318,1397363.7678895,-5333.216697727,2953387.2585283,16.231803180318,0,0
-144.71989469621,-75.312805185984,11.036233623362,1397363.7678895,-5333.216697727,2953387.2585283,16.236233623362,0,0
-144.71989459135,-75.327159289185,11.040664066407,1397363.7678895,-5333.216697727,2953387.2585283,16.240664066407,0,0
-144.71989448648,-75.341513392386,11.045094509451,1397363.7678895,-5333.216697727,2953387.2585283,16.245094509451,0,0
-144.71989438161,-75.355867495587,11.049524952495,1397363.7678895,-5333.216697727,2953387.2585283,16.249524952495,0,0
-144.71989427674,-75.370221598789,11.05395539554,1397363.7678895,-5333.216697727,2953387.2585283,16.25395539554,0,0
-144.71989417187,-75.38457570199,11.058385838584,1397363.7678895,-5333.216697727,2953387.2585283,16.258385838584,0,0
-144.719894067,-75.398929805191,11.062816281628,1397363.7678895,-5333.216697727,2953387.2585283,16.262816281628,0,0
-144.71989396213,-75.413283908392,11.067246724672,1397363.7678895,-5333.216697727,2953387.2585283,16.267246724672,0,0
-144.71989385726,-75.427638011593,11.071677167717,1397363.7678895,-5333.216697727,2953387.2585283,16.271677167717,0,0
-144.71989375239,-75.441992114794,11.076107610761,1397363.7678895,-5333.216697727,2953387.2585283,16.276107610761,0,0
-144.71989364752,-75.456346217996,11.080538053805,1397363.7678895,-5333.216697727,2953387.2585283,16.280538053805,0,0
-144.71989354266,-75.470700321197,11.08496849685,1397363.7678895,-5333.216697727,2953387.2585283,16.28496849685,0,0
-144.71989343779,-75.485054424398,11.089398939894,1397363.7678895,-5333.216697727,2953387.2585283,16.289398939894,0,0
-144.71989333292,-75.499408527599,11.093829382938,1397363.7678895,-5333.216697727,2953387.2585283,16.293829382938,0,0
-144.71989322805,-75.5137626308,11.098259825983,1397363.7678895,-5333.216697727,2953387.2585283,16.298259825983,0,0
-144.71989312318,-75.528116734002,11.102690269027,1397363.7678895,-5333.216697727,2953387.2585283,16.302690269027,0,0
-144.71989301831,-75.542470837203,11.107120712071,1397363.7678895,-5333.216697727,2953387.2585283,16.307120712071,0,0
-144.71989291344,-75.556824940404,11.111551155116,1397363.7678895,-5333.216697727,2953387.2585283,16.311551155116,0,0
-144.71989280857,-75.571179043605,11.11598159816,1397363.7678895,-5333.216697727,2953387.2585283,16.31598159816,0,0
-144.7198927037,-75.585533146806,11.120412041204,1397363.7678895,-5333.216697727,2953387.2585283,16.320412041204,0,0
-144.71989259883,-75.599887250008,11.124842484248,1397363.7678895,-5333.216697727,2953387.2585283,16.324842484248,0,0
-144.71989249397,-75.614241353209,11.129272927293,1397363.7678895,-5333.216697727,2953387.2585283,16.329272927293,0,0
-144.7198923891,-75.62859545641,11.133703370337,1397363.7678895,-5333.216697727,2953387.2585283,16.333703370337,0,0
-144.71989228423,-75.642949559611,11.138133813381,1397363.7678895,-5333.216697727,2953387.2585283,16.338133813381,0,0
-144.71989217936,-75.657303662812,11.142564256426,1397363.7678895,-5333.216697727,2953387.2585283,16.342564256426,0,0
-144.71989207449,-75.671657766013,11.14699469947,1397363.7678895,-5333.216697727,2953387.2585283,16.34699469947,0,0
-144.71989196962,-75.686011869215,11.151425142514,1397363.7678895,-5333.216697727,2953387.2585283,16.351425142514,0,0
-144.71989186475,-75.700365972416,11.155855585559,1397363.7678895,-5333.216697727,2953387.2585283,16.355855585559,0,0
-144.71989175988,-75.714720075617,11.160286028603,1397363.7678895,-5333.216697727,2953387.2585283,16.360286028603,0,0
-144.71989165501,-75.729074178818,11.164716471647,1397363.7678895,-5333.216697727,2953387.2585283,16.364716471647,0,0
-144.71989155014,-75.743428282019,11.169146914691,1397363.7678895,-5333.216697727,2953387.2585283,16.369146914691,0,0
-144.71989144528,-75.757782385221,11.173577357736,1397363.7678895,-5333.216697727,2953387.2585283,16.373577357736,0,0
-144.71989134041,-75.772136488422,11.17800780078,1397363.7678895,-5333.216697727,2953387.2585283,16.37800780078,0,0
-144.71989123554,-75.786490591623,11.182438243824,1397363.7678895,-5333.216697727,2953387.2585283,16.382438243824,0,0
-144.71989113067,-75.800844694824,11.186868686869,1397363.7678895,-5333.216697727,2953387.2585283,16.386868686869,0,0
-144.7198910258,-75.815198798025,11.191299129913,1397363.7678895,-5333.216697727,2953387.2585283,16.391299129913,0,0
-144.71989092093,-75.829552901227,11.195729572957,1397363.7678895,-5333.216697727,2953387.2585283,16.395729572957,0,0
-144.71989081606,-75.843907004428,11.200160016002,1397363.7678895,-5333.216697727,2953387.2585283,16.400160016002,0,0
-144.71989071119,-75.858261107629,11.204590459046,1397363.7678895,-5333.216697727,2953387.2585283,16.404590459046,0,0
-144.71989060632,-75.87261521083,11.20902090209,1397363.7678895,-5333.216697727,2953387.2585283,16.40902090209,0,0
-144.71989050145,-75.886969314031,11.213451345135,1397363.7678895,-5333.216697727,2953387.2585283,16.413451345135,0,0
-144.71989039659,-75.901323417232,11.217881788179,1397363.7678895,-5333.216697727,2953387.2585283,16.417881788179,0,0
-144.71989029172,-75.915677520434,11.222312231223,1397363.7678895,-5333.216697727,2953387.2585283,16.422312231223,0,0
-144.71989018684,-75.930031623074,11.226742674267,1392824.8416527,3453.3747133537,2939464.4846911,16.426742674267,0,0
-144.71989008197,-75.944385724399,11.231173117312,1392824.8416527,3453.3747133537,2939464.4846911,16.431173117312,0,0
-144.71988997709,-75.958739825725,11.235603560356,1392824.8416527,3453.3747133537,2939464.4846911,16.435603560356,0,0
-144.71988987221,-75.97309392705,11.2400340034,1392824.8416527,3453.3747133537,2939464.4846911,16.4400340034,0,0
-144.71988976734,-75.987448028375,11.244464446445,1392824.8416527,3453.3747133537,2939464.4846911,16.444464446445,0,0
-144.71988966246,-76.001802129701,11.248894889489,1392824.8416527,3453.3747133537,2939464.4846911,16.448894889489,0,0
-144.71988955758,-76.016156231026,11.253325332533,1392824.8416527,3453.3747133537,2939464.4846911,16.453325332533,0,0
-144.7198894527,-76.030510332351,11.257755775578,1392824.8416527,3453.3747133537,2939464.4846911,16.457755775578,0,0
-144.71988934783,-76.044864433676,11.262186218622,1392824.8416527,3453.3747133537,2939464.4846911,16.462186218622,0,0
-144.71988924295,-76.059218535002,11.266616661666,1392824.8416527,3453.3747133537,2939464.4846911,16.466616661666,0,0
-144.71988913807,-76.073572636327,11.27104710471,1392824.8416527,3453.3747133537,2939464.4846911,16.47104710471,0,0
-144.7198890332,-76.087926737652,11.275477547755,1392824.8416527,3453.3747133537,2939464.4846911,16.475477547755,0,0
-144.71988892832,-76.102280838978,11.279907990799,1392824.8416527,3453.3747133537,2939464.4846911,16.479907990799,0,0
-144.71988882344,-76.116634940303,11.284338433843,1392824.8416527,3453.3747133537,2939464.4846911,16.484338433843,0,0
-144.71988871856,-76.130989041628,11.288768876888,1392824.8416527,3453.3747133537,2939464.4846911,16.488768876888,0,0
-144.71988861369,-76.145343142954,11.293199319932,1392824.8416527,3453.3747133537,2939464.4846911,16.493199319932,0,0
-144.71988850881,-76.159697244279,11.297629762976,1392824.8416527,3453.3747133537,2939464.4846911,16.497629762976,0,0
-144.71988840393,-76.174051345604,11.302060206021,1392824.8416527,3453.3747133537,2939464.4846911,16.502060206021,0,0
-144.71988829906,-76.18840544693,11.306490649065,1392824.8416527,3453.3747133537,2939464.4846911,16.506490649065,0,0
-144.71988819418,-76.202759548255,11.310921092109,1392824.8416527,3453.3747133537,2939464.4846911,16.510921092109,0,0
-144.7198880893,-76.21711364958,11.315351535154,1392824.8416527,3453.3747133537,2939464.4846911,16.515351535154,0,0
-144.71988798442,-76.231467750906,11.319781978198,1392824.8416527,3453.3747133537,2939464.4846911,16.519781978198,0,0
-144.71988787955,-76.245821852231,11.324212421242,1392824.8416527,3453.3747133537,2939464.4846911,16.524212421242,0,0
-144.71988777467,-76.260175953556,11.328642864286,1392824.8416527,3453.3747133537,2939464.4846911,16.528642864286,0,0
-144.71988766979,-76.274530054882,11.333073307331,1392824.8416527,3453.3747133537,2939464.4846911,16.533073307331,0,0
-144.71988756492,-76.288884156207,11.337503750375,1392824.8416527,3453.3747133537,2939464.4846911,16.537503750375,0,0
-144.71988746004,-76.303238257532,11.341934193419,1392824.8416527,3453.3747133537,2939464.4846911,16.541934193419,0,0
-144.71988735516,-76.317592358858,11.346364636464,1392824.8416527,3453.3747133537,2939464.4846911,16.546364636464,0,0
-144.71988725028,-76.331946460183,11.350795079508,1392824.8416527,3453.3747133537,2939464.4846911,16.550795079508,0,0
-144.71988714541,-76.346300561508,11.355225522552,1392824.8416527,3453.3747133537,2939464.4846911,16.555225522552,0,0
-144.71988704053,-76.360654662834,11.359655965597,1392824.8416527,3453.3747133537,2939464.4846911,16.559655965597,0,0
-144.71988693565,-76.375008764159,11.364086408641,1392824.8416527,3453.3747133537,2939464.4846911,16.564086408641,0,0
-144.71988683078,-76.389362865484,11.368516851685,1392824.8416527,3453.3747133537,2939464.4846911,16.568516851685,0,0
-144.7198867259,-76.403716966809,11.372947294729,1392824.8416527,3453.3747133537,2939464.4846911,16.572947294729,0,0
-144.71988662102,-76.418071068135,11.377377737774,1392824.8416527,3453.3747133537,2939464.4846911,16.577377737774,0,0
-144.71988651614,-76.43242516946,11.381808180818,1392824.8416527,3453.3747133537,2939464.4846911,16.581808180818,0,0
-144.71988641127,-76.446779270785,11.386238623862,1392824.8416527,3453.3747133537,2939464.4846911,16.586238623862,0,0
-144.71988630639,-76.461133372111,11.390669066907,1392824.8416527,3453.3747133537,2939464.4846911,16.590669066907,0,0
-144.71988620151,-76.475487473436,11.395099509951,1392824.8416527,3453.3747133537,2939464.4846911,16.595099509951,0,0
-144.71988609664,-76.489841574761,11.399529952995,1392824.8416527,3453.3747133537,2939464.4846911,16.599529952995,0,0
-144.71988599176,-76.504195676087,11.40396039604,1392824.8416527,3453.3747133537,2939464.4846911,16.60396039604,0,0
-144.71988588688,-76.518549777412,11.408390839084,1392824.8416527,3453.3747133537,2939464.4846911,16.608390839084,0,0
-144.719885782,-76.532903878737,11.412821282128,1392824.8416527,3453.3747133537,2939464.4846911,16.612821282128,0,0
-144.71988567713,-76.547257980063,11.417251725173,1392824.8416527,3453.3747133537,2939464.4846911,16.617251725173,0,0
-144.71988557225,-76.561612081388,11.421682168217,1392824.8416527,3453.3747133537,2939464.4846911,16.621682168217,0,0
-144.71988546737,-76.575966182713,11.426112611261,1392824.8416527,3453.3747133537,2939464.4846911,16.626112611261,0,0
-144.7198853625,-76.590320284039,11.430543054305,1392824.8416527,3453.3747133537,2939464.4846911,16.630543054305,0,0
-144.71988525762,-76.604674385364,11.43497349735,1392824.8416527,3453.3747133537,2939464.4846911,16.63497349735,0,0
-144.71988515274,-76.619028486689,11.439403940394,1392824.8416527,3453.3747133537,2939464.4846911,16.639403940394,0,0
-144.71988504786,-76.633382588015,11.443834383438,1392824.8416527,3453.3747133537,2939464.4846911,16.643834383438,0,0
-144.71988494299,-76.64773668934,11.448264826483,1392824.8416527,3453.3747133537,2939464.4846911,16.648264826483,0,0
-144.71988483811,-76.662090790665,11.452695269527,1392824.8416527,3453.3747133537,2939464.4846911,16.652695269527,0,0
-144.71988473323,-76.676444891991,11.457125712571,1392824.8416527,3453.3747133537,2939464.4846911,16.657125712571,0,0
-144.71988462836,-76.690798993316,11.461556155616,1392824.8416527,3453.3747133537,2939464.4846911,16.661556155616,0,0
-144.71988452348,-76.705153094641,11.46598659866,1392824.8416527,3453.3747133537,2939464.4846911,16.66598659866,0,0
-144.7198844186,-76.719507195967,11.470417041704,1392824.8416527,3453.3747133537,2939464.4846911,16.670417041704,0,0
-144.71988431372,-76.733861297292,11.474847484748,1392824.8416527,3453.3747133537,2939464.4846911,16.674847484748,0,0
-144.71988420885,-76.748215398617,11.479277927793,1392824.8416527,3453.3747133537,2939464.4846911,16.679277927793,0,0
-144.71988410397,-76.762569499943,11.483708370837,1392824.8416527,3453.3747133537,2939464.4846911,16.683708370837,0,0
-144.71988399909,-76.776923601268,11.488138813881,1392824.8416527,3453.3747133537,2939464.4846911,16.688138813881,0,0
-144.71988389422,-76.791277702593,11.492569256926,1392824.8416527,3453.3747133537,2939464.4846911,16.692569256926,0,0
-144.71988378934,-76.805631803918,11.49699969997,1392824.8416527,3453.3747133537,2939464.4846911,16.69699969997,0,0
-144.71988368446,-76.819985905244,11.501430143014,1392824.8416527,3453.3747133537,2939464.4846911,16.701430143014,0,0
-144.71988357958,-76.834340006569,11.505860586059,1392824.8416527,3453.3747133537,2939464.4846911,16.705860586059,0,0
-144.71988347471,-76.848694107894,11.510291029103,1392824.8416527,3453.3747133537,2939464.4846911,16.710291029103,0,0
-144.71988336983,-76.86304820922,11.514721472147,1392824.8416527,3453.3747133537,2939464.4846911,16.714721472147,0,0
-144.71988326495,-76.877402310545,11.519151915192,1392824.8416527,3453.3747133537,2939464.4846911,16.719151915192,0,0
-144.71988316007,-76.89175641187,11.523582358236,1392824.8416527,3453.3747133537,2939464.4846911,16.723582358236,0,0
-144.7198830552,-76.906110513196,11.52801280128,1392824.8416527,3453.3747133537,2939464.4846911,16.72801280128,0,0
-144.71988295028,-76.920464614713,11.532443244324,1392728.1944142,-4876.5316456411,2922510.4903752,16.732443244324,0,0
-144.71988284496,-76.934818718103,11.536873687369,1392728.1944142,-4876.5316456411,2922510.4903752,16.736873687369,0,0
-144.71988273964,-76.949172821493,11.541304130413,1392728.1944142,-4876.5316456411,2922510.4903752,16.741304130413,0,0
-144.71988263432,-76.963526924883,11.545734573457,1392728.1944142,-4876.5316456411,2922510.4903752,16.745734573457,0,0
-144.719882529,-76.977881028273,11.550165016502,1392728.1944142,-4876.5316456411,2922510.4903752,16.750165016502,0,0
-144.71988242368,-76.992235131663,11.554595459546,1392728.1944142,-4876.5316456411,2922510.4903752,16.754595459546,0,0
-144.71988231835,-77.006589235053,11.55902590259,1392728.1944142,-4876.5316456411,2922510.4903752,16.75902590259,0,0
-144.71988221303,-77.020943338443,11.563456345635,1392728.1944142,-4876.5316456411,2922510.4903752,16.763456345635,0,0
-144.71988210771,-77.035297441833,11.567886788679,1392728.1944142,-4876.5316456411,2922510.4903752,16.767886788679,0,0
-144.71988200239,-77.049651545224,11.572317231723,1392728.1944142,-4876.5316456411,2922510.4903752,16.772317231723,0,0
-144.71988189707,-77.064005648614,11.576747674767,1392728.1944142,-4876.5316456411,2922510.4903752,16.776747674767,0,0
-144.71988179175,-77.078359752004,11.581178117812,1392728.1944142,-4876.5316456411,2922510.4903752,16.781178117812,0,0
-144.71988168643,-77.092713855394,11.585608560856,1392728.1944142,-4876.5316456411,2922510.4903752,16.785608560856,0,0
-144.71988158111,-77.107067958784,11.5900390039,1392728.1944142,-4876.5316456411,2922510.4903752,16.7900390039,0,0
-144.71988147579,-77.121422062174,11.594469446945,1392728.1944142,-4876.5316456411,2922510.4903752,16.794469446945,0,0
-144.71988137047,-77.135776165564,11.598899889989,1392728.1944142,-4876.5316456411,2922510.4903752,16.798899889989,0,0
-144.71988126515,-77.150130268954,11.603330333033,1392728.1944142,-4876.5316456411,2922510.4903752,16.803330333033,0,0
-144.71988115982,-77.164484372344,11.607760776078,1392728.1944142,-4876.5316456411,2922510.4903752,16.807760776078,0,0
-144.7198810545,-77.178838475734,11.612191219122,1392728.1944142,-4876.5316456411,2922510.4903752,16.812191219122,0,0
-144.71988094918,-77.193192579124,11.616621662166,1392728.1944142,-4876.5316456411,2922510.4903752,16.816621662166,0,0
-144.71988084386,-77.207546682514,11.621052105211,1392728.1944142,-4876.5316456411,2922510.4903752,16.821052105211,0,0
-144.71988073854,-77.221900785904,11.625482548255,1392728.1944142,-4876.5316456411,2922510.4903752,16.825482548255,0,0
-144.71988063322,-77.236254889294,11.629912991299,1392728.1944142,-4876.5316456411,2922510.4903752,16.829912991299,0,0
-144.7198805279,-77.250608992684,11.634343434343,1392728.1944142,-4876.5316456411,2922510.4903752,16.834343434343,0,0
-144.71988042258,-77.264963096074,11.638773877388,1392728.1944142,-4876.5316456411,2922510.4903752,16.838773877388,0,0
-144.71988031726,-77.279317199464,11.643204320432,1392728.1944142,-4876.5316456411,2922510.4903752,16.843204320432,0,0
-144.71988021194,-77.293671302855,11.647634763476,1392728.1944142,-4876.5316456411,2922510.4903752,16.847634763476,0,0
-144.71988010662,-77.308025406245,11.652065206521,1392728.1944142,-4876.5316456411,2922510.4903752,16.852065206521,0,0
-144.7198800013,-77.322379509635,11.656495649565,1392728.1944142,-4876.5316456411,2922510.4903752,16.856495649565,0,0
-144.71987989597,-77.336733613025,11.660926092609,1392728.1944142,-4876.5316456411,2922510.4903752,16.860926092609,0,0
-144.71987979065,-77.351087716415,11.665356535654,1392728.1944142,-4876.5316456411,2922510.4903752,16.865356535654,0,0
-144.71987968533,-77.365441819805,11.669786978698,1392728.1944142,-4876.5316456411,2922510.4903752,16.869786978698,0,0
-144.71987958001,-77.379795923195,11.674217421742,1392728.1944142,-4876.5316456411,2922510.4903752,16.874217421742,0,0
-144.71987947469,-77.394150026585,11.678647864786,1392728.1944142,-4876.5316456411,2922510.4903752,16.878647864786,0,0
-144.71987936937,-77.408504129975,11.683078307831,1392728.1944142,-4876.5316456411,2922510.4903752,16.883078307831,0,0
-144.71987926405,-77.422858233365,11.687508750875,1392728.1944142,-4876.5316456411,2922510.4903752,16.887508750875,0,0
-144.71987915873,-77.437212336755,11.691939193919,1392728.1944142,-4876.5316456411,2922510.4903752,16.891939193919,0,0
-144.71987905341,-77.451566440145,11.696369636964,1392728.1944142,-4876.5316456411,2922510.4903752,16.896369636964,0,0
-144.71987894809,-77.465920543535,11.700800080008,1392728.1944142,-4876.5316456411,2922510.4903752,16.900800080008,0,0
-144.71987884277,-77.480274646925,11.705230523052,1392728.1944142,-4876.5316456411,2922510.4903752,16.905230523052,0,0
-144.71987873745,-77.494628750315,11.709660966097,1392728.1944142,-4876.5316456411,2922510.4903752,16.909660966097,0,0
-144.71987863212,-77.508982853705,11.714091409141,1392728.1944142,-4876.5316456411,2922510.4903752,16.914091409141,0,0
-144.7198785268,-77.523336957095,11.718521852185,1392728.1944142,-4876.5316456411,2922510.4903752,16.918521852185,0,0
-144.71987842148,-77.537691060486,11.72295229523,1392728.1944142,-4876.5316456411,2922510.4903752,16.92295229523,0,0
-144.71987831616,-77.552045163876,11.727382738274,1392728.1944142,-4876.5316456411,2922510.4903752,16.927382738274,0,0
-144.71987821084,-77.566399267266,11.731813181318,1392728.1944142,-4876.5316456411,2922510.4903752,16.931813181318,0,0
-144.71987810552,-77.580753370656,11.736243624362,1392728.1944142,-4876.5316456411,2922510.4903752,16.936243624362,0,0
-144.7198780002,-77.595107474046,11.740674067407,1392728.1944142,-4876.5316456411,2922510.4903752,16.940674067407,0,0
-144.71987789488,-77.609461577436,11.745104510451,1392728.1944142,-4876.5316456411,2922510.4903752,16.945104510451,0,0
-144.71987778956,-77.623815680826,11.749534953495,1392728.1944142,-4876.5316456411,2922510.4903752,16.949534953495,0,0
-144.71987768424,-77.638169784216,11.75396539654,1392728.1944142,-4876.5316456411,2922510.4903752,16.95396539654,0,0
-144.71987757892,-77.652523887606,11.758395839584,1392728.1944142,-4876.5316456411,2922510.4903752,16.958395839584,0,0
-144.7198774736,-77.666877990996,11.762826282628,1392728.1944142,-4876.5316456411,2922510.4903752,16.962826282628,0,0
-144.71987736827,-77.681232094386,11.767256725673,1392728.1944142,-4876.5316456411,2922510.4903752,16.967256725673,0,0
-144.71987726295,-77.695586197776,11.771687168717,1392728.1944142,-4876.5316456411,2922510.4903752,16.971687168717,0,0
-144.71987715763,-77.709940301166,11.776117611761,1392728.1944142,-4876.5316456411,2922510.4903752,16.976117611761,0,0
-144.71987705231,-77.724294404556,11.780548054805,1392728.1944142,-4876.5316456411,2922510.4903752,16.980548054805,0,0
-144.71987694699,-77.738648507946,11.78497849785,1392728.1944142,-4876.5316456411,2922510.4903752,16.98497849785,0,0
-144.71987684167,-77.753002611336,11.789408940894,1392728.1944142,-4876.5316456411,2922510.4903752,16.989408940894,0,0
-144.71987673635,-77.767356714726,11.793839383938,1392728.1944142,-4876.5316456411,2922510.4903752,16.993839383938,0,0
-144.71987663103,-77.781710818117,11.798269826983,1392728.1944142,-4876.5316456411,2922510.4903752,16.998269826983,0,0
-144.71987652571,-77.796064921507,11.802700270027,1392728.1944142,-4876.5316456411,2922510.4903752,17.002700270027,0,0
-144.71987642039,-77.810419024897,11.807130713071,1392728.1944142,-4876.5316456411,2922510.4903752,17.007130713071,0,0
-144.71987631507,-77.824773128287,11.811561156116,1392728.1944142,-4876.5316456411,2922510.4903752,17.011561156116,0,0
-144.71987620975,-77.839127231677,11.81599159916,1392728.1944142,-4876.5316456411,2922510.4903752,17.01599159916,0,0
-144.71987610442,-77.853481335067,11.820422042204,1392728.1944142,-4876.5316456411,2922510.4903752,17.020422042204,0,0
-144.7198759991,-77.867835438457,11.824852485249,1392728.1944142,-4876.5316456411,2922510.4903752,17.024852485249,0,0
-144.71987589378,-77.882189541847,11.829282928293,1392728.1944142,-4876.5316456411,2922510.4903752,17.029282928293,0,0
-144.71987578846,-77.896543645237,11.833713371337,1392728.1944142,-4876.5316456411,2922510.4903752,17.033713371337,0,0
-144.71987568314,-77.910897748627,11.838143814381,1392728.1944142,-4876.5316456411,2922510.4903752,17.038143814381,0,0
-144.71987557782,-77.925251852017,11.842574257426,1392728.1944142,-4876.5316456411,2922510.4903752,17.042574257426,0,0
-144.7198754725,-77.939605955407,11.84700470047,1392728.1944142,-4876.5316456411,2922510.4903752,17.04700470047,0,0
-144.71987536718,-77.953960058797,11.851435143514,1392728.1944142,-4876.5316456411,2922510.4903752,17.051435143514,0,0
-144.71987526186,-77.968314162187,11.855865586559,1392728.1944142,-4876.5316456411,2922510.4903752,17.055865586559,0,0
-144.71987515654,-77.982668265577,11.860296029603,1392728.1944142,-4876.5316456411,2922510.4903752,17.060296029603,0,0
-144.71987505122,-77.997022368967,11.864726472647,1392728.1944142,-4876.5316456411,2922510.4903752,17.064726472647,0,0
-144.7198749459,-78.011376472357,11.869156915692,1392728.1944142,-4876.5316456411,2922510.4903752,17.069156915692,0,0
-144.71987484057,-78.025730575747,11.873587358736,1392728.1944142,-4876.5316456411,2922510.4903752,17.073587358736,0,0
-144.71987473525,-78.040084679138,11.87801780178,1392728.1944142,-4876.5316456411,2922510.4903752,17.07801780178,0,0
-144.71987462993,-78.054438782528,11.882448244824,1392728.1944142,-4876.5316456411,2922510.4903752,17.082448244824,0,0
-144.71987452461,-78.068792885918,11.886878687869,1392728.1944142,-4876.5316456411,2922510.4903752,17.086878687869,0,0
-144.71987441929,-78.083146989308,11.891309130913,1392728.1944142,-4876.5316456411,2922510.4903752,17.091309130913,0,0
-144.71987431397,-78.097501092698,11.895739573957,1392728.1944142,-4876.5316456411,2922510.4903752,17.095739573957,0,0
-144.71987420865,-78.111855196088,11.900170017002,1392728.1944142,-4876.5316456411,2922510.4903752,17.100170017002,0,0
-144.71987410333,-78.126209299478,11.904600460046,1392728.1944142,-4876.5316456411,2922510.4903752,17.104600460046,0,0
-144.71987399801,-78.140563402868,11.90903090309,1392728.1944142,-4876.5316456411,2922510.4903752,17.10903090309,0,0
-144.71987389269,-78.154917506258,11.913461346135,1392728.1944142,-4876.5316456411,2922510.4903752,17.113461346135,0,0
-144.71987378737,-78.169271609648,11.917891789179,1392728.1944142,-4876.5316456411,2922510.4903752,17.117891789179,0,0
-144.71987368204,-78.183625713038,11.922322232223,1392728.1944142,-4876.5316456411,2922510.4903752,17.122322232223,0,0
-144.71987357672,-78.197979816428,11.926752675268,1392728.1944142,-4876.5316456411,2922510.4903752,17.126752675268,0,0
-144.7198734714,-78.212333919818,11.931183118312,1392728.1944142,-4876.5316456411,2922510.4903752,17.131183118312,0,0
-144.71987336608,-78.226688023208,11.935613561356,1392728.1944142,-4876.5316456411,2922510.4903752,17.135613561356,0,0
-144.71987326076,-78.241042126598,11.9400440044,1392728.1944142,-4876.5316456411,2922510.4903752,17.1400440044,0,0
-144.71987315544,-78.255396229988,11.944474447445,1392728.1944142,-4876.5316456411,2922510.4903752,17.144474447445,0,0
-144.71987305012,-78.269750333378,11.948904890489,1392728.1944142,-4876.5316456411,2922510.4903752,17.148904890489,0,0
-144.7198729448,-78.284104436769,11.953335333533,1392728.1944142,-4876.5316456411,2922510.4903752,17.153335333533,0,0
-144.71987283948,-78.298458540159,11.957765776578,1392728.1944142,-4876.5316456411,2922510.4903752,17.157765776578,0,0
-144.71987273416,-78.312812643549,11.962196219622,1392728.1944142,-4876.5316456411,2922510.4903752,17.162196219622,0,0
-144.71987262884,-78.327166746939,11.966626662666,1392728.1944142,-4876.5316456411,2922510.4903752,17.166626662666,0,0
-144.71987252352,-78.341520850329,11.971057105711,1392728.1944142,-4876.5316456411,2922510.4903752,17.171057105711,0,0
-144.71987241819,-78.355874953719,11.975487548755,1392728.1944142,-4876.5316456411,2922510.4903752,17.175487548755,0,0
-144.71987231287,-78.370229057109,11.979917991799,1392728.1944142,-4876.5316456411,2922510.4903752,17.179917991799,0,0
-144.71987220755,-78.384583160499,11.984348434843,1392728.1944142,-4876.5316456411,2922510.4903752,17.184348434843,0,0
-144.71987210223,-78.398937263889,11.988778877888,1392728.1944142,-4876.5316456411,2922510.4903752,17.188778877888,0,0
-144.71987199691,-78.413291367279,11.993209320932,1392728.1944142,-4876.5316456411,2922510.4903752,17.193209320932,0,0
-144.71987189159,-78.427645470669,11.997639763976,1392728.1944142,-4876.5316456411,2922510.4903752,17.197639763976,0,0
-144.71987178627,-78.441999574059,12.002070207021,1392728.1944142,-4876.5316456411,2922510.4903752,17.202070207021,0,0
-144.71987168095,-78.456353677449,12.006500650065,1392728.1944142,-4876.5316456411,2922510.4903752,17.206500650065,0,0
-144.71987157563,-78.470707780839,12.010931093109,1392728.1944142,-4876.5316456411,2922510.4903752,17.210931093109,0,0
-144.71987147031,-78.485061884229,12.015361536154,1392728.1944142,-4876.5316456411,2922510.4903752,17.215361536154,0,0
-144.71987136499,-78.499415987619,12.019791979198,1392728.1944142,-4876.5316456411,2922510.4903752,17.219791979198,0,0
-144.71987125967,-78.513770091009,12.024222422242,1392728.1944142,-4876.5316456411,2922510.4903752,17.224222422242,0,0
-144.71987115434,-78.5281241944,12.028652865287,1392728.1944142,-4876.5316456411,2922510.4903752,17.228652865287,0,0
-144.71987104902,-78.54247829779,12.033083308331,1392728.1944142,-4876.5316456411,2922510.4903752,17.233083308331,0,0
-144.7198709437,-78.55683240118,12.037513751375,1392728.1944142,-4876.5316456411,2922510.4903752,17.237513751375,0,0
-144.71987083838,-78.57118650457,12.041944194419,1392728.1944142,-4876.5316456411,2922510.4903752,17.241944194419,0,0
-144.71987073306,-78.58554060796,12.046374637464,1392728.1944142,-4876.5316456411,2922510.4903752,17.246374637464,0,0
-144.71987062774,-78.59989471135,12.050805080508,1392728.1944142,-4876.5316456411,2922510.4903752,17.250805080508,0,0
-144.71987052242,-78.61424881474,12.055235523552,1392728.1944142,-4876.5316456411,2922510.4903752,17.255235523552,0,0
-144.7198704171,-78.62860291813,12.059665966597,1392728.1944142,-4876.5316456411,2922510.4903752,17.259665966597,0,0
-144.71987031178,-78.64295702152,12.064096409641,1392728.1944142,-4876.5316456411,2922510.4903752,17.264096409641,0,0
-144.71987020646,-78.65731112491,12.068526852685,1392728.1944142,-4876.5316456411,2922510.4903752,17.268526852685,0,0
-144.71987010114,-78.6716652283,12.07295729573,1392728.1944142,-4876.5316456411,2922510.4903752,17.27295729573,0,0
-144.71986999582,-78.68601933169,12.077387738774,1392728.1944142,-4876.5316456411,2922510.4903752,17.277387738774,0,0
-144.71986989049,-78.70037343508,12.081818181818,1392728.1944142,-4876.5316456411,2922510.4903752,17.281818181818,0,0
-144.71986978517,-78.71472753847,12.086248624862,1392728.1944142,-4876.5316456411,2922510.4903752,17.286248624862,0,0
-144.71986967985,-78.72908164186,12.090679067907,1392728.1944142,-4876.5316456411,2922510.4903752,17.290679067907,0,0
-144.71986957453,-78.74343574525,12.095109510951,1392728.1944142,-4876.5316456411,2922510.4903752,17.295109510951,0,0
-144.71986946921,-78.75778984864,12.099539953995,1392728.1944142,-4876.5316456411,2922510.4903752,17.299539953995,0,0
-144.71986936389,-78.772143952031,12.10397039704,1392728.1944142,-4876.5316456411,2922510.4903752,17.30397039704,0,0
-144.71986925857,-78.786498055421,12.108400840084,1392728.1944142,-4876.5316456411,2922510.4903752,17.308400840084,0,0
-144.71986915325,-78.800852158811,12.112831283128,1392728.1944142,-4876.5316456411,2922510.4903752,17.312831283128,0,0
-144.71986904793,-78.815206262201,12.117261726173,1392728.1944142,-4876.5316456411,2922510.4903752,17.317261726173,0,0
-144.71986894261,-78.829560365591,12.121692169217,1392728.1944142,-4876.5316456411,2922510.4903752,17.321692169217,0,0
-144.71986883729,-78.843914468981,12.126122612261,1392728.1944142,-4876.5316456411,2922510.4903752,17.326122612261,0,0
-144.71986873197,-78.858268572371,12.130553055306,1392728.1944142,-4876.5316456411,2922510.4903752,17.330553055306,0,0
-144.71986862664,-78.872622675761,12.13498349835,1392728.1944142,-4876.5316456411,2922510.4903752,17.33498349835,0,0
-144.71986852132,-78.886976779151,12.139413941394,1392728.1944142,-4876.5316456411,2922510.4903752,17.339413941394,0,0
-144.719868416,-78.901330882541,12.143844384438,1392728.1944142,-4876.5316456411,2922510.4903752,17.343844384438,0,0
-144.71986831068,-78.915684985931,12.148274827483,1392728.1944142,-4876.5316456411,2922510.4903752,17.348274827483,0,0
-144.71986820536,-78.930039089321,12.152705270527,1392728.1944142,-4876.5316456411,2922510.4903752,17.352705270527,0,0
-144.71986810004,-78.944393192711,12.157135713571,1392728.1944142,-4876.5316456411,2922510.4903752,17.357135713571,0,0
-144.71986799472,-78.958747296101,12.161566156616,1392728.1944142,-4876.5316456411,2922510.4903752,17.361566156616,0,0
-144.7198678894,-78.973101399491,12.16599659966,1392728.1944142,-4876.5316456411,2922510.4903752,17.36599659966,0,0
-144.71986778408,-78.987455502881,12.170427042704,1392728.1944142,-4876.5316456411,2922510.4903752,17.370427042704,0,0
-144.71986767876,-79.001809606271,12.174857485749,1392728.1944142,-4876.5316456411,2922510.4903752,17.374857485749,0,0
-144.71986757344,-79.016163709661,12.179287928793,1392728.1944142,-4876.5316456411,2922510.4903752,17.379287928793,0,0
-144.71986746811,-79.030517813052,12.183718371837,1392728.1944142,-4876.5316456411,2922510.4903752,17.383718371837,0,0
-144.71986736279,-79.044871916442,12.188148814881,1392728.1944142,-4876.5316456411,2922510.4903752,17.388148814881,0,0
-144.71986725747,-79.059226019832,12.192579257926,1392728.1944142,-4876.5316456411,2922510.4903752,17.392579257926,0,0
-144.71986715215,-79.073580123222,12.19700970097,1392728.1944142,-4876.5316456411,2922510.4903752,17.39700970097,0,0
-144.71986704683,-79.087934226612,12.201440144014,1392728.1944142,-4876.5316456411,2922510.4903752,17.401440144014,0,0
-144.71986694151,-79.102288330002,12.205870587059,1392728.1944142,-4876.5316456411,2922510.4903752,17.405870587059,0,0
-144.71986683619,-79.116642433392,12.210301030103,1392728.1944142,-4876.5316456411,2922510.4903752,17.410301030103,0,0
-144.71986673087,-79.130996536782,12.214731473147,1392728.1944142,-4876.5316456411,2922510.4903752,17.414731473147,0,0
-144.71986662555,-79.145350640172,12.219161916192,1392728.1944142,-4876.5316456411,2922510.4903752,17.419161916192,0,0
-144.71986652023,-79.159704743562,12.223592359236,1392728.1944142,-4876.5316456411,2922510.4903752,17.423592359236,0,0
-144.71986641491,-79.174058846952,12.22802280228,1392728.1944142,-4876.5316456411,2922510.4903752,17.42802280228,0,0
-144.71986630959,-79.188412950342,12.232453245325,1392728.1944142,-4876.5316456411,2922510.4903752,17.432453245325,0,0
-144.71986620426,-79.202767053732,12.236883688369,1392728.1944142,-4876.5316456411,2922510.4903752,17.436883688369,0,0
-144.71986609894,-79.217121157122,12.241314131413,1392728.1944142,-4876.5316456411,2922510.4903752,17.441314131413,0,0
-144.71986599362,-79.231475260512,12.245744574457,1392728.1944142,-4876.5316456411,2922510.4903752,17.445744574457,0,0
-144.7198658883,-79.245829363902,12.250175017502,1392728.1944142,-4876.5316456411,2922510.4903752,17.450175017502,0,0
-144.71986578298,-79.260183467292,12.254605460546,1392728.1944142,-4876.5316456411,2922510.4903752,17.454605460546,0,0
-144.71986567766,-79.274537570683,12.25903590359,1392728.1944142,-4876.5316456411,2922510.4903752,17.45903590359,0,0
-144.71986557234,-79.288891674073,12.263466346635,1392728.1944142,-4876.5316456411,2922510.4903752,17.463466346635,0,0
-144.71986546702,-79.303245777463,12.267896789679,1392728.1944142,-4876.5316456411,2922510.4903752,17.467896789679,0,0
-144.7198653617,-79.317599880853,12.272327232723,1392728.1944142,-4876.5316456411,2922510.4903752,17.472327232723,0,0
-144.71986525638,-79.331953984243,12.276757675768,1392728.1944142,-4876.5316456411,2922510.4903752,17.476757675768,0,0
-144.71986515106,-79.346308087633,12.281188118812,1392728.1944142,-4876.5316456411,2922510.4903752,17.481188118812,0,0
-144.71986504574,-79.360662191023,12.285618561856,1392728.1944142,-4876.5316456411,2922510.4903752,17.485618561856,0,0
-144.71986494041,-79.375016294413,12.2900490049,1392728.1944142,-4876.5316456411,2922510.4903752,17.4900490049,0,0
-144.71986483509,-79.389370397803,12.294479447945,1392728.1944142,-4876.5316456411,2922510.4903752,17.494479447945,0,0
-144.71986472977,-79.403724501193,12.298909890989,1392728.1944142,-4876.5316456411,2922510.4903752,17.498909890989,0,0
-144.71986462445,-79.418078604583,12.303340334033,1392728.1944142,-4876.5316456411,2922510.4903752,17.503340334033,0,0
-144.71986451913,-79.432432707973,12.307770777078,1392728.1944142,-4876.5316456411,2922510.4903752,17.507770777078,0,0
-144.71986441381,-79.446786811363,12.312201220122,1392728.1944142,-4876.5316456411,2922510.4903752,17.512201220122,0,0
-144.71986430849,-79.461140914753,12.316631663166,1392728.1944142,-4876.5316456411,2922510.4903752,17.516631663166,0,0
-144.71986420317,-79.475495017634,12.321062106211,1389006.2306154,3185.8722444668,2910889.2786461,17.521062106211,0,0
-144.71986409783,-79.489849119301,12.325492549255,1389006.2306154,3185.8722444668,2910889.2786461,17.525492549255,0,0
-144.7198639925,-79.504203220968,12.329922992299,1389006.2306154,3185.8722444668,2910889.2786461,17.529922992299,0,0
-144.71986388717,-79.518557322635,12.334353435344,1389006.2306154,3185.8722444668,2910889.2786461,17.534353435344,0,0
-144.71986378183,-79.532911424302,12.338783878388,1389006.2306154,3185.8722444668,2910889.2786461,17.538783878388,0,0
-144.7198636765,-79.547265525969,12.343214321432,1389006.2306154,3185.8722444668,2910889.2786461,17.543214321432,0,0
-144.71986357117,-79.561619627635,12.347644764476,1389006.2306154,3185.8722444668,2910889.2786461,17.547644764476,0,0
-144.71986346583,-79.575973729302,12.352075207521,1389006.2306154,3185.8722444668,2910889.2786461,17.552075207521,0,0
-144.7198633605,-79.590327830969,12.356505650565,1389006.2306154,3185.8722444668,2910889.2786461,17.556505650565,0,0
-144.71986325517,-79.604681932636,12.360936093609,1389006.2306154,3185.8722444668,2910889.2786461,17.560936093609,0,0
-144.71986314984,-79.619036034303,12.365366536654,1389006.2306154,3185.8722444668,2910889.2786461,17.565366536654,0,0
-144.7198630445,-79.63339013597,12.369796979698,1389006.2306154,3185.8722444668,2910889.2786461,17.569796979698,0,0
-144.71986293917,-79.647744237637,12.374227422742,1389006.2306154,3185.8722444668,2910889.2786461,17.574227422742,0,0
-144.71986283384,-79.662098339304,12.378657865787,1389006.2306154,3185.8722444668,2910889.2786461,17.578657865787,0,0
-144.7198627285,-79.676452440971,12.383088308831,1389006.2306154,3185.8722444668,2910889.2786461,17.583088308831,0,0
-144.71986262317,-79.690806542638,12.387518751875,1389006.2306154,3185.8722444668,2910889.2786461,17.587518751875,0,0
-144.71986251784,-79.705160644305,12.391949194919,1389006.2306154,3185.8722444668,2910889.2786461,17.591949194919,0,0
-144.7198624125,-79.719514745972,12.396379637964,1389006.2306154,3185.8722444668,2910889.2786461,17.596379637964,0,0
-144.71986230717,-79.733868847638,12.400810081008,1389006.2306154,3185.8722444668,2910889.2786461,17.600810081008,0,0
-144.71986220184,-79.748222949305,12.405240524052,1389006.2306154,3185.8722444668,2910889.2786461,17.605240524052,0,0
-144.71986209651,-79.762577050972,12.409670967097,1389006.2306154,3185.8722444668,2910889.2786461,17.609670967097,0,0
-144.71986199117,-79.776931152639,12.414101410141,1389006.2306154,3185.8722444668,2910889.2786461,17.614101410141,0,0
-144.71986188584,-79.791285254306,12.418531853185,1389006.2306154,3185.8722444668,2910889.2786461,17.618531853185,0,0
-144.71986178051,-79.805639355973,12.42296229623,1389006.2306154,3185.8722444668,2910889.2786461,17.62296229623,0,0
-144.71986167517,-79.81999345764,12.427392739274,1389006.2306154,3185.8722444668,2910889.2786461,17.627392739274,0,0
-144.71986156984,-79.834347559307,12.431823182318,1389006.2306154,3185.8722444668,2910889.2786461,17.631823182318,0,0
-144.71986146451,-79.848701660974,12.436253625363,1389006.2306154,3185.8722444668,2910889.2786461,17.636253625363,0,0
-144.71986135918,-79.863055762641,12.440684068407,1389006.2306154,3185.8722444668,2910889.2786461,17.640684068407,0,0
-144.71986125384,-79.877409864308,12.445114511451,1389006.2306154,3185.8722444668,2910889.2786461,17.645114511451,0,0
-144.71986114851,-79.891763965975,12.449544954495,1389006.2306154,3185.8722444668,2910889.2786461,17.649544954495,0,0
-144.71986104318,-79.906118067641,12.45397539754,1389006.2306154,3185.8722444668,2910889.2786461,17.65397539754,0,0
-144.71986093784,-79.920472169308,12.458405840584,1389006.2306154,3185.8722444668,2910889.2786461,17.658405840584,0,0
-144.71986083251,-79.934826270975,12.462836283628,1389006.2306154,3185.8722444668,2910889.2786461,17.662836283628,0,0
-144.71986072718,-79.949180372642,12.467266726673,1389006.2306154,3185.8722444668,2910889.2786461,17.667266726673,0,0
-144.71986062184,-79.963534474309,12.471697169717,1389006.2306154,3185.8722444668,2910889.2786461,17.671697169717,0,0
-144.71986051651,-79.977888575976,12.476127612761,1389006.2306154,3185.8722444668,2910889.2786461,17.676127612761,0,0
-144.71986041118,-79.992242677643,12.480558055806,1389006.2306154,3185.8722444668,2910889.2786461,17.680558055806,0,0
-144.71986030585,-80.00659677931,12.48498849885,1389006.2306154,3185.8722444668,2910889.2786461,17.68498849885,0,0
-144.71986020051,-80.020950880977,12.489418941894,1389006.2306154,3185.8722444668,2910889.2786461,17.689418941894,0,0
-144.71986009518,-80.035304982644,12.493849384938,1389006.2306154,3185.8722444668,2910889.2786461,17.693849384938,0,0
-144.71985998985,-80.049659084311,12.498279827983,1389006.2306154,3185.8722444668,2910889.2786461,17.698279827983,0,0
-144.71985988451,-80.064013185977,12.502710271027,1389006.2306154,3185.8722444668,2910889.2786461,17.702710271027,0,0
-144.71985977918,-80.078367287644,12.507140714071,1389006.2306154,3185.8722444668,2910889.2786461,17.707140714071,0,0
-144.71985967385,-80.092721389311,12.511571157116,1389006.2306154,3185.8722444668,2910889.2786461,17.711571157116,0,0
-144.71985956851,-80.107075490978,12.51600160016,1389006.2306154,3185.8722444668,2910889.2786461,17.71600160016,0,0
-144.71985946318,-80.121429592645,12.520432043204,1389006.2306154,3185.8722444668,2910889.2786461,17.720432043204,0,0
-144.71985935785,-80.135783694312,12.524862486249,1389006.2306154,3185.8722444668,2910889.2786461,17.724862486249,0,0
-144.71985925252,-80.150137795979,12.529292929293,1389006.2306154,3185.8722444668,2910889.2786461,17.729292929293,0,0
-144.71985914718,-80.164491897646,12.533723372337,1389006.2306154,3185.8722444668,2910889.2786461,17.733723372337,0,0
-144.71985904185,-80.178845999313,12.538153815382,1389006.2306154,3185.8722444668,2910889.2786461,17.738153815382,0,0
-144.71985893652,-80.19320010098,12.542584258426,1389006.2306154,3185.8722444668,2910889.2786461,17.742584258426,0,0
-144.71985883118,-80.207554202647,12.54701470147,1389006.2306154,3185.8722444668,2910889.2786461,17.74701470147,0,0
-144.71985872585,-80.221908304314,12.551445144514,1389006.2306154,3185.8722444668,2910889.2786461,17.751445144514,0,0
-144.71985862052,-80.23626240598,12.555875587559,1389006.2306154,3185.8722444668,2910889.2786461,17.755875587559,0,0
-144.71985851518,-80.250616507647,12.560306030603,1389006.2306154,3185.8722444668,2910889.2786461,17.760306030603,0,0
-144.71985840985,-80.264970609314,12.564736473647,1389006.2306154,3185.8722444668,2910889.2786461,17.764736473647,0,0
-144.71985830452,-80.279324710981,12.569166916692,1389006.2306154,3185.8722444668,2910889.2786461,17.769166916692,0,0
-144.71985819919,-80.293678812648,12.573597359736,1389006.2306154,3185.8722444668,2910889.2786461,17.773597359736,0,0
-144.71985809385,-80.308032914315,12.57802780278,1389006.2306154,3185.8722444668,2910889.2786461,17.77802780278,0,0
-144.71985798852,-80.322387015982,12.582458245825,1389006.2306154,3185.8722444668,2910889.2786461,17.782458245825,0,0
-144.71985788319,-80.336741117649,12.586888688869,1389006.2306154,3185.8722444668,2910889.2786461,17.786888688869,0,0
-144.71985777785,-80.351095219316,12.591319131913,1389006.2306154,3185.8722444668,2910889.2786461,17.791319131913,0,0
-144.71985767252,-80.365449320983,12.595749574957,1389006.2306154,3185.8722444668,2910889.2786461,17.795749574957,0,0
-144.71985756719,-80.37980342265,12.600180018002,1389006.2306154,3185.8722444668,2910889.2786461,17.800180018002,0,0
-144.71985746186,-80.394157524317,12.604610461046,1389006.2306154,3185.8722444668,2910889.2786461,17.804610461046,0,0
-144.71985735652,-80.408511625983,12.60904090409,1389006.2306154,3185.8722444668,2910889.2786461,17.80904090409,0,0
-144.71985725119,-80.42286572765,12.613471347135,1389006.2306154,3185.8722444668,2910889.2786461,17.813471347135,0,0
-144.71985714586,-80.437219829317,12.617901790179,1389006.2306154,3185.8722444668,2910889.2786461,17.817901790179,0,0
-144.71985704052,-80.451573930984,12.622332233223,1389006.2306154,3185.8722444668,2910889.2786461,17.822332233223,0,0
-144.71985693519,-80.465928032651,12.626762676268,1389006.2306154,3185.8722444668,2910889.2786461,17.826762676268,0,0
-144.71985682986,-80.480282134318,12.631193119312,1389006.2306154,3185.8722444668,2910889.2786461,17.831193119312,0,0
-144.71985672452,-80.494636235985,12.635623562356,1389006.2306154,3185.8722444668,2910889.2786461,17.835623562356,0,0
-144.71985661919,-80.508990337652,12.640054005401,1389006.2306154,3185.8722444668,2910889.2786461,17.840054005401,0,0
-144.71985651386,-80.523344439319,12.644484448445,1389006.2306154,3185.8722444668,2910889.2786461,17.844484448445,0,0
-144.71985640853,-80.537698540986,12.648914891489,1389006.2306154,3185.8722444668,2910889.2786461,17.848914891489,0,0
-144.71985630319,-80.552052642653,12.653345334533,1389006.2306154,3185.8722444668,2910889.2786461,17.853345334533,0,0
-144.71985619786,-80.56640674432,12.657775777578,1389006.2306154,3185.8722444668,2910889.2786461,17.857775777578,0,0
-144.71985609253,-80.580760845986,12.662206220622,1389006.2306154,3185.8722444668,2910889.2786461,17.862206220622,0,0
-144.71985598719,-80.595114947653,12.666636663666,1389006.2306154,3185.8722444668,2910889.2786461,17.866636663666,0,0
-144.71985588186,-80.60946904932,12.671067106711,1389006.2306154,3185.8722444668,2910889.2786461,17.871067106711,0,0
-144.71985577653,-80.623823150987,12.675497549755,1389006.2306154,3185.8722444668,2910889.2786461,17.875497549755,0,0
-144.71985567119,-80.638177252654,12.679927992799,1389006.2306154,3185.8722444668,2910889.2786461,17.879927992799,0,0
-144.71985556586,-80.652531354321,12.684358435844,1389006.2306154,3185.8722444668,2910889.2786461,17.884358435844,0,0
-144.71985546053,-80.666885455988,12.688788878888,1389006.2306154,3185.8722444668,2910889.2786461,17.888788878888,0,0
-144.7198553552,-80.681239557655,12.693219321932,1389006.2306154,3185.8722444668,2910889.2786461,17.893219321932,0,0
-144.71985524986,-80.695593659322,12.697649764976,1389006.2306154,3185.8722444668,2910889.2786461,17.897649764976,0,0
-144.71985514453,-80.709947760989,12.702080208021,1389006.2306154,3185.8722444668,2910889.2786461,17.902080208021,0,0
-144.7198550392,-80.724301862656,12.706510651065,1389006.2306154,3185.8722444668,2910889.2786461,17.906510651065,0,0
-144.71985493386,-80.738655964323,12.710941094109,1389006.2306154,3185.8722444668,2910889.2786461,17.910941094109,0,0
-144.71985482853,-80.753010065989,12.715371537154,1389006.2306154,3185.8722444668,2910889.2786461,17.915371537154,0,0
-144.7198547232,-80.767364167656,12.719801980198,1389006.2306154,3185.8722444668,2910889.2786461,17.919801980198,0,0
-144.71985461786,-80.781718269323,12.724232423242,1389006.2306154,3185.8722444668,2910889.2786461,17.924232423242,0,0
-144.71985451253,-80.79607237099,12.728662866287,1389006.2306154,3185.8722444668,2910889.2786461,17.928662866287,0,0
-144.7198544072,-80.810426472657,12.733093309331,1389006.2306154,3185.8722444668,2910889.2786461,17.933093309331,0,0
-144.71985430187,-80.824780574324,12.737523752375,1389006.2306154,3185.8722444668,2910889.2786461,17.937523752375,0,0
-144.7198541964,-80.839134676699,12.74195419542,1388149.3918824,-3924.430641382,2896307.0952067,17.94195419542,0,0
-144.71985409075,-80.853488780092,12.746384638464,1388149.3918824,-3924.430641382,2896307.0952067,17.946384638464,0,0
-144.7198539851,-80.867842883485,12.750815081508,1388149.3918824,-3924.430641382,2896307.0952067,17.950815081508,0,0
-144.71985387944,-80.882196986878,12.755245524552,1388149.3918824,-3924.430641382,2896307.0952067,17.955245524552,0,0
-144.71985377379,-80.896551090271,12.759675967597,1388149.3918824,-3924.430641382,2896307.0952067,17.959675967597,0,0
-144.71985366814,-80.910905193664,12.764106410641,1388149.3918824,-3924.430641382,2896307.0952067,17.964106410641,0,0
-144.71985356249,-80.925259297057,12.768536853685,1388149.3918824,-3924.430641382,2896307.0952067,17.968536853685,0,0
-144.71985345683,-80.93961340045,12.77296729673,1388149.3918824,-3924.430641382,2896307.0952067,17.97296729673,0,0
-144.71985335118,-80.953967503843,12.777397739774,1388149.3918824,-3924.430641382,2896307.0952067,17.977397739774,0,0
-144.71985324553,-80.968321607236,12.781828182818,1388149.3918824,-3924.430641382,2896307.0952067,17.981828182818,0,0
-144.71985313987,-80.982675710629,12.786258625863,1388149.3918824,-3924.430641382,2896307.0952067,17.986258625863,0,0
-144.71985303422,-80.997029814022,12.790689068907,1388149.3918824,-3924.430641382,2896307.0952067,17.990689068907,0,0
-144.71985292857,-81.011383917415,12.795119511951,1388149.3918824,-3924.430641382,2896307.0952067,17.995119511951,0,0
-144.71985282292,-81.025738020808,12.799549954995,1388149.3918824,-3924.430641382,2896307.0952067,17.999549954995,0,0
-144.71985271726,-81.040092124201,12.80398039804,1388149.3918824,-3924.430641382,2896307.0952067,18.00398039804,0,0
-144.71985261161,-81.054446227594,12.808410841084,1388149.3918824,-3924.430641382,2896307.0952067,18.008410841084,0,0
-144.71985250596,-81.068800330987,12.812841284128,1388149.3918824,-3924.430641382,2896307.0952067,18.012841284128,0,0
-144.7198524003,-81.08315443438,12.817271727173,1388149.3918824,-3924.430641382,2896307.0952067,18.017271727173,0,0
-144.71985229465,-81.097508537773,12.821702170217,1388149.3918824,-3924.430641382,2896307.0952067,18.021702170217,0,0
-144.719852189,-81.111862641166,12.826132613261,1388149.3918824,-3924.430641382,2896307.0952067,18.026132613261,0,0
-144.71985208335,-81.126216744559,12.830563056306,1388149.3918824,-3924.430641382,2896307.0952067,18.030563056306,0,0
-144.71985197769,-81.140570847952,12.83499349935,1388149.3918824,-3924.430641382,2896307.0952067,18.03499349935,0,0
-144.71985187204,-81.154924951345,12.839423942394,1388149.3918824,-3924.430641382,2896307.0952067,18.039423942394,0,0
-144.71985176639,-81.169279054738,12.843854385439,1388149.3918824,-3924.430641382,2896307.0952067,18.043854385439,0,0
-144.71985166074,-81.183633158131,12.848284828483,1388149.3918824,-3924.430641382,2896307.0952067,18.048284828483,0,0
-144.71985155508,-81.197987261524,12.852715271527,1388149.3918824,-3924.430641382,2896307.0952067,18.052715271527,0,0
-144.71985144943,-81.212341364917,12.857145714571,1388149.3918824,-3924.430641382,2896307.0952067,18.057145714571,0,0
-144.71985134378,-81.22669546831,12.861576157616,1388149.3918824,-3924.430641382,2896307.0952067,18.061576157616,0,0
-144.71985123812,-81.241049571703,12.86600660066,1388149.3918824,-3924.430641382,2896307.0952067,18.06600660066,0,0
-144.71985113247,-81.255403675096,12.870437043704,1388149.3918824,-3924.430641382,2896307.0952067,18.070437043704,0,0
-144.71985102682,-81.269757778489,12.874867486749,1388149.3918824,-3924.430641382,2896307.0952067,18.074867486749,0,0
-144.71985092117,-81.284111881882,12.879297929793,1388149.3918824,-3924.430641382,2896307.0952067,18.079297929793,0,0
-144.71985081551,-81.298465985275,12.883728372837,1388149.3918824,-3924.430641382,2896307.0952067,18.083728372837,0,0
-144.71985070986,-81.312820088668,12.888158815882,1388149.3918824,-3924.430641382,2896307.0952067,18.088158815882,0,0
-144.71985060421,-81.327174192061,12.892589258926,1388149.3918824,-3924.430641382,2896307.0952067,18.092589258926,0,0
-144.71985049855,-81.341528295454,12.89701970197,1388149.3918824,-3924.430641382,2896307.0952067,18.09701970197,0,0
-144.7198503929,-81.355882398847,12.901450145015,1388149.3918824,-3924.430641382,2896307.0952067,18.101450145014,0,0
-144.71985028725,-81.37023650224,12.905880588059,1388149.3918824,-3924.430641382,2896307.0952067,18.105880588059,0,0
-144.7198501816,-81.384590605633,12.910311031103,1388149.3918824,-3924.430641382,2896307.0952067,18.110311031103,0,0
-144.71985007594,-81.398944709026,12.914741474147,1388149.3918824,-3924.430641382,2896307.0952067,18.114741474147,0,0
-144.71984997029,-81.413298812419,12.919171917192,1388149.3918824,-3924.430641382,2896307.0952067,18.119171917192,0,0
-144.71984986464,-81.427652915812,12.923602360236,1388149.3918824,-3924.430641382,2896307.0952067,18.123602360236,0,0
-144.71984975899,-81.442007019205,12.92803280328,1388149.3918824,-3924.430641382,2896307.0952067,18.12803280328,0,0
-144.71984965333,-81.456361122598,12.932463246325,1388149.3918824,-3924.430641382,2896307.0952067,18.132463246325,0,0
-144.71984954768,-81.470715225991,12.936893689369,1388149.3918824,-3924.430641382,2896307.0952067,18.136893689369,0,0
-144.71984944203,-81.485069329384,12.941324132413,1388149.3918824,-3924.430641382,2896307.0952067,18.141324132413,0,0
-144.71984933637,-81.499423432777,12.945754575458,1388149.3918824,-3924.430641382,2896307.0952067,18.145754575458,0,0
-144.71984923072,-81.51377753617,12.950185018502,1388149.3918824,-3924.430641382,2896307.0952067,18.150185018502,0,0
-144.71984912507,-81.528131639563,12.954615461546,1388149.3918824,-3924.430641382,2896307.0952067,18.154615461546,0,0
-144.71984901942,-81.542485742956,12.95904590459,1388149.3918824,-3924.430641382,2896307.0952067,18.15904590459,0,0
-144.71984891376,-81.556839846349,12.963476347635,1388149.3918824,-3924.430641382,2896307.0952067,18.163476347635,0,0
-144.71984880811,-81.571193949742,12.967906790679,1388149.3918824,-3924.430641382,2896307.0952067,18.167906790679,0,0
-144.71984870246,-81.585548053135,12.972337233723,1388149.3918824,-3924.430641382,2896307.0952067,18.172337233723,0,0
-144.7198485968,-81.599902156528,12.976767676768,1388149.3918824,-3924.430641382,2896307.0952067,18.176767676768,0,0
-144.71984849115,-81.614256259921,12.981198119812,1388149.3918824,-3924.430641382,2896307.0952067,18.181198119812,0,0
-144.7198483855,-81.628610363314,12.985628562856,1388149.3918824,-3924.430641382,2896307.0952067,18.185628562856,0,0
-144.71984827985,-81.642964466707,12.990059005901,1388149.3918824,-3924.430641382,2896307.0952067,18.190059005901,0,0
-144.71984817419,-81.6573185701,12.994489448945,1388149.3918824,-3924.430641382,2896307.0952067,18.194489448945,0,0
-144.71984806854,-81.671672673493,12.998919891989,1388149.3918824,-3924.430641382,2896307.0952067,18.198919891989,0,0
-144.71984796289,-81.686026776886,13.003350335034,1388149.3918824,-3924.430641382,2896307.0952067,18.203350335034,0,0
-144.71984785724,-81.700380880279,13.007780778078,1388149.3918824,-3924.430641382,2896307.0952067,18.207780778078,0,0
-144.71984775158,-81.714734983672,13.012211221122,1388149.3918824,-3924.430641382,2896307.0952067,18.212211221122,0,0
-144.71984764593,-81.729089087065,13.016641664166,1388149.3918824,-3924.430641382,2896307.0952067,18.216641664166,0,0
-144.71984754028,-81.743443190458,13.021072107211,1388149.3918824,-3924.430641382,2896307.0952067,18.221072107211,0,0
-144.71984743462,-81.757797293851,13.025502550255,1388149.3918824,-3924.430641382,2896307.0952067,18.225502550255,0,0
-144.71984732897,-81.772151397244,13.029932993299,1388149.3918824,-3924.430641382,2896307.0952067,18.229932993299,0,0
-144.71984722332,-81.786505500637,13.034363436344,1388149.3918824,-3924.430641382,2896307.0952067,18.234363436344,0,0
-144.71984711767,-81.80085960403,13.038793879388,1388149.3918824,-3924.430641382,2896307.0952067,18.238793879388,0,0
-144.71984701201,-81.815213707423,13.043224322432,1388149.3918824,-3924.430641382,2896307.0952067,18.243224322432,0,0
-144.71984690636,-81.829567810816,13.047654765477,1388149.3918824,-3924.430641382,2896307.0952067,18.247654765477,0,0
-144.71984680071,-81.843921914209,13.052085208521,1388149.3918824,-3924.430641382,2896307.0952067,18.252085208521,0,0
-144.71984669505,-81.858276017602,13.056515651565,1388149.3918824,-3924.430641382,2896307.0952067,18.256515651565,0,0
-144.7198465894,-81.872630120995,13.060946094609,1388149.3918824,-3924.430641382,2896307.0952067,18.260946094609,0,0
-144.71984648375,-81.886984224388,13.065376537654,1388149.3918824,-3924.430641382,2896307.0952067,18.265376537654,0,0
-144.7198463781,-81.901338327781,13.069806980698,1388149.3918824,-3924.430641382,2896307.0952067,18.269806980698,0,0
-144.71984627244,-81.915692431174,13.074237423742,1388149.3918824,-3924.430641382,2896307.0952067,18.274237423742,0,0
-144.71984616679,-81.930046534567,13.078667866787,1388149.3918824,-3924.430641382,2896307.0952067,18.278667866787,0,0
-144.71984606114,-81.94440063796,13.083098309831,1388149.3918824,-3924.430641382,2896307.0952067,18.283098309831,0,0
-144.71984595548,-81.958754741353,13.087528752875,1388149.3918824,-3924.430641382,2896307.0952067,18.287528752875,0,0
-144.71984584983,-81.973108844746,13.09195919592,1388149.3918824,-3924.430641382,2896307.0952067,18.29195919592,0,0
-144.71984574418,-81.987462948139,13.096389638964,1388149.3918824,-3924.430641382,2896307.0952067,18.296389638964,0,0
-144.71984563853,-82.001817051532,13.100820082008,1388149.3918824,-3924.430641382,2896307.0952067,18.300820082008,0,0
-144.71984553287,-82.016171154925,13.105250525053,1388149.3918824,-3924.430641382,2896307.0952067,18.305250525053,0,0
-144.71984542722,-82.030525258318,13.109680968097,1388149.3918824,-3924.430641382,2896307.0952067,18.309680968097,0,0
-144.71984532157,-82.044879361711,13.114111411141,1388149.3918824,-3924.430641382,2896307.0952067,18.314111411141,0,0
-144.71984521592,-82.059233465104,13.118541854185,1388149.3918824,-3924.430641382,2896307.0952067,18.318541854185,0,0
-144.71984511026,-82.073587568497,13.12297229723,1388149.3918824,-3924.430641382,2896307.0952067,18.32297229723,0,0
-144.71984500461,-82.08794167189,13.127402740274,1388149.3918824,-3924.430641382,2896307.0952067,18.327402740274,0,0
-144.71984489896,-82.102295775283,13.131833183318,1388149.3918824,-3924.430641382,2896307.0952067,18.331833183318,0,0
-144.7198447933,-82.116649878676,13.136263626363,1388149.3918824,-3924.430641382,2896307.0952067,18.336263626363,0,0
-144.71984468765,-82.131003982069,13.140694069407,1388149.3918824,-3924.430641382,2896307.0952067,18.340694069407,0,0
-144.719844582,-82.145358085462,13.145124512451,1388149.3918824,-3924.430641382,2896307.0952067,18.345124512451,0,0
-144.71984447635,-82.159712188855,13.149554955496,1388149.3918824,-3924.430641382,2896307.0952067,18.349554955496,0,0
-144.71984437069,-82.174066292248,13.15398539854,1388149.3918824,-3924.430641382,2896307.0952067,18.35398539854,0,0
-144.71984426504,-82.188420395641,13.158415841584,1388149.3918824,-3924.430641382,2896307.0952067,18.358415841584,0,0
-144.71984415939,-82.202774499034,13.162846284628,1388149.3918824,-3924.430641382,2896307.0952067,18.362846284628,0,0
-144.71984405373,-82.217128602427,13.167276727673,1388149.3918824,-3924.430641382,2896307.0952067,18.367276727673,0,0
-144.71984394808,-82.23148270582,13.171707170717,1388149.3918824,-3924.430641382,2896307.0952067,18.371707170717,0,0
-144.71984384243,-82.245836809213,13.176137613761,1388149.3918824,-3924.430641382,2896307.0952067,18.376137613761,0,0
-144.71984373678,-82.260190912606,13.180568056806,1388149.3918824,-3924.430641382,2896307.0952067,18.380568056806,0,0
-144.71984363112,-82.274545015999,13.18499849985,1388149.3918824,-3924.430641382,2896307.0952067,18.38499849985,0,0
-144.71984352547,-82.288899119392,13.189428942894,1388149.3918824,-3924.430641382,2896307.0952067,18.389428942894,0,0
-144.71984341982,-82.303253222785,13.193859385939,1388149.3918824,-3924.430641382,2896307.0952067,18.393859385939,0,0
-144.71984331417,-82.317607326178,13.198289828983,1388149.3918824,-3924.430641382,2896307.0952067,18.398289828983,0,0
-144.71984320851,-82.331961429571,13.202720272027,1388149.3918824,-3924.430641382,2896307.0952067,18.402720272027,0,0
-144.71984310286,-82.346315532964,13.207150715072,1388149.3918824,-3924.430641382,2896307.0952067,18.407150715072,0,0
-144.71984299721,-82.360669636357,13.211581158116,1388149.3918824,-3924.430641382,2896307.0952067,18.411581158116,0,0
-144.71984289155,-82.37502373975,13.21601160116,1388149.3918824,-3924.430641382,2896307.0952067,18.41601160116,0,0
-144.7198427859,-82.389377843143,13.220442044204,1388149.3918824,-3924.430641382,2896307.0952067,18.420442044204,0,0
-144.71984268025,-82.403731946536,13.224872487249,1388149.3918824,-3924.430641382,2896307.0952067,18.424872487249,0,0
-144.7198425746,-82.418086049929,13.229302930293,1388149.3918824,-3924.430641382,2896307.0952067,18.429302930293,0,0
-144.71984246894,-82.432440153322,13.233733373337,1388149.3918824,-3924.430641382,2896307.0952067,18.433733373337,0,0
-144.71984236329,-82.446794256715,13.238163816382,1388149.3918824,-3924.430641382,2896307.0952067,18.438163816382,0,0
-144.71984225764,-82.461148360108,13.242594259426,1388149.3918824,-3924.430641382,2896307.0952067,18.442594259426,0,0
-144.71984215198,-82.475502463501,13.24702470247,1388149.3918824,-3924.430641382,2896307.0952067,18.44702470247,0,0
-144.71984204633,-82.489856566894,13.251455145515,1388149.3918824,-3924.430641382,2896307.0952067,18.451455145515,0,0
-144.71984194068,-82.504210670287,13.255885588559,1388149.3918824,-3924.430641382,2896307.0952067,18.455885588559,0,0
-144.71984183503,-82.51856477368,13.260316031603,1388149.3918824,-3924.430641382,2896307.0952067,18.460316031603,0,0
-144.71984172937,-82.532918877073,13.264746474647,1388149.3918824,-3924.430641382,2896307.0952067,18.464746474647,0,0
-144.71984162372,-82.547272980466,13.269176917692,1388149.3918824,-3924.430641382,2896307.0952067,18.469176917692,0,0
-144.71984151807,-82.561627083859,13.273607360736,1388149.3918824,-3924.430641382,2896307.0952067,18.473607360736,0,0
-144.71984141242,-82.575981187252,13.27803780378,1388149.3918824,-3924.430641382,2896307.0952067,18.47803780378,0,0
-144.71984130676,-82.590335290645,13.282468246825,1388149.3918824,-3924.430641382,2896307.0952067,18.482468246825,0,0
-144.71984120111,-82.604689394038,13.286898689869,1388149.3918824,-3924.430641382,2896307.0952067,18.486898689869,0,0
-144.71984109546,-82.619043497431,13.291329132913,1388149.3918824,-3924.430641382,2896307.0952067,18.491329132913,0,0
-144.7198409898,-82.633397600825,13.295759575958,1388149.3918824,-3924.430641382,2896307.0952067,18.495759575958,0,0
-144.71984088415,-82.647751704217,13.300190019002,1388149.3918824,-3924.430641382,2896307.0952067,18.500190019002,0,0
-144.7198407785,-82.662105807611,13.304620462046,1388149.3918824,-3924.430641382,2896307.0952067,18.504620462046,0,0
-144.71984067285,-82.676459911004,13.309050905091,1388149.3918824,-3924.430641382,2896307.0952067,18.509050905091,0,0
-144.71984056719,-82.690814014397,13.313481348135,1388149.3918824,-3924.430641382,2896307.0952067,18.513481348135,0,0
-144.71984046154,-82.70516811779,13.317911791179,1388149.3918824,-3924.430641382,2896307.0952067,18.517911791179,0,0
-144.71984035589,-82.719522221183,13.322342234223,1388149.3918824,-3924.430641382,2896307.0952067,18.522342234223,0,0
-144.71984025023,-82.733876324576,13.326772677268,1388149.3918824,-3924.430641382,2896307.0952067,18.526772677268,0,0
-144.71984014458,-82.748230427969,13.331203120312,1388149.3918824,-3924.430641382,2896307.0952067,18.531203120312,0,0
-144.71984003893,-82.762584531362,13.335633563356,1388149.3918824,-3924.430641382,2896307.0952067,18.535633563356,0,0
-144.71983993328,-82.776938634755,13.340064006401,1388149.3918824,-3924.430641382,2896307.0952067,18.540064006401,0,0
-144.71983982762,-82.791292738148,13.344494449445,1388149.3918824,-3924.430641382,2896307.0952067,18.544494449445,0,0
-144.71983972197,-82.805646841541,13.348924892489,1388149.3918824,-3924.430641382,2896307.0952067,18.548924892489,0,0
-144.71983961632,-82.820000944934,13.353355335534,1388149.3918824,-3924.430641382,2896307.0952067,18.553355335534,0,0
-144.71983951067,-82.834355048327,13.357785778578,1388149.3918824,-3924.430641382,2896307.0952067,18.557785778578,0,0
-144.71983940501,-82.84870915172,13.362216221622,1388149.3918824,-3924.430641382,2896307.0952067,18.562216221622,0,0
-144.71983929936,-82.863063255113,13.366646664666,1388149.3918824,-3924.430641382,2896307.0952067,18.566646664666,0,0
-144.71983919371,-82.877417358506,13.371077107711,1388149.3918824,-3924.430641382,2896307.0952067,18.571077107711,0,0
-144.71983908805,-82.891771461899,13.375507550755,1388149.3918824,-3924.430641382,2896307.0952067,18.575507550755,0,0
-144.7198389824,-82.906125565292,13.379937993799,1388149.3918824,-3924.430641382,2896307.0952067,18.579937993799,0,0
-144.71983887675,-82.920479668685,13.384368436844,1388149.3918824,-3924.430641382,2896307.0952067,18.584368436844,0,0
-144.7198387711,-82.934833772078,13.388798879888,1388149.3918824,-3924.430641382,2896307.0952067,18.588798879888,0,0
-144.71983866544,-82.949187875471,13.393229322932,1388149.3918824,-3924.430641382,2896307.0952067,18.593229322932,0,0
-144.71983855979,-82.963541978864,13.397659765977,1388149.3918824,-3924.430641382,2896307.0952067,18.597659765977,0,0
-144.71983845414,-82.977896082257,13.402090209021,1388149.3918824,-3924.430641382,2896307.0952067,18.602090209021,0,0
-144.71983834848,-82.99225018565,13.406520652065,1388149.3918824,-3924.430641382,2896307.0952067,18.606520652065,0,0
-144.71983824283,-83.006604289043,13.41095109511,1388149.3918824,-3924.430641382,2896307.0952067,18.61095109511,0,0
-144.71983813718,-83.020958392436,13.415381538154,1388149.3918824,-3924.430641382,2896307.0952067,18.615381538154,0,0
-144.71983803153,-83.035312495829,13.419811981198,1388149.3918824,-3924.430641382,2896307.0952067,18.619811981198,0,0
-144.71983792587,-83.049666599222,13.424242424242,1388149.3918824,-3924.430641382,2896307.0952067,18.624242424242,0,0
-144.71983782022,-83.064020702615,13.428672867287,1388149.3918824,-3924.430641382,2896307.0952067,18.628672867287,0,0
-144.71983771457,-83.078374806008,13.433103310331,1388149.3918824,-3924.430641382,2896307.0952067,18.633103310331,0,0
-144.71983760892,-83.092728909401,13.437533753375,1388149.3918824,-3924.430641382,2896307.0952067,18.637533753375,0,0
-144.71983750326,-83.107083012794,13.44196419642,1388149.3918824,-3924.430641382,2896307.0952067,18.64196419642,0,0
-144.71983739761,-83.121437116187,13.446394639464,1388149.3918824,-3924.430641382,2896307.0952067,18.646394639464,0,0
-144.71983729196,-83.13579121958,13.450825082508,1388149.3918824,-3924.430641382,2896307.0952067,18.650825082508,0,0
-144.7198371863,-83.150145322973,13.455255525553,1388149.3918824,-3924.430641382,2896307.0952067,18.655255525553,0,0
-144.71983708065,-83.164499426366,13.459685968597,1388149.3918824,-3924.430641382,2896307.0952067,18.659685968597,0,0
-144.719836975,-83.178853529759,13.464116411641,1388149.3918824,-3924.430641382,2896307.0952067,18.664116411641,0,0
-144.71983686935,-83.193207633152,13.468546854685,1388149.3918824,-3924.430641382,2896307.0952067,18.668546854685,0,0
-144.71983676369,-83.207561736545,13.47297729773,1388149.3918824,-3924.430641382,2896307.0952067,18.67297729773,0,0
-144.71983665804,-83.221915839938,13.477407740774,1388149.3918824,-3924.430641382,2896307.0952067,18.677407740774,0,0
-144.71983655239,-83.236269942424,13.481838183818,1384818.3230203,2846.0162888223,2886419.1659289,18.681838183818,0,0
-144.71983644674,-83.250624044377,13.486268626863,1384818.3230203,2846.0162888223,2886419.1659289,18.686268626863,0,0
-144.71983634109,-83.264978146329,13.490699069907,1384818.3230203,2846.0162888223,2886419.1659289,18.690699069907,0,0
-144.71983623544,-83.279332248281,13.495129512951,1384818.3230203,2846.0162888223,2886419.1659289,18.695129512951,0,0
-144.71983612979,-83.293686350233,13.499559955996,1384818.3230203,2846.0162888223,2886419.1659289,18.699559955996,0,0
-144.71983602414,-83.308040452186,13.50399039904,1384818.3230203,2846.0162888223,2886419.1659289,18.70399039904,0,0
-144.71983591849,-83.322394554138,13.508420842084,1384818.3230203,2846.0162888223,2886419.1659289,18.708420842084,0,0
-144.71983581284,-83.33674865609,13.512851285129,1384818.3230203,2846.0162888223,2886419.1659289,18.712851285129,0,0
-144.71983570719,-83.351102758042,13.517281728173,1384818.3230203,2846.0162888223,2886419.1659289,18.717281728173,0,0
-144.71983560154,-83.365456859995,13.521712171217,1384818.3230203,2846.0162888223,2886419.1659289,18.721712171217,0,0
-144.71983549589,-83.379810961947,13.526142614261,1384818.3230203,2846.0162888223,2886419.1659289,18.726142614261,0,0
-144.71983539024,-83.394165063899,13.530573057306,1384818.3230203,2846.0162888223,2886419.1659289,18.730573057306,0,0
-144.71983528459,-83.408519165851,13.53500350035,1384818.3230203,2846.0162888223,2886419.1659289,18.73500350035,0,0
-144.71983517894,-83.422873267804,13.539433943394,1384818.3230203,2846.0162888223,2886419.1659289,18.739433943394,0,0
-144.71983507329,-83.437227369756,13.543864386439,1384818.3230203,2846.0162888223,2886419.1659289,18.743864386439,0,0
-144.71983496764,-83.451581471708,13.548294829483,1384818.3230203,2846.0162888223,2886419.1659289,18.748294829483,0,0
-144.71983486199,-83.46593557366,13.552725272527,1384818.3230203,2846.0162888223,2886419.1659289,18.752725272527,0,0
-144.71983475634,-83.480289675613,13.557155715572,1384818.3230203,2846.0162888223,2886419.1659289,18.757155715572,0,0
-144.71983465069,-83.494643777565,13.561586158616,1384818.3230203,2846.0162888223,2886419.1659289,18.761586158616,0,0
-144.71983454504,-83.508997879517,13.56601660166,1384818.3230203,2846.0162888223,2886419.1659289,18.76601660166,0,0
-144.71983443939,-83.523351981469,13.570447044704,1384818.3230203,2846.0162888223,2886419.1659289,18.770447044704,0,0
-144.71983433374,-83.537706083422,13.574877487749,1384818.3230203,2846.0162888223,2886419.1659289,18.774877487749,0,0
-144.71983422809,-83.552060185374,13.579307930793,1384818.3230203,2846.0162888223,2886419.1659289,18.779307930793,0,0
-144.71983412244,-83.566414287326,13.583738373837,1384818.3230203,2846.0162888223,2886419.1659289,18.783738373837,0,0
-144.71983401679,-83.580768389278,13.588168816882,1384818.3230203,2846.0162888223,2886419.1659289,18.788168816882,0,0
-144.71983391114,-83.595122491231,13.592599259926,1384818.3230203,2846.0162888223,2886419.1659289,18.792599259926,0,0
-144.71983380549,-83.609476593183,13.59702970297,1384818.3230203,2846.0162888223,2886419.1659289,18.79702970297,0,0
-144.71983369984,-83.623830695135,13.601460146015,1384818.3230203,2846.0162888223,2886419.1659289,18.801460146015,0,0
-144.71983359419,-83.638184797087,13.605890589059,1384818.3230203,2846.0162888223,2886419.1659289,18.805890589059,0,0
-144.71983348854,-83.65253889904,13.610321032103,1384818.3230202,2846.0162888223,2886419.1659289,18.810321032103,0,0
-144.71983338289,-83.666893000992,13.614751475148,1384818.3230202,2846.0162888223,2886419.1659289,18.814751475148,0,0
-144.71983327724,-83.681247102944,13.619181918192,1384818.3230202,2846.0162888223,2886419.1659289,18.819181918192,0,0
-144.71983317159,-83.695601204896,13.623612361236,1384818.3230202,2846.0162888223,2886419.1659289,18.823612361236,0,0
-144.71983306594,-83.709955306849,13.62804280428,1384818.3230203,2846.0162888223,2886419.1659289,18.82804280428,0,0
-144.71983296029,-83.724309408801,13.632473247325,1384818.3230203,2846.0162888223,2886419.1659289,18.832473247325,0,0
-144.71983285464,-83.738663510753,13.636903690369,1384818.3230203,2846.0162888223,2886419.1659289,18.836903690369,0,0
-144.71983274899,-83.753017612705,13.641334133413,1384818.3230203,2846.0162888223,2886419.1659289,18.841334133413,0,0
-144.71983264334,-83.767371714658,13.645764576458,1384818.3230203,2846.0162888223,2886419.1659289,18.845764576458,0,0
-144.71983253769,-83.78172581661,13.650195019502,1384818.3230203,2846.0162888223,2886419.1659289,18.850195019502,0,0
-144.71983243204,-83.796079918562,13.654625462546,1384818.3230203,2846.0162888223,2886419.1659289,18.854625462546,0,0
-144.71983232639,-83.810434020514,13.659055905591,1384818.3230203,2846.0162888223,2886419.1659289,18.859055905591,0,0
-144.71983222074,-83.824788122467,13.663486348635,1384818.3230202,2846.0162888223,2886419.1659289,18.863486348635,0,0
-144.71983211509,-83.839142224419,13.667916791679,1384818.3230202,2846.0162888223,2886419.1659289,18.867916791679,0,0
-144.71983200944,-83.853496326371,13.672347234723,1384818.3230202,2846.0162888223,2886419.1659289,18.872347234723,0,0
-144.71983190379,-83.867850428323,13.676777677768,1384818.3230202,2846.0162888223,2886419.1659289,18.876777677768,0,0
-144.71983179814,-83.882204530276,13.681208120812,1384818.3230202,2846.0162888223,2886419.1659289,18.881208120812,0,0
-144.71983169249,-83.896558632228,13.685638563856,1384818.3230202,2846.0162888223,2886419.1659289,18.885638563856,0,0
-144.71983158684,-83.91091273418,13.690069006901,1384818.3230202,2846.0162888223,2886419.1659289,18.890069006901,0,0
-144.71983148119,-83.925266836132,13.694499449945,1384818.3230202,2846.0162888223,2886419.1659289,18.894499449945,0,0
-144.71983137554,-83.939620938085,13.698929892989,1384818.3230202,2846.0162888223,2886419.1659289,18.898929892989,0,0
-144.71983126989,-83.953975040037,13.703360336034,1384818.3230202,2846.0162888223,2886419.1659289,18.903360336034,0,0
-144.71983116424,-83.968329141989,13.707790779078,1384818.3230202,2846.0162888223,2886419.1659289,18.907790779078,0,0
-144.71983105859,-83.982683243941,13.712221222122,1384818.3230202,2846.0162888223,2886419.1659289,18.912221222122,0,0
-144.71983095294,-83.997037345894,13.716651665167,1384818.3230202,2846.0162888223,2886419.1659289,18.916651665167,0,0
-144.71983084729,-84.011391447846,13.721082108211,1384818.3230202,2846.0162888223,2886419.1659289,18.921082108211,0,0
-144.71983074164,-84.025745549798,13.725512551255,1384818.3230202,2846.0162888223,2886419.1659289,18.925512551255,0,0
-144.71983063599,-84.04009965175,13.729942994299,1384818.3230202,2846.0162888223,2886419.1659289,18.929942994299,0,0
-144.71983053034,-84.054453753703,13.734373437344,1384818.3230202,2846.0162888223,2886419.1659289,18.934373437344,0,0
-144.71983042469,-84.068807855655,13.738803880388,1384818.3230202,2846.0162888223,2886419.1659289,18.938803880388,0,0
-144.71983031904,-84.083161957607,13.743234323432,1384818.3230202,2846.0162888223,2886419.1659289,18.943234323432,0,0
-144.71983021339,-84.097516059559,13.747664766477,1384818.3230202,2846.0162888223,2886419.1659289,18.947664766477,0,0
-144.71983010774,-84.111870161512,13.752095209521,1384818.3230202,2846.0162888223,2886419.1659289,18.952095209521,0,0
-144.71983000209,-84.126224263464,13.756525652565,1384818.3230202,2846.0162888223,2886419.1659289,18.956525652565,0,0
-144.71982989644,-84.140578365416,13.76095609561,1384818.3230202,2846.0162888223,2886419.1659289,18.96095609561,0,0
-144.71982979079,-84.154932467368,13.765386538654,1384818.3230202,2846.0162888223,2886419.1659289,18.965386538654,0,0
-144.71982968514,-84.169286569321,13.769816981698,1384818.3230202,2846.0162888223,2886419.1659289,18.969816981698,0,0
-144.71982957949,-84.183640671273,13.774247424742,1384818.3230202,2846.0162888223,2886419.1659289,18.974247424742,0,0
-144.71982947384,-84.197994773225,13.778677867787,1384818.3230202,2846.0162888223,2886419.1659289,18.978677867787,0,0
-144.71982936819,-84.212348875177,13.783108310831,1384818.3230202,2846.0162888223,2886419.1659289,18.983108310831,0,0
-144.71982926254,-84.22670297713,13.787538753875,1384818.3230202,2846.0162888223,2886419.1659289,18.987538753875,0,0
-144.71982915689,-84.241057079082,13.79196919692,1384818.3230202,2846.0162888223,2886419.1659289,18.99196919692,0,0
-144.71982905124,-84.255411181034,13.796399639964,1384818.3230202,2846.0162888223,2886419.1659289,18.996399639964,0,0
-144.71982894559,-84.269765282986,13.800830083008,1384818.3230202,2846.0162888223,2886419.1659289,19.000830083008,0,0
-144.71982883994,-84.284119384939,13.805260526053,1384818.3230202,2846.0162888223,2886419.1659289,19.005260526053,0,0
-144.71982873429,-84.298473486891,13.809690969097,1384818.3230202,2846.0162888223,2886419.1659289,19.009690969097,0,0
-144.71982862864,-84.312827588843,13.814121412141,1384818.3230202,2846.0162888223,2886419.1659289,19.014121412141,0,0
-144.71982852299,-84.327181690795,13.818551855186,1384818.3230202,2846.0162888223,2886419.1659289,19.018551855186,0,0
-144.71982841734,-84.341535792748,13.82298229823,1384818.3230202,2846.0162888223,2886419.1659289,19.02298229823,0,0
-144.71982831169,-84.3558898947,13.827412741274,1384818.3230202,2846.0162888223,2886419.1659289,19.027412741274,0,0
-144.71982820604,-84.370243996652,13.831843184318,1384818.3230202,2846.0162888223,2886419.1659289,19.031843184318,0,0
-144.71982810039,-84.384598098604,13.836273627363,1384818.3230202,2846.0162888223,2886419.1659289,19.036273627363,0,0
-144.71982799474,-84.398952200557,13.840704070407,1384818.3230202,2846.0162888223,2886419.1659289,19.040704070407,0,0
-144.71982788909,-84.413306302509,13.845134513451,1384818.3230202,2846.0162888223,2886419.1659289,19.045134513451,0,0
-144.71982778344,-84.427660404461,13.849564956496,1384818.3230202,2846.0162888223,2886419.1659289,19.049564956496,0,0
-144.71982767779,-84.442014506413,13.85399539954,1384818.3230202,2846.0162888223,2886419.1659289,19.05399539954,0,0
-144.71982757214,-84.456368608366,13.858425842584,1384818.3230202,2846.0162888223,2886419.1659289,19.058425842584,0,0
-144.71982746649,-84.470722710318,13.862856285629,1384818.3230202,2846.0162888223,2886419.1659289,19.062856285629,0,0
-144.71982736084,-84.48507681227,13.867286728673,1384818.3230202,2846.0162888223,2886419.1659289,19.067286728673,0,0
-144.71982725519,-84.499430914223,13.871717171717,1384818.3230202,2846.0162888223,2886419.1659288,19.071717171717,0,0
-144.71982714954,-84.513785016175,13.876147614761,1384818.3230202,2846.0162888223,2886419.1659288,19.076147614761,0,0
-144.71982704389,-84.528139118127,13.880578057806,1384818.3230202,2846.0162888223,2886419.1659288,19.080578057806,0,0
-144.71982693824,-84.542493220079,13.88500850085,1384818.3230202,2846.0162888223,2886419.1659288,19.08500850085,0,0
-144.71982683259,-84.556847322032,13.889438943894,1384818.3230202,2846.0162888223,2886419.1659288,19.089438943894,0,0
-144.71982672694,-84.571201423984,13.893869386939,1384818.3230202,2846.0162888223,2886419.1659288,19.093869386939,0,0
-144.71982662129,-84.585555525936,13.898299829983,1384818.3230202,2846.0162888223,2886419.1659288,19.098299829983,0,0
-144.71982651564,-84.599909627888,13.902730273027,1384818.3230202,2846.0162888223,2886419.1659288,19.102730273027,0,0
-144.71982640999,-84.614263729841,13.907160716072,1384818.3230202,2846.0162888223,2886419.1659288,19.107160716072,0,0
-144.71982630434,-84.628617831793,13.911591159116,1384818.3230202,2846.0162888223,2886419.1659288,19.111591159116,0,0
-144.71982619869,-84.642971933745,13.91602160216,1384818.3230202,2846.0162888223,2886419.1659288,19.11602160216,0,0
-144.71982609304,-84.657326035697,13.920452045205,1384818.3230202,2846.0162888223,2886419.1659288,19.120452045205,0,0
-144.71982598739,-84.67168013765,13.924882488249,1384818.3230202,2846.0162888223,2886419.1659288,19.124882488249,0,0
-144.71982588174,-84.686034239602,13.929312931293,1384818.3230202,2846.0162888223,2886419.1659288,19.129312931293,0,0
-144.71982577609,-84.700388341554,13.933743374337,1384818.3230202,2846.0162888223,2886419.1659288,19.133743374337,0,0
-144.71982567044,-84.714742443506,13.938173817382,1384818.3230202,2846.0162888223,2886419.1659288,19.138173817382,0,0
-144.71982556479,-84.729096545459,13.942604260426,1384818.3230202,2846.0162888223,2886419.1659288,19.142604260426,0,0
-144.71982545914,-84.743450647411,13.94703470347,1384818.3230202,2846.0162888223,2886419.1659288,19.14703470347,0,0
-144.71982535349,-84.757804749363,13.951465146515,1384818.3230202,2846.0162888223,2886419.1659288,19.151465146515,0,0
-144.71982524784,-84.772158851315,13.955895589559,1384818.3230202,2846.0162888223,2886419.1659288,19.155895589559,0,0
-144.71982514219,-84.786512953268,13.960326032603,1384818.3230202,2846.0162888223,2886419.1659288,19.160326032603,0,0
-144.71982503654,-84.80086705522,13.964756475648,1384818.3230202,2846.0162888223,2886419.1659288,19.164756475648,0,0
-144.71982493089,-84.815221157172,13.969186918692,1384818.3230202,2846.0162888223,2886419.1659288,19.169186918692,0,0
-144.71982482524,-84.829575259124,13.973617361736,1384818.3230202,2846.0162888223,2886419.1659288,19.173617361736,0,0
-144.71982471959,-84.843929361077,13.97804780478,1384818.3230202,2846.0162888223,2886419.1659288,19.17804780478,0,0
-144.71982461394,-84.858283463029,13.982478247825,1384818.3230202,2846.0162888223,2886419.1659288,19.182478247825,0,0
-144.71982450829,-84.872637564981,13.986908690869,1384818.3230202,2846.0162888223,2886419.1659288,19.186908690869,0,0
-144.71982440264,-84.886991666933,13.991339133913,1384818.3230202,2846.0162888223,2886419.1659288,19.191339133913,0,0
-144.71982429699,-84.901345768886,13.995769576958,1384818.3230202,2846.0162888223,2886419.1659288,19.195769576958,0,0
-144.71982419134,-84.915699870838,14.000200020002,1384818.3230202,2846.0162888223,2886419.1659288,19.200200020002,0,0
-144.71982408569,-84.93005397279,14.004630463046,1384818.3230202,2846.0162888223,2886419.1659288,19.204630463046,0,0
-144.71982398004,-84.944408074742,14.009060906091,1384818.3230202,2846.0162888223,2886419.1659288,19.209060906091,0,0
-144.71982387439,-84.958762176695,14.013491349135,1384818.3230202,2846.0162888223,2886419.1659288,19.213491349135,0,0
-144.71982376873,-84.973116278733,14.017921792179,1383994.9849079,-2960.6742465148,2873864.9149681,19.217921792179,0,0
-144.71982366281,-84.987470382108,14.022352235224,1383994.9849079,-2960.6742465148,2873864.9149681,19.222352235224,0,0
-144.71982355689,-85.001824485482,14.026782678268,1383994.9849079,-2960.6742465148,2873864.9149681,19.226782678268,0,0
-144.71982345097,-85.016178588856,14.031213121312,1383994.9849079,-2960.6742465148,2873864.9149681,19.231213121312,0,0
-144.71982334505,-85.030532692231,14.035643564356,1383994.9849079,-2960.6742465148,2873864.9149681,19.235643564356,0,0
-144.71982323913,-85.044886795605,14.040074007401,1383994.9849079,-2960.6742465148,2873864.9149681,19.240074007401,0,0
-144.71982313321,-85.059240898979,14.044504450445,1383994.9849079,-2960.6742465148,2873864.9149681,19.244504450445,0,0
-144.7198230273,-85.073595002353,14.048934893489,1383994.9849079,-2960.6742465148,2873864.9149681,19.248934893489,0,0
-144.71982292138,-85.087949105728,14.053365336534,1383994.9849079,-2960.6742465148,2873864.9149681,19.253365336534,0,0
-144.71982281546,-85.102303209102,14.057795779578,1383994.9849079,-2960.6742465148,2873864.9149681,19.257795779578,0,0
-144.71982270954,-85.116657312476,14.062226222622,1383994.9849079,-2960.6742465148,2873864.9149681,19.262226222622,0,0
-144.71982260362,-85.131011415851,14.066656665667,1383994.9849079,-2960.6742465148,2873864.9149681,19.266656665667,0,0
-144.7198224977,-85.145365519225,14.071087108711,1383994.9849079,-2960.6742465148,2873864.9149681,19.271087108711,0,0
-144.71982239178,-85.159719622599,14.075517551755,1383994.9849079,-2960.6742465148,2873864.9149681,19.275517551755,0,0
-144.71982228587,-85.174073725973,14.079947994799,1383994.9849079,-2960.6742465148,2873864.9149681,19.279947994799,0,0
-144.71982217995,-85.188427829348,14.084378437844,1383994.9849079,-2960.6742465148,2873864.9149681,19.284378437844,0,0
-144.71982207403,-85.202781932722,14.088808880888,1383994.9849079,-2960.6742465148,2873864.9149681,19.288808880888,0,0
-144.71982196811,-85.217136036096,14.093239323932,1383994.9849079,-2960.6742465148,2873864.9149681,19.293239323932,0,0
-144.71982186219,-85.231490139471,14.097669766977,1383994.9849079,-2960.6742465148,2873864.9149681,19.297669766977,0,0
-144.71982175627,-85.245844242845,14.102100210021,1383994.9849079,-2960.6742465148,2873864.9149681,19.302100210021,0,0
-144.71982165036,-85.260198346219,14.106530653065,1383994.9849079,-2960.6742465148,2873864.9149681,19.306530653065,0,0
-144.71982154444,-85.274552449593,14.11096109611,1383994.9849079,-2960.6742465148,2873864.9149681,19.31096109611,0,0
-144.71982143852,-85.288906552968,14.115391539154,1383994.9849079,-2960.6742465148,2873864.9149681,19.315391539154,0,0
-144.7198213326,-85.303260656342,14.119821982198,1383994.9849079,-2960.6742465148,2873864.9149681,19.319821982198,0,0
-144.71982122668,-85.317614759716,14.124252425243,1383994.9849079,-2960.6742465148,2873864.9149681,19.324252425243,0,0
-144.71982112076,-85.331968863091,14.128682868287,1383994.9849079,-2960.6742465148,2873864.9149681,19.328682868287,0,0
-144.71982101484,-85.346322966465,14.133113311331,1383994.9849079,-2960.6742465148,2873864.9149681,19.333113311331,0,0
-144.71982090893,-85.360677069839,14.137543754375,1383994.9849079,-2960.6742465148,2873864.9149681,19.337543754375,0,0
-144.71982080301,-85.375031173213,14.14197419742,1383994.9849079,-2960.6742465148,2873864.9149681,19.34197419742,0,0
-144.71982069709,-85.389385276588,14.146404640464,1383994.9849079,-2960.6742465148,2873864.9149681,19.346404640464,0,0
-144.71982059117,-85.403739379962,14.150835083508,1383994.9849079,-2960.6742465148,2873864.9149681,19.350835083508,0,0
-144.71982048525,-85.418093483336,14.155265526553,1383994.9849079,-2960.6742465148,2873864.9149681,19.355265526553,0,0
-144.71982037933,-85.432447586711,14.159695969597,1383994.9849079,-2960.6742465148,2873864.9149681,19.359695969597,0,0
-144.71982027342,-85.446801690085,14.164126412641,1383994.9849079,-2960.6742465148,2873864.9149681,19.364126412641,0,0
-144.7198201675,-85.461155793459,14.168556855686,1383994.9849079,-2960.6742465148,2873864.9149681,19.368556855686,0,0
-144.71982006158,-85.475509896834,14.17298729873,1383994.9849079,-2960.6742465148,2873864.9149681,19.37298729873,0,0
-144.71981995566,-85.489864000208,14.177417741774,1383994.9849079,-2960.6742465148,2873864.9149681,19.377417741774,0,0
-144.71981984974,-85.504218103582,14.181848184818,1383994.9849079,-2960.6742465148,2873864.9149681,19.381848184818,0,0
-144.71981974382,-85.518572206956,14.186278627863,1383994.9849079,-2960.6742465148,2873864.9149681,19.386278627863,0,0
-144.7198196379,-85.532926310331,14.190709070907,1383994.9849079,-2960.6742465148,2873864.9149681,19.390709070907,0,0
-144.71981953199,-85.547280413705,14.195139513951,1383994.9849079,-2960.6742465148,2873864.9149681,19.395139513951,0,0
-144.71981942607,-85.561634517079,14.199569956996,1383994.9849079,-2960.6742465148,2873864.9149681,19.399569956996,0,0
-144.71981932015,-85.575988620453,14.20400040004,1383994.9849079,-2960.6742465148,2873864.9149681,19.40400040004,0,0
-144.71981921423,-85.590342723828,14.208430843084,1383994.9849079,-2960.6742465148,2873864.9149681,19.408430843084,0,0
-144.71981910831,-85.604696827202,14.212861286129,1383994.9849079,-2960.6742465148,2873864.9149681,19.412861286129,0,0
-144.71981900239,-85.619050930576,14.217291729173,1383994.9849079,-2960.6742465148,2873864.9149681,19.417291729173,0,0
-144.71981889648,-85.633405033951,14.221722172217,1383994.9849079,-2960.6742465148,2873864.9149681,19.421722172217,0,0
-144.71981879056,-85.647759137325,14.226152615262,1383994.9849079,-2960.6742465148,2873864.9149681,19.426152615262,0,0
-144.71981868464,-85.662113240699,14.230583058306,1383994.9849079,-2960.6742465148,2873864.9149681,19.430583058306,0,0
-144.71981857872,-85.676467344074,14.23501350135,1383994.9849079,-2960.6742465148,2873864.9149681,19.43501350135,0,0
-144.7198184728,-85.690821447448,14.239443944394,1383994.9849079,-2960.6742465148,2873864.9149681,19.439443944394,0,0
-144.71981836688,-85.705175550822,14.243874387439,1383994.9849079,-2960.6742465148,2873864.9149681,19.443874387439,0,0
-144.71981826096,-85.719529654196,14.248304830483,1383994.9849079,-2960.6742465148,2873864.9149681,19.448304830483,0,0
-144.71981815505,-85.733883757571,14.252735273527,1383994.9849079,-2960.6742465148,2873864.9149681,19.452735273527,0,0
-144.71981804913,-85.748237860945,14.257165716572,1383994.9849079,-2960.6742465148,2873864.9149681,19.457165716572,0,0
-144.71981794321,-85.762591964319,14.261596159616,1383994.9849079,-2960.6742465148,2873864.9149681,19.461596159616,0,0
-144.71981783729,-85.776946067693,14.26602660266,1383994.9849079,-2960.6742465148,2873864.9149681,19.46602660266,0,0
-144.71981773137,-85.791300171068,14.270457045705,1383994.9849079,-2960.6742465148,2873864.9149681,19.470457045705,0,0
-144.71981762545,-85.805654274442,14.274887488749,1383994.9849079,-2960.6742465148,2873864.9149681,19.474887488749,0,0
-144.71981751954,-85.820008377816,14.279317931793,1383994.9849079,-2960.6742465148,2873864.9149681,19.479317931793,0,0
-144.71981741362,-85.834362481191,14.283748374837,1383994.9849079,-2960.6742465148,2873864.9149681,19.483748374837,0,0
-144.7198173077,-85.848716584565,14.288178817882,1383994.9849079,-2960.6742465148,2873864.9149681,19.488178817882,0,0
-144.71981720178,-85.863070687939,14.292609260926,1383994.9849079,-2960.6742465148,2873864.9149681,19.492609260926,0,0
-144.71981709586,-85.877424791314,14.29703970397,1383994.9849079,-2960.6742465148,2873864.9149681,19.49703970397,0,0
-144.71981698994,-85.891778894688,14.301470147015,1383994.9849079,-2960.6742465148,2873864.9149681,19.501470147015,0,0
-144.71981688402,-85.906132998062,14.305900590059,1383994.9849079,-2960.6742465148,2873864.9149681,19.505900590059,0,0
-144.71981677811,-85.920487101436,14.310331033103,1383994.9849079,-2960.6742465148,2873864.9149681,19.510331033103,0,0
-144.71981667219,-85.934841204811,14.314761476148,1383994.9849079,-2960.6742465148,2873864.9149681,19.514761476148,0,0
-144.71981656627,-85.949195308185,14.319191919192,1383994.9849079,-2960.6742465148,2873864.9149681,19.519191919192,0,0
-144.71981646035,-85.963549411559,14.323622362236,1383994.9849079,-2960.6742465148,2873864.9149681,19.523622362236,0,0
-144.71981635443,-85.977903514934,14.328052805281,1383994.9849079,-2960.6742465148,2873864.9149681,19.528052805281,0,0
-144.71981624851,-85.992257618308,14.332483248325,1383994.9849079,-2960.6742465148,2873864.9149681,19.532483248325,0,0
-144.71981614259,-86.006611721682,14.336913691369,1383994.9849079,-2960.6742465148,2873864.9149681,19.536913691369,0,0
-144.71981603668,-86.020965825056,14.341344134413,1383994.9849079,-2960.6742465148,2873864.9149681,19.541344134413,0,0
-144.71981593076,-86.035319928431,14.345774577458,1383994.9849079,-2960.6742465148,2873864.9149681,19.545774577458,0,0
-144.71981582484,-86.049674031805,14.350205020502,1383994.9849079,-2960.6742465148,2873864.9149681,19.550205020502,0,0
-144.71981571892,-86.064028135179,14.354635463546,1383994.9849079,-2960.6742465148,2873864.9149681,19.554635463546,0,0
-144.719815613,-86.078382238554,14.359065906591,1383994.9849079,-2960.6742465148,2873864.9149681,19.559065906591,0,0
-144.71981550708,-86.092736341928,14.363496349635,1383994.9849079,-2960.6742465148,2873864.9149681,19.563496349635,0,0
-144.71981540117,-86.107090445302,14.367926792679,1383994.9849079,-2960.6742465148,2873864.9149681,19.567926792679,0,0
-144.71981529525,-86.121444548676,14.372357235724,1383994.9849079,-2960.6742465148,2873864.9149681,19.572357235724,0,0
-144.71981518933,-86.135798652051,14.376787678768,1383994.9849079,-2960.6742465148,2873864.9149681,19.576787678768,0,0
-144.71981508341,-86.150152755425,14.381218121812,1383994.9849079,-2960.6742465148,2873864.9149681,19.581218121812,0,0
-144.71981497749,-86.164506858799,14.385648564856,1383994.9849079,-2960.6742465148,2873864.9149681,19.585648564856,0,0
-144.71981487157,-86.178860962174,14.390079007901,1383994.9849079,-2960.6742465148,2873864.9149681,19.590079007901,0,0
-144.71981476565,-86.193215065548,14.394509450945,1383994.9849079,-2960.6742465148,2873864.9149681,19.594509450945,0,0
-144.71981465974,-86.207569168922,14.398939893989,1383994.9849079,-2960.6742465148,2873864.9149681,19.598939893989,0,0
-144.71981455382,-86.221923272296,14.403370337034,1383994.9849079,-2960.6742465148,2873864.9149681,19.603370337034,0,0
-144.7198144479,-86.236277375671,14.407800780078,1383994.9849079,-2960.6742465148,2873864.9149681,19.607800780078,0,0
-144.71981434198,-86.250631479045,14.412231223122,1383994.9849079,-2960.6742465148,2873864.9149681,19.612231223122,0,0
-144.71981423606,-86.264985582419,14.416661666167,1383994.9849079,-2960.6742465148,2873864.9149681,19.616661666167,0,0
-144.71981413014,-86.279339685794,14.421092109211,1383994.9849079,-2960.6742465148,2873864.9149681,19.621092109211,0,0
-144.71981402423,-86.293693789168,14.425522552255,1383994.9849079,-2960.6742465148,2873864.9149681,19.625522552255,0,0
-144.71981391831,-86.308047892542,14.4299529953,1383994.9849079,-2960.6742465148,2873864.9149681,19.6299529953,0,0
-144.71981381239,-86.322401995916,14.434383438344,1383994.9849079,-2960.6742465148,2873864.9149681,19.634383438344,0,0
-144.71981370647,-86.336756099291,14.438813881388,1383994.9849079,-2960.6742465148,2873864.9149681,19.638813881388,0,0
-144.71981360055,-86.351110202665,14.443244324432,1383994.9849079,-2960.6742465148,2873864.9149681,19.643244324432,0,0
-144.71981349463,-86.365464306039,14.447674767477,1383994.9849079,-2960.6742465148,2873864.9149681,19.647674767477,0,0
-144.71981338871,-86.379818409414,14.452105210521,1383994.9849079,-2960.6742465148,2873864.9149681,19.652105210521,0,0
-144.7198132828,-86.394172512788,14.456535653565,1383994.9849079,-2960.6742465148,2873864.9149681,19.656535653565,0,0
-144.71981317688,-86.408526616162,14.46096609661,1383994.9849079,-2960.6742465148,2873864.9149681,19.66096609661,0,0
-144.71981307096,-86.422880719536,14.465396539654,1383994.9849079,-2960.6742465148,2873864.9149681,19.665396539654,0,0
-144.71981296504,-86.437234822911,14.469826982698,1383994.9849079,-2960.6742465148,2873864.9149681,19.669826982698,0,0
-144.71981285912,-86.451588926285,14.474257425743,1383994.9849079,-2960.6742465148,2873864.9149681,19.674257425743,0,0
-144.7198127532,-86.465943029659,14.478687868787,1383994.9849079,-2960.6742465148,2873864.9149681,19.678687868787,0,0
-144.71981264729,-86.480297133034,14.483118311831,1383994.9849079,-2960.6742465148,2873864.9149681,19.683118311831,0,0
-144.71981254137,-86.494651236408,14.487548754875,1383994.9849079,-2960.6742465148,2873864.9149681,19.687548754875,0,0
-144.71981243545,-86.509005339782,14.49197919792,1383994.9849079,-2960.6742465148,2873864.9149681,19.69197919792,0,0
-144.71981232953,-86.523359443156,14.496409640964,1383994.9849079,-2960.6742465148,2873864.9149681,19.696409640964,0,0
-144.71981222361,-86.537713546531,14.500840084008,1383994.9849079,-2960.6742465148,2873864.9149681,19.700840084008,0,0
-144.71981211769,-86.552067649905,14.505270527053,1383994.9849079,-2960.6742465148,2873864.9149681,19.705270527053,0,0
-144.71981201177,-86.566421753279,14.509700970097,1383994.9849079,-2960.6742465148,2873864.9149681,19.709700970097,0,0
-144.71981190586,-86.580775856654,14.514131413141,1383994.9849079,-2960.6742465148,2873864.9149681,19.714131413141,0,0
-144.71981179994,-86.595129960028,14.518561856186,1383994.9849079,-2960.6742465148,2873864.9149681,19.718561856186,0,0
-144.71981169402,-86.609484063402,14.52299229923,1383994.9849079,-2960.6742465148,2873864.9149681,19.72299229923,0,0
-144.7198115881,-86.623838166776,14.527422742274,1383994.9849079,-2960.6742465148,2873864.9149681,19.727422742274,0,0
-144.71981148218,-86.638192270151,14.531853185319,1383994.9849079,-2960.6742465148,2873864.9149681,19.731853185319,0,0
-144.71981137626,-86.652546373525,14.536283628363,1383994.9849079,-2960.6742465148,2873864.9149681,19.736283628363,0,0
-144.71981127035,-86.666900476899,14.540714071407,1383994.9849079,-2960.6742465148,2873864.9149681,19.740714071407,0,0
-144.71981116443,-86.681254580274,14.545144514451,1383994.9849079,-2960.6742465148,2873864.9149681,19.745144514451,0,0
-144.71981105851,-86.695608683648,14.549574957496,1383994.9849079,-2960.6742465148,2873864.9149681,19.749574957496,0,0
-144.71981095259,-86.709962787022,14.55400540054,1383994.9849079,-2960.6742465148,2873864.9149681,19.75400540054,0,0
-144.71981084667,-86.724316890396,14.558435843584,1383994.9849079,-2960.6742465148,2873864.9149681,19.758435843584,0,0
-144.71981074075,-86.738670993771,14.562866286629,1383994.9849079,-2960.6742465148,2873864.9149681,19.762866286629,0,0
-144.71981063483,-86.753025097145,14.567296729673,1383994.9849079,-2960.6742465148,2873864.9149681,19.767296729673,0,0
-144.71981052892,-86.767379200519,14.571727172717,1383994.9849079,-2960.6742465148,2873864.9149681,19.771727172717,0,0
-144.719810423,-86.781733303894,14.576157615762,1383994.9849079,-2960.6742465148,2873864.9149681,19.776157615762,0,0
-144.71981031708,-86.796087407268,14.580588058806,1383994.9849079,-2960.6742465148,2873864.9149681,19.780588058806,0,0
-144.71981021116,-86.810441510642,14.58501850185,1383994.9849079,-2960.6742465148,2873864.9149681,19.78501850185,0,0
-144.71981010524,-86.824795614016,14.589448944894,1383994.9849079,-2960.6742465148,2873864.9149681,19.789448944894,0,0
-144.71980999932,-86.839149717391,14.593879387939,1383994.9849079,-2960.6742465148,2873864.9149681,19.793879387939,0,0
-144.7198098934,-86.853503820765,14.598309830983,1383994.9849079,-2960.6742465148,2873864.9149681,19.798309830983,0,0
-144.71980978749,-86.867857924139,14.602740274027,1383994.9849079,-2960.6742465148,2873864.9149681,19.802740274027,0,0
-144.71980968157,-86.882212027514,14.607170717072,1383994.9849079,-2960.6742465148,2873864.9149681,19.807170717072,0,0
-144.71980957565,-86.896566130888,14.611601160116,1383994.9849079,-2960.6742465148,2873864.9149681,19.811601160116,0,0
-144.71980946973,-86.910920234262,14.61603160316,1383994.9849079,-2960.6742465148,2873864.9149681,19.81603160316,0,0
-144.71980936381,-86.925274337636,14.620462046205,1383994.9849079,-2960.6742465148,2873864.9149681,19.820462046205,0,0
-144.71980925789,-86.939628441011,14.624892489249,1383994.9849079,-2960.6742465148,2873864.9149681,19.824892489249,0,0
-144.71980915198,-86.953982544385,14.629322932293,1383994.9849079,-2960.6742465148,2873864.9149681,19.829322932293,0,0
-144.71980904606,-86.968336647759,14.633753375338,1383994.9849079,-2960.6742465148,2873864.9149681,19.833753375338,0,0
-144.71980894014,-86.982690751134,14.638183818382,1383994.9849079,-2960.6742465148,2873864.9149681,19.838183818382,0,0
-144.71980883422,-86.997044854508,14.642614261426,1383994.9849079,-2960.6742465148,2873864.9149681,19.842614261426,0,0
-144.7198087283,-87.011398957882,14.64704470447,1383994.9849079,-2960.6742465148,2873864.9149681,19.84704470447,0,0
-144.71980862238,-87.025753061256,14.651475147515,1383994.9849079,-2960.6742465148,2873864.9149681,19.851475147515,0,0
-144.71980851646,-87.040107164631,14.655905590559,1383994.9849079,-2960.6742465148,2873864.9149681,19.855905590559,0,0
-144.71980841055,-87.054461268005,14.660336033603,1383994.9849079,-2960.6742465148,2873864.9149681,19.860336033603,0,0
-144.71980830463,-87.068815371379,14.664766476648,1383994.9849079,-2960.6742465148,2873864.9149681,19.864766476648,0,0
-144.71980819871,-87.083169474754,14.669196919692,1383994.9849079,-2960.6742465148,2873864.9149681,19.869196919692,0,0
-144.71980809279,-87.097523578128,14.673627362736,1383994.9849079,-2960.6742465148,2873864.9149681,19.873627362736,0,0
-144.71980798687,-87.111877681502,14.678057805781,1383994.9849079,-2960.6742465148,2873864.9149681,19.878057805781,0,0
-144.71980788095,-87.126231784876,14.682488248825,1383994.9849079,-2960.6742465148,2873864.9149681,19.882488248825,0,0
-144.71980777504,-87.140585888251,14.686918691869,1383994.9849079,-2960.6742465148,2873864.9149681,19.886918691869,0,0
-144.7198076691,-87.154939990483,14.691349134913,1381310.2217391,2563.8604136248,2865342.3528561,19.891349134913,0,0
-144.71980756317,-87.169294092674,14.695779577958,1381310.2217391,2563.8604136248,2865342.3528561,19.895779577958,0,0
-144.71980745724,-87.183648194865,14.700210021002,1381310.2217391,2563.8604136248,2865342.3528561,19.900210021002,0,0
-144.71980735131,-87.198002297057,14.704640464046,1381310.2217391,2563.8604136248,2865342.3528561,19.904640464046,0,0
-144.71980724538,-87.212356399248,14.709070907091,1381310.2217391,2563.8604136248,2865342.3528561,19.909070907091,0,0
-144.71980713945,-87.226710501439,14.713501350135,1381310.2217391,2563.8604136248,2865342.3528561,19.913501350135,0,0
-144.71980703352,-87.24106460363,14.717931793179,1381310.2217391,2563.8604136248,2865342.3528561,19.917931793179,0,0
-144.71980692759,-87.255418705821,14.722362236224,1381310.2217391,2563.8604136248,2865342.3528561,19.922362236224,0,0
-144.71980682166,-87.269772808012,14.726792679268,1381310.2217391,2563.8604136248,2865342.3528561,19.926792679268,0,0
-144.71980671573,-87.284126910203,14.731223122312,1381310.2217391,2563.8604136248,2865342.3528561,19.931223122312,0,0
-144.7198066098,-87.298481012394,14.735653565357,1381310.2217391,2563.8604136248,2865342.3528561,19.935653565357,0,0
-144.71980650386,-87.312835114586,14.740084008401,1381310.2217391,2563.8604136248,2865342.3528561,19.940084008401,0,0
-144.71980639793,-87.327189216777,14.744514451445,1381310.2217391,2563.8604136248,2865342.3528561,19.944514451445,0,0
-144.719806292,-87.341543318968,14.748944894489,1381310.2217391,2563.8604136248,2865342.3528561,19.948944894489,0,0
-144.71980618607,-87.355897421159,14.753375337534,1381310.2217391,2563.8604136248,2865342.3528561,19.953375337534,0,0
-144.71980608014,-87.37025152335,14.757805780578,1381310.2217391,2563.8604136248,2865342.3528561,19.957805780578,0,0
-144.71980597421,-87.384605625541,14.762236223622,1381310.2217391,2563.8604136248,2865342.3528561,19.962236223622,0,0
-144.71980586828,-87.398959727732,14.766666666667,1381310.2217391,2563.8604136248,2865342.3528561,19.966666666667,0,0
-144.71980576235,-87.413313829924,14.771097109711,1381310.2217391,2563.8604136248,2865342.3528561,19.971097109711,0,0
-144.71980565642,-87.427667932115,14.775527552755,1381310.2217391,2563.8604136248,2865342.3528561,19.975527552755,0,0
-144.71980555049,-87.442022034306,14.7799579958,1381310.2217391,2563.8604136248,2865342.3528561,19.9799579958,0,0
-144.71980544456,-87.456376136497,14.784388438844,1381310.2217391,2563.8604136248,2865342.3528561,19.984388438844,0,0
-144.71980533862,-87.470730238688,14.788818881888,1381310.2217391,2563.8604136248,2865342.3528561,19.988818881888,0,0
-144.71980523269,-87.485084340879,14.793249324932,1381310.2217391,2563.8604136248,2865342.3528561,19.993249324932,0,0
-144.71980512676,-87.49943844307,14.797679767977,1381310.2217391,2563.8604136248,2865342.3528561,19.997679767977,0,0
-144.71980502083,-87.513792545261,14.802110211021,1381310.2217391,2563.8604136248,2865342.3528561,20.002110211021,0,0
-144.7198049149,-87.528146647453,14.806540654065,1381310.2217391,2563.8604136248,2865342.3528561,20.006540654065,0,0
-144.71980480897,-87.542500749644,14.81097109711,1381310.2217391,2563.8604136248,2865342.3528561,20.01097109711,0,0
-144.71980470304,-87.556854851835,14.815401540154,1381310.2217391,2563.8604136248,2865342.3528561,20.015401540154,0,0
-144.71980459711,-87.571208954026,14.819831983198,1381310.2217391,2563.8604136248,2865342.3528561,20.019831983198,0,0
-144.71980449118,-87.585563056217,14.824262426243,1381310.2217391,2563.8604136248,2865342.3528561,20.024262426243,0,0
-144.71980438525,-87.599917158408,14.828692869287,1381310.2217391,2563.8604136248,2865342.3528561,20.028692869287,0,0
-144.71980427931,-87.614271260599,14.833123312331,1381310.2217391,2563.8604136248,2865342.3528561,20.033123312331,0,0
-144.71980417338,-87.62862536279,14.837553755376,1381310.2217391,2563.8604136248,2865342.3528561,20.037553755376,0,0
-144.71980406745,-87.642979464982,14.84198419842,1381310.2217391,2563.8604136248,2865342.3528561,20.04198419842,0,0
-144.71980396152,-87.657333567173,14.846414641464,1381310.2217391,2563.8604136248,2865342.3528561,20.046414641464,0,0
-144.71980385559,-87.671687669364,14.850845084508,1381310.2217391,2563.8604136248,2865342.3528561,20.050845084508,0,0
-144.71980374966,-87.686041771555,14.855275527553,1381310.2217391,2563.8604136248,2865342.3528561,20.055275527553,0,0
-144.71980364373,-87.700395873746,14.859705970597,1381310.2217391,2563.8604136248,2865342.3528561,20.059705970597,0,0
-144.7198035378,-87.714749975937,14.864136413641,1381310.2217391,2563.8604136248,2865342.3528561,20.064136413641,0,0
-144.71980343187,-87.729104078128,14.868566856686,1381310.2217391,2563.8604136248,2865342.3528561,20.068566856686,0,0
-144.71980332594,-87.743458180319,14.87299729973,1381310.2217391,2563.8604136248,2865342.3528561,20.07299729973,0,0
-144.71980322001,-87.757812282511,14.877427742774,1381310.2217391,2563.8604136248,2865342.3528561,20.077427742774,0,0
-144.71980311407,-87.772166384702,14.881858185819,1381310.2217391,2563.8604136248,2865342.3528561,20.081858185819,0,0
-144.71980300814,-87.786520486893,14.886288628863,1381310.2217391,2563.8604136248,2865342.3528561,20.086288628863,0,0
-144.71980290221,-87.800874589084,14.890719071907,1381310.2217391,2563.8604136248,2865342.3528561,20.090719071907,0,0
-144.71980279628,-87.815228691275,14.895149514951,1381310.2217391,2563.8604136248,2865342.3528561,20.095149514951,0,0
-144.71980269035,-87.829582793466,14.899579957996,1381310.2217391,2563.8604136248,2865342.3528561,20.099579957996,0,0
-144.71980258442,-87.843936895657,14.90401040104,1381310.2217391,2563.8604136248,2865342.3528561,20.10401040104,0,0
-144.71980247849,-87.858290997849,14.908440844084,1381310.2217391,2563.8604136248,2865342.3528561,20.108440844084,0,0
-144.71980237256,-87.87264510004,14.912871287129,1381310.2217391,2563.8604136248,2865342.3528561,20.112871287129,0,0
-144.71980226663,-87.886999202231,14.917301730173,1381310.2217391,2563.8604136248,2865342.3528561,20.117301730173,0,0
-144.7198021607,-87.901353304422,14.921732173217,1381310.2217391,2563.8604136248,2865342.3528561,20.121732173217,0,0
-144.71980205476,-87.915707406613,14.926162616262,1381310.2217391,2563.8604136248,2865342.3528561,20.126162616262,0,0
-144.71980194883,-87.930061508804,14.930593059306,1381310.2217391,2563.8604136248,2865342.3528561,20.130593059306,0,0
-144.7198018429,-87.944415610995,14.93502350235,1381310.2217391,2563.8604136248,2865342.3528561,20.13502350235,0,0
-144.71980173697,-87.958769713186,14.939453945395,1381310.2217391,2563.8604136248,2865342.3528561,20.139453945395,0,0
-144.71980163104,-87.973123815378,14.943884388439,1381310.2217391,2563.8604136248,2865342.3528561,20.143884388439,0,0
-144.71980152511,-87.987477917569,14.948314831483,1381310.2217391,2563.8604136248,2865342.3528561,20.148314831483,0,0
-144.71980141918,-88.00183201976,14.952745274527,1381310.2217391,2563.8604136248,2865342.3528561,20.152745274527,0,0
-144.71980131325,-88.016186121951,14.957175717572,1381310.2217391,2563.8604136248,2865342.3528561,20.157175717572,0,0
-144.71980120732,-88.030540224142,14.961606160616,1381310.2217391,2563.8604136248,2865342.3528561,20.161606160616,0,0
-144.71980110139,-88.044894326333,14.96603660366,1381310.2217391,2563.8604136248,2865342.3528561,20.16603660366,0,0
-144.71980099546,-88.059248428524,14.970467046705,1381310.2217391,2563.8604136248,2865342.3528561,20.170467046705,0,0
-144.71980088952,-88.073602530715,14.974897489749,1381310.2217391,2563.8604136248,2865342.3528561,20.174897489749,0,0
-144.71980078359,-88.087956632907,14.979327932793,1381310.2217391,2563.8604136248,2865342.3528561,20.179327932793,0,0
-144.71980067766,-88.102310735098,14.983758375838,1381310.2217391,2563.8604136248,2865342.3528561,20.183758375838,0,0
-144.71980057173,-88.116664837289,14.988188818882,1381310.2217391,2563.8604136248,2865342.3528561,20.188188818882,0,0
-144.7198004658,-88.13101893948,14.992619261926,1381310.2217391,2563.8604136248,2865342.3528561,20.192619261926,0,0
-144.71980035987,-88.145373041671,14.99704970497,1381310.2217391,2563.8604136248,2865342.3528561,20.19704970497,0,0
-144.71980025394,-88.159727143862,15.001480148015,1381310.2217391,2563.8604136248,2865342.3528561,20.201480148015,0,0
-144.71980014801,-88.174081246053,15.005910591059,1381310.2217391,2563.8604136248,2865342.3528561,20.205910591059,0,0
-144.71980004208,-88.188435348244,15.010341034103,1381310.2217391,2563.8604136248,2865342.3528561,20.210341034103,0,0
-144.71979993615,-88.202789450436,15.014771477148,1381310.2217391,2563.8604136248,2865342.3528561,20.214771477148,0,0
-144.71979983022,-88.217143552627,15.019201920192,1381310.2217391,2563.8604136248,2865342.3528561,20.219201920192,0,0
-144.71979972428,-88.231497654818,15.023632363236,1381310.2217391,2563.8604136248,2865342.3528561,20.223632363236,0,0
-144.71979961835,-88.245851757009,15.028062806281,1381310.2217391,2563.8604136248,2865342.3528561,20.228062806281,0,0
-144.71979951242,-88.2602058592,15.032493249325,1381310.2217391,2563.8604136248,2865342.3528561,20.232493249325,0,0
-144.71979940649,-88.274559961391,15.036923692369,1381310.2217391,2563.8604136248,2865342.3528561,20.236923692369,0,0
-144.71979930056,-88.288914063582,15.041354135414,1381310.2217391,2563.8604136248,2865342.3528561,20.241354135414,0,0
-144.71979919463,-88.303268165774,15.045784578458,1381310.2217391,2563.8604136248,2865342.3528561,20.245784578458,0,0
-144.7197990887,-88.317622267965,15.050215021502,1381310.2217391,2563.8604136248,2865342.3528561,20.250215021502,0,0
-144.71979898277,-88.331976370156,15.054645464546,1381310.2217391,2563.8604136248,2865342.3528561,20.254645464546,0,0
-144.71979887684,-88.346330472347,15.059075907591,1381310.2217391,2563.8604136248,2865342.3528561,20.259075907591,0,0
-144.71979877091,-88.360684574538,15.063506350635,1381310.2217391,2563.8604136248,2865342.3528561,20.263506350635,0,0
-144.71979866497,-88.375038676729,15.067936793679,1381310.2217391,2563.8604136248,2865342.3528561,20.267936793679,0,0
-144.71979855904,-88.38939277892,15.072367236724,1381310.2217391,2563.8604136248,2865342.3528561,20.272367236724,0,0
-144.71979845311,-88.403746881111,15.076797679768,1381310.2217391,2563.8604136248,2865342.3528561,20.276797679768,0,0
-144.71979834718,-88.418100983303,15.081228122812,1381310.2217391,2563.8604136248,2865342.3528561,20.281228122812,0,0
-144.71979824125,-88.432455085494,15.085658565857,1381310.2217391,2563.8604136248,2865342.3528561,20.285658565857,0,0
-144.71979813532,-88.446809187685,15.090089008901,1381310.2217391,2563.8604136248,2865342.3528561,20.290089008901,0,0
-144.71979802939,-88.461163289876,15.094519451945,1381310.2217391,2563.8604136248,2865342.3528561,20.294519451945,0,0
-144.71979792346,-88.475517392067,15.098949894989,1381310.2217391,2563.8604136248,2865342.3528561,20.298949894989,0,0
-144.71979781753,-88.489871494258,15.103380338034,1381310.2217391,2563.8604136248,2865342.3528561,20.303380338034,0,0
-144.7197977116,-88.504225596449,15.107810781078,1381310.2217391,2563.8604136248,2865342.3528561,20.307810781078,0,0
-144.71979760567,-88.51857969864,15.112241224122,1381310.2217391,2563.8604136248,2865342.3528561,20.312241224122,0,0
-144.71979749973,-88.532933800832,15.116671667167,1381310.2217391,2563.8604136248,2865342.3528561,20.316671667167,0,0
-144.7197973938,-88.547287903023,15.121102110211,1381310.2217391,2563.8604136248,2865342.3528561,20.321102110211,0,0
-144.71979728787,-88.561642005214,15.125532553255,1381310.2217391,2563.8604136248,2865342.3528561,20.325532553255,0,0
-144.71979718194,-88.575996107405,15.1299629963,1381310.2217391,2563.8604136248,2865342.3528561,20.3299629963,0,0
-144.71979707601,-88.590350209596,15.134393439344,1381310.2217391,2563.8604136248,2865342.3528561,20.334393439344,0,0
-144.71979697008,-88.604704311787,15.138823882388,1381310.2217391,2563.8604136248,2865342.3528561,20.338823882388,0,0
-144.71979686415,-88.619058413978,15.143254325433,1381310.2217391,2563.8604136248,2865342.3528561,20.343254325433,0,0
-144.71979675822,-88.633412516169,15.147684768477,1381310.2217391,2563.8604136248,2865342.3528561,20.347684768477,0,0
-144.71979665229,-88.647766618361,15.152115211521,1381310.2217391,2563.8604136248,2865342.3528561,20.352115211521,0,0
-144.71979654636,-88.662120720552,15.156545654565,1381310.2217391,2563.8604136248,2865342.3528561,20.356545654565,0,0
-144.71979644042,-88.676474822743,15.16097609761,1381310.2217391,2563.8604136248,2865342.3528561,20.36097609761,0,0
-144.71979633449,-88.690828924934,15.165406540654,1381310.2217391,2563.8604136248,2865342.3528561,20.365406540654,0,0
-144.71979622856,-88.705183027125,15.169836983698,1381310.2217391,2563.8604136248,2865342.3528561,20.369836983698,0,0
-144.71979612263,-88.719537129316,15.174267426743,1381310.2217391,2563.8604136248,2865342.3528561,20.374267426743,0,0
-144.7197960167,-88.733891231507,15.178697869787,1381310.2217391,2563.8604136248,2865342.3528561,20.378697869787,0,0
-144.71979591077,-88.748245333698,15.183128312831,1381310.2217391,2563.8604136248,2865342.3528561,20.383128312831,0,0
-144.71979580484,-88.76259943589,15.187558755876,1381310.2217391,2563.8604136248,2865342.3528561,20.387558755876,0,0
-144.71979569891,-88.776953538081,15.19198919892,1381310.2217391,2563.8604136248,2865342.3528561,20.39198919892,0,0
-144.71979559298,-88.791307640272,15.196419641964,1381310.2217391,2563.8604136248,2865342.3528561,20.396419641964,0,0
-144.71979548705,-88.805661742463,15.200850085009,1381310.2217391,2563.8604136248,2865342.3528561,20.400850085008,0,0
-144.71979538112,-88.820015844654,15.205280528053,1381310.2217391,2563.8604136248,2865342.3528561,20.405280528053,0,0
-144.71979527518,-88.834369946845,15.209710971097,1381310.2217391,2563.8604136248,2865342.3528561,20.409710971097,0,0
-144.71979516925,-88.848724049036,15.214141414141,1381310.2217391,2563.8604136248,2865342.3528561,20.414141414141,0,0
-144.71979506332,-88.863078151228,15.218571857186,1381310.2217391,2563.8604136248,2865342.3528561,20.418571857186,0,0
-144.71979495739,-88.877432253419,15.22300230023,1381310.2217391,2563.8604136248,2865342.3528561,20.42300230023,0,0
-144.71979485146,-88.89178635561,15.227432743274,1381310.2217391,2563.8604136248,2865342.3528561,20.427432743274,0,0
-144.71979474553,-88.906140457801,15.231863186319,1381310.2217391,2563.8604136248,2865342.3528561,20.431863186319,0,0
-144.7197946396,-88.920494559992,15.236293629363,1381310.2217391,2563.8604136248,2865342.3528561,20.436293629363,0,0
-144.71979453367,-88.934848662183,15.240724072407,1381310.2217391,2563.8604136248,2865342.3528561,20.440724072407,0,0
-144.71979442774,-88.949202764374,15.245154515452,1381310.2217391,2563.8604136248,2865342.3528561,20.445154515452,0,0
-144.71979432181,-88.963556866565,15.249584958496,1381310.2217391,2563.8604136248,2865342.3528561,20.449584958496,0,0
-144.71979421588,-88.977910968757,15.25401540154,1381310.2217391,2563.8604136248,2865342.3528561,20.45401540154,0,0
-144.71979410994,-88.992265070948,15.258445844584,1381310.2217391,2563.8604136248,2865342.3528561,20.458445844584,0,0
-144.71979400401,-89.006619173139,15.262876287629,1381310.2217391,2563.8604136248,2865342.3528561,20.462876287629,0,0
-144.71979389808,-89.02097327533,15.267306730673,1381310.2217391,2563.8604136248,2865342.3528561,20.467306730673,0,0
-144.71979379215,-89.035327377521,15.271737173717,1381310.2217391,2563.8604136248,2865342.3528561,20.471737173717,0,0
-144.71979368622,-89.049681479712,15.276167616762,1381310.2217391,2563.8604136248,2865342.3528561,20.476167616762,0,0
-144.71979358029,-89.064035581903,15.280598059806,1381310.2217391,2563.8604136248,2865342.3528561,20.480598059806,0,0
-144.71979347436,-89.078389684094,15.28502850285,1381310.2217391,2563.8604136248,2865342.3528561,20.48502850285,0,0
-144.71979336843,-89.092743786286,15.289458945895,1381310.2217391,2563.8604136248,2865342.3528561,20.489458945895,0,0
-144.7197932625,-89.107097888477,15.293889388939,1381310.2217391,2563.8604136248,2865342.3528561,20.493889388939,0,0
-144.71979315657,-89.121451990668,15.298319831983,1381310.2217391,2563.8604136248,2865342.3528561,20.498319831983,0,0
-144.71979305063,-89.135806092859,15.302750275028,1381310.2217391,2563.8604136248,2865342.3528561,20.502750275028,0,0
-144.7197929447,-89.15016019505,15.307180718072,1381310.2217391,2563.8604136248,2865342.3528561,20.507180718072,0,0
-144.71979283877,-89.164514297241,15.311611161116,1381310.2217391,2563.8604136248,2865342.3528561,20.511611161116,0,0
-144.71979273284,-89.178868399432,15.31604160416,1381310.2217391,2563.8604136248,2865342.3528561,20.51604160416,0,0
-144.71979262691,-89.193222501623,15.320472047205,1381310.2217391,2563.8604136248,2865342.3528561,20.520472047205,0,0
-144.71979252098,-89.207576603815,15.324902490249,1381310.2217391,2563.8604136248,2865342.3528561,20.524902490249,0,0
-144.71979241505,-89.221930706006,15.329332933293,1381310.2217391,2563.8604136248,2865342.3528561,20.529332933293,0,0
-144.71979230912,-89.236284808197,15.333763376338,1381310.2217391,2563.8604136248,2865342.3528561,20.533763376338,0,0
-144.71979220319,-89.250638910388,15.338193819382,1381310.2217391,2563.8604136248,2865342.3528561,20.538193819382,0,0
-144.71979209726,-89.264993012579,15.342624262426,1381310.2217391,2563.8604136248,2865342.3528561,20.542624262426,0,0
-144.71979199133,-89.27934711477,15.347054705471,1381310.2217391,2563.8604136248,2865342.3528561,20.547054705471,0,0
-144.71979188539,-89.293701216961,15.351485148515,1381310.2217391,2563.8604136248,2865342.3528561,20.551485148515,0,0
-144.71979177933,-89.308055319949,15.355915591559,1380273.0386964,-2267.5751075439,2854637.3525864,20.555915591559,0,0
-144.71979167319,-89.322409423312,15.360346034603,1380273.0386964,-2267.5751075439,2854637.3525864,20.560346034603,0,0
-144.71979156706,-89.336763526675,15.364776477648,1380273.0386964,-2267.5751075439,2854637.3525864,20.564776477648,0,0
-144.71979146093,-89.351117630038,15.369206920692,1380273.0386964,-2267.5751075439,2854637.3525864,20.569206920692,0,0
-144.71979135479,-89.365471733401,15.373637363736,1380273.0386964,-2267.5751075439,2854637.3525864,20.573637363736,0,0
-144.71979124866,-89.379825836764,15.378067806781,1380273.0386964,-2267.5751075439,2854637.3525864,20.578067806781,0,0
-144.71979114253,-89.394179940127,15.382498249825,1380273.0386964,-2267.5751075439,2854637.3525864,20.582498249825,0,0
-144.71979103639,-89.40853404349,15.386928692869,1380273.0386964,-2267.5751075439,2854637.3525864,20.586928692869,0,0
-144.71979093026,-89.422888146853,15.391359135914,1380273.0386964,-2267.5751075439,2854637.3525864,20.591359135914,0,0
-144.71979082413,-89.437242250216,15.395789578958,1380273.0386964,-2267.5751075439,2854637.3525864,20.595789578958,0,0
-144.71979071799,-89.451596353578,15.400220022002,1380273.0386964,-2267.5751075439,2854637.3525864,20.600220022002,0,0
-144.71979061186,-89.465950456941,15.404650465047,1380273.0386964,-2267.5751075439,2854637.3525864,20.604650465047,0,0
-144.71979050573,-89.480304560304,15.409080908091,1380273.0386964,-2267.5751075439,2854637.3525864,20.609080908091,0,0
-144.7197903996,-89.494658663667,15.413511351135,1380273.0386964,-2267.5751075439,2854637.3525864,20.613511351135,0,0
-144.71979029346,-89.50901276703,15.417941794179,1380273.0386964,-2267.5751075439,2854637.3525864,20.617941794179,0,0
-144.71979018733,-89.523366870393,15.422372237224,1380273.0386964,-2267.5751075439,2854637.3525864,20.622372237224,0,0
-144.7197900812,-89.537720973756,15.426802680268,1380273.0386964,-2267.5751075439,2854637.3525864,20.626802680268,0,0
-144.71978997506,-89.552075077119,15.431233123312,1380273.0386964,-2267.5751075439,2854637.3525864,20.631233123312,0,0
-144.71978986893,-89.566429180482,15.435663566357,1380273.0386964,-2267.5751075439,2854637.3525864,20.635663566357,0,0
-144.7197897628,-89.580783283845,15.440094009401,1380273.0386964,-2267.5751075439,2854637.3525864,20.640094009401,0,0
-144.71978965666,-89.595137387208,15.444524452445,1380273.0386964,-2267.5751075439,2854637.3525864,20.644524452445,0,0
-144.71978955053,-89.609491490571,15.44895489549,1380273.0386964,-2267.5751075439,2854637.3525864,20.64895489549,0,0
-144.7197894444,-89.623845593934,15.453385338534,1380273.0386964,-2267.5751075439,2854637.3525864,20.653385338534,0,0
-144.71978933826,-89.638199697297,15.457815781578,1380273.0386964,-2267.5751075439,2854637.3525864,20.657815781578,0,0
-144.71978923213,-89.65255380066,15.462246224622,1380273.0386964,-2267.5751075439,2854637.3525864,20.662246224622,0,0
-144.719789126,-89.666907904023,15.466676667667,1380273.0386964,-2267.5751075439,2854637.3525864,20.666676667667,0,0
-144.71978901986,-89.681262007386,15.471107110711,1380273.0386964,-2267.5751075439,2854637.3525864,20.671107110711,0,0
-144.71978891373,-89.695616110749,15.475537553755,1380273.0386964,-2267.5751075439,2854637.3525864,20.675537553755,0,0
-144.7197888076,-89.709970214112,15.4799679968,1380273.0386964,-2267.5751075439,2854637.3525864,20.6799679968,0,0
-144.71978870147,-89.724324317475,15.484398439844,1380273.0386964,-2267.5751075439,2854637.3525864,20.684398439844,0,0
-144.71978859533,-89.738678420838,15.488828882888,1380273.0386964,-2267.5751075439,2854637.3525864,20.688828882888,0,0
-144.7197884892,-89.753032524201,15.493259325933,1380273.0386964,-2267.5751075439,2854637.3525864,20.693259325933,0,0
-144.71978838307,-89.767386627564,15.497689768977,1380273.0386964,-2267.5751075439,2854637.3525864,20.697689768977,0,0
-144.71978827693,-89.781740730927,15.502120212021,1380273.0386964,-2267.5751075439,2854637.3525864,20.702120212021,0,0
-144.7197881708,-89.79609483429,15.506550655066,1380273.0386964,-2267.5751075439,2854637.3525864,20.706550655066,0,0
-144.71978806467,-89.810448937653,15.51098109811,1380273.0386964,-2267.5751075439,2854637.3525864,20.71098109811,0,0
-144.71978795853,-89.824803041016,15.515411541154,1380273.0386964,-2267.5751075439,2854637.3525864,20.715411541154,0,0
-144.7197878524,-89.839157144379,15.519841984198,1380273.0386964,-2267.5751075439,2854637.3525864,20.719841984198,0,0
-144.71978774627,-89.853511247742,15.524272427243,1380273.0386964,-2267.5751075439,2854637.3525864,20.724272427243,0,0
-144.71978764013,-89.867865351105,15.528702870287,1380273.0386964,-2267.5751075439,2854637.3525864,20.728702870287,0,0
-144.719787534,-89.882219454468,15.533133313331,1380273.0386964,-2267.5751075439,2854637.3525864,20.733133313331,0,0
-144.71978742787,-89.896573557831,15.537563756376,1380273.0386964,-2267.5751075439,2854637.3525864,20.737563756376,0,0
-144.71978732174,-89.910927661194,15.54199419942,1380273.0386964,-2267.5751075439,2854637.3525864,20.74199419942,0,0
-144.7197872156,-89.925281764557,15.546424642464,1380273.0386964,-2267.5751075439,2854637.3525864,20.746424642464,0,0
-144.71978710947,-89.93963586792,15.550855085509,1380273.0386964,-2267.5751075439,2854637.3525864,20.750855085509,0,0
-144.71978700334,-89.953989971283,15.555285528553,1380273.0386964,-2267.5751075439,2854637.3525864,20.755285528553,0,0
-144.7197868972,-89.968344074646,15.559715971597,1380273.0386964,-2267.5751075439,2854637.3525864,20.759715971597,0,0
-144.71978679107,-89.982698178009,15.564146414641,1380273.0386964,-2267.5751075439,2854637.3525864,20.764146414641,0,0
-144.71978668494,-89.997052281372,15.568576857686,1380273.0386964,-2267.5751075439,2854637.3525864,20.768576857686,0,0
-144.7197865788,-90.011406384735,15.57300730073,1380273.0386964,-2267.5751075439,2854637.3525864,20.77300730073,0,0
-144.71978647267,-90.025760488098,15.577437743774,1380273.0386964,-2267.5751075439,2854637.3525864,20.777437743774,0,0
-144.71978636654,-90.040114591461,15.581868186819,1380273.0386964,-2267.5751075439,2854637.3525864,20.781868186819,0,0
-144.7197862604,-90.054468694824,15.586298629863,1380273.0386964,-2267.5751075439,2854637.3525864,20.786298629863,0,0
-144.71978615427,-90.068822798187,15.590729072907,1380273.0386964,-2267.5751075439,2854637.3525864,20.790729072907,0,0
-144.71978604814,-90.08317690155,15.595159515952,1380273.0386964,-2267.5751075439,2854637.3525864,20.795159515952,0,0
-144.719785942,-90.097531004913,15.599589958996,1380273.0386964,-2267.5751075439,2854637.3525864,20.799589958996,0,0
-144.71978583587,-90.111885108276,15.60402040204,1380273.0386964,-2267.5751075439,2854637.3525864,20.80402040204,0,0
-144.71978572974,-90.126239211639,15.608450845085,1380273.0386964,-2267.5751075439,2854637.3525864,20.808450845085,0,0
-144.71978562361,-90.140593315002,15.612881288129,1380273.0386964,-2267.5751075439,2854637.3525864,20.812881288129,0,0
-144.71978551747,-90.154947418365,15.617311731173,1380273.0386964,-2267.5751075439,2854637.3525864,20.817311731173,0,0
-144.71978541134,-90.169301521728,15.621742174217,1380273.0386964,-2267.5751075439,2854637.3525864,20.821742174217,0,0
-144.71978530521,-90.183655625091,15.626172617262,1380273.0386964,-2267.5751075439,2854637.3525864,20.826172617262,0,0
-144.71978519907,-90.198009728454,15.630603060306,1380273.0386964,-2267.5751075439,2854637.3525864,20.830603060306,0,0
-144.71978509294,-90.212363831817,15.63503350335,1380273.0386964,-2267.5751075439,2854637.3525864,20.83503350335,0,0
-144.71978498681,-90.22671793518,15.639463946395,1380273.0386964,-2267.5751075439,2854637.3525864,20.839463946395,0,0
-144.71978488067,-90.241072038543,15.643894389439,1380273.0386964,-2267.5751075439,2854637.3525864,20.843894389439,0,0
-144.71978477454,-90.255426141906,15.648324832483,1380273.0386964,-2267.5751075439,2854637.3525864,20.848324832483,0,0
-144.71978466841,-90.269780245269,15.652755275528,1380273.0386964,-2267.5751075439,2854637.3525864,20.852755275528,0,0
-144.71978456227,-90.284134348632,15.657185718572,1380273.0386964,-2267.5751075439,2854637.3525864,20.857185718572,0,0
-144.71978445614,-90.298488451995,15.661616161616,1380273.0386964,-2267.5751075439,2854637.3525864,20.861616161616,0,0
-144.71978435001,-90.312842555358,15.66604660466,1380273.0386964,-2267.5751075439,2854637.3525864,20.86604660466,0,0
-144.71978424387,-90.327196658721,15.670477047705,1380273.0386964,-2267.5751075439,2854637.3525864,20.870477047705,0,0
-144.71978413774,-90.341550762084,15.674907490749,1380273.0386964,-2267.5751075439,2854637.3525864,20.874907490749,0,0
-144.71978403161,-90.355904865447,15.679337933793,1380273.0386964,-2267.5751075439,2854637.3525864,20.879337933793,0,0
-144.71978392548,-90.37025896881,15.683768376838,1380273.0386964,-2267.5751075439,2854637.3525864,20.883768376838,0,0
-144.71978381934,-90.384613072173,15.688198819882,1380273.0386964,-2267.5751075439,2854637.3525864,20.888198819882,0,0
-144.71978371321,-90.398967175536,15.692629262926,1380273.0386964,-2267.5751075439,2854637.3525864,20.892629262926,0,0
-144.71978360708,-90.413321278899,15.697059705971,1380273.0386964,-2267.5751075439,2854637.3525864,20.897059705971,0,0
-144.71978350094,-90.427675382262,15.701490149015,1380273.0386964,-2267.5751075439,2854637.3525864,20.901490149015,0,0
-144.71978339481,-90.442029485625,15.705920592059,1380273.0386964,-2267.5751075439,2854637.3525864,20.905920592059,0,0
-144.71978328868,-90.456383588988,15.710351035104,1380273.0386964,-2267.5751075439,2854637.3525864,20.910351035104,0,0
-144.71978318254,-90.470737692351,15.714781478148,1380273.0386964,-2267.5751075439,2854637.3525864,20.914781478148,0,0
-144.71978307641,-90.485091795714,15.719211921192,1380273.0386964,-2267.5751075439,2854637.3525864,20.919211921192,0,0
-144.71978297028,-90.499445899077,15.723642364236,1380273.0386964,-2267.5751075439,2854637.3525864,20.923642364236,0,0
-144.71978286414,-90.51380000244,15.728072807281,1380273.0386964,-2267.5751075439,2854637.3525864,20.928072807281,0,0
-144.71978275801,-90.528154105803,15.732503250325,1380273.0386964,-2267.5751075439,2854637.3525864,20.932503250325,0,0
-144.71978265188,-90.542508209166,15.736933693369,1380273.0386964,-2267.5751075439,2854637.3525864,20.936933693369,0,0
-144.71978254574,-90.556862312529,15.741364136414,1380273.0386964,-2267.5751075439,2854637.3525864,20.941364136414,0,0
-144.71978243961,-90.571216415892,15.745794579458,1380273.0386964,-2267.5751075439,2854637.3525864,20.945794579458,0,0
-144.71978233348,-90.585570519255,15.750225022502,1380273.0386964,-2267.5751075439,2854637.3525864,20.950225022502,0,0
-144.71978222735,-90.599924622618,15.754655465547,1380273.0386964,-2267.5751075439,2854637.3525864,20.954655465547,0,0
-144.71978212121,-90.614278725981,15.759085908591,1380273.0386964,-2267.5751075439,2854637.3525864,20.959085908591,0,0
-144.71978201508,-90.628632829344,15.763516351635,1380273.0386964,-2267.5751075439,2854637.3525864,20.963516351635,0,0
-144.71978190895,-90.642986932707,15.767946794679,1380273.0386964,-2267.5751075439,2854637.3525864,20.967946794679,0,0
-144.71978180281,-90.65734103607,15.772377237724,1380273.0386964,-2267.5751075439,2854637.3525864,20.972377237724,0,0
-144.71978169668,-90.671695139433,15.776807680768,1380273.0386964,-2267.5751075439,2854637.3525864,20.976807680768,0,0
-144.71978159055,-90.686049242796,15.781238123812,1380273.0386964,-2267.5751075439,2854637.3525864,20.981238123812,0,0
-144.71978148441,-90.700403346159,15.785668566857,1380273.0386964,-2267.5751075439,2854637.3525864,20.985668566857,0,0
-144.71978137828,-90.714757449522,15.790099009901,1380273.0386964,-2267.5751075439,2854637.3525864,20.990099009901,0,0
-144.71978127215,-90.729111552885,15.794529452945,1380273.0386964,-2267.5751075439,2854637.3525864,20.994529452945,0,0
-144.71978116601,-90.743465656248,15.79895989599,1380273.0386964,-2267.5751075439,2854637.3525864,20.99895989599,0,0
-144.71978105988,-90.757819759611,15.803390339034,1380273.0386964,-2267.5751075439,2854637.3525864,21.003390339034,0,0
-144.71978095375,-90.772173862974,15.807820782078,1380273.0386964,-2267.5751075439,2854637.3525864,21.007820782078,0,0
-144.71978084761,-90.786527966337,15.812251225123,1380273.0386964,-2267.5751075439,2854637.3525864,21.012251225123,0,0
-144.71978074148,-90.8008820697,15.816681668167,1380273.0386964,-2267.5751075439,2854637.3525864,21.016681668167,0,0
-144.71978063535,-90.815236173063,15.821112111211,1380273.0386964,-2267.5751075439,2854637.3525864,21.021112111211,0,0
-144.71978052922,-90.829590276426,15.825542554255,1380273.0386964,-2267.5751075439,2854637.3525864,21.025542554255,0,0
-144.71978042308,-90.843944379789,15.8299729973,1380273.0386964,-2267.5751075439,2854637.3525864,21.0299729973,0,0
-144.71978031695,-90.858298483152,15.834403440344,1380273.0386964,-2267.5751075439,2854637.3525864,21.034403440344,0,0
-144.71978021082,-90.872652586515,15.838833883388,1380273.0386964,-2267.5751075439,2854637.3525864,21.038833883388,0,0
-144.71978010468,-90.887006689878,15.843264326433,1380273.0386964,-2267.5751075439,2854637.3525864,21.043264326433,0,0
-144.71977999855,-90.901360793241,15.847694769477,1380273.0386964,-2267.5751075439,2854637.3525864,21.047694769477,0,0
-144.71977989242,-90.915714896604,15.852125212521,1380273.0386964,-2267.5751075439,2854637.3525864,21.052125212521,0,0
-144.71977978628,-90.930068999967,15.856555655566,1380273.0386964,-2267.5751075439,2854637.3525864,21.056555655566,0,0
-144.71977968015,-90.94442310333,15.86098609861,1380273.0386964,-2267.5751075439,2854637.3525864,21.06098609861,0,0
-144.71977957402,-90.958777206693,15.865416541654,1380273.0386964,-2267.5751075439,2854637.3525864,21.065416541654,0,0
-144.71977946788,-90.973131310056,15.869846984698,1380273.0386964,-2267.5751075439,2854637.3525864,21.069846984698,0,0
-144.71977936175,-90.987485413419,15.874277427743,1380273.0386964,-2267.5751075439,2854637.3525864,21.074277427743,0,0
-144.71977925562,-91.001839516782,15.878707870787,1380273.0386964,-2267.5751075439,2854637.3525864,21.078707870787,0,0
-144.71977914948,-91.016193620145,15.883138313831,1380273.0386964,-2267.5751075439,2854637.3525864,21.083138313831,0,0
-144.71977904335,-91.030547723508,15.887568756876,1380273.0386964,-2267.5751075439,2854637.3525864,21.087568756876,0,0
-144.71977893722,-91.044901826871,15.89199919992,1380273.0386964,-2267.5751075439,2854637.3525864,21.09199919992,0,0
-144.71977883109,-91.059255930234,15.896429642964,1380273.0386964,-2267.5751075439,2854637.3525864,21.096429642964,0,0
-144.71977872495,-91.073610033597,15.900860086009,1380273.0386964,-2267.5751075439,2854637.3525864,21.100860086009,0,0
-144.71977861882,-91.08796413696,15.905290529053,1380273.0386964,-2267.5751075439,2854637.3525864,21.105290529053,0,0
-144.71977851269,-91.102318240323,15.909720972097,1380273.0386964,-2267.5751075439,2854637.3525864,21.109720972097,0,0
-144.71977840655,-91.116672343686,15.914151415142,1380273.0386964,-2267.5751075439,2854637.3525864,21.114151415142,0,0
-144.71977830042,-91.131026447049,15.918581858186,1380273.0386964,-2267.5751075439,2854637.3525864,21.118581858186,0,0
-144.71977819429,-91.145380550412,15.92301230123,1380273.0386964,-2267.5751075439,2854637.3525864,21.12301230123,0,0
-144.71977808815,-91.159734653775,15.927442744274,1380273.0386964,-2267.5751075439,2854637.3525864,21.127442744274,0,0
-144.71977798202,-91.174088757138,15.931873187319,1380273.0386964,-2267.5751075439,2854637.3525864,21.131873187319,0,0
-144.71977787589,-91.188442859781,15.936303630363,1377681.1478032,2198.3738456811,2847207.8676054,21.136303630363,0,0
-144.71977776977,-91.202796962198,15.940734073407,1377681.1478032,2198.3738456811,2847207.8676054,21.140734073407,0,0
-144.71977766365,-91.217151064614,15.945164516452,1377681.1478032,2198.3738456811,2847207.8676054,21.145164516452,0,0
-144.71977755752,-91.231505167031,15.949594959496,1377681.1478032,2198.3738456811,2847207.8676054,21.149594959496,0,0
-144.7197774514,-91.245859269448,15.95402540254,1377681.1478032,2198.3738456811,2847207.8676054,21.15402540254,0,0
-144.71977734527,-91.260213371865,15.958455845585,1377681.1478032,2198.3738456811,2847207.8676054,21.158455845585,0,0
-144.71977723915,-91.274567474282,15.962886288629,1377681.1478032,2198.3738456811,2847207.8676054,21.162886288629,0,0
-144.71977713303,-91.288921576699,15.967316731673,1377681.1478032,2198.3738456811,2847207.8676054,21.167316731673,0,0
-144.7197770269,-91.303275679116,15.971747174717,1377681.1478032,2198.3738456811,2847207.8676054,21.171747174717,0,0
-144.71977692078,-91.317629781532,15.976177617762,1377681.1478032,2198.3738456811,2847207.8676054,21.176177617762,0,0
-144.71977681466,-91.331983883949,15.980608060806,1377681.1478032,2198.3738456811,2847207.8676054,21.180608060806,0,0
-144.71977670853,-91.346337986366,15.98503850385,1377681.1478032,2198.3738456811,2847207.8676054,21.18503850385,0,0
-144.71977660241,-91.360692088783,15.989468946895,1377681.1478032,2198.3738456811,2847207.8676054,21.189468946895,0,0
-144.71977649628,-91.3750461912,15.993899389939,1377681.1478032,2198.3738456811,2847207.8676054,21.193899389939,0,0
-144.71977639016,-91.389400293617,15.998329832983,1377681.1478032,2198.3738456811,2847207.8676054,21.198329832983,0,0
-144.71977628404,-91.403754396033,16.002760276028,1377681.1478032,2198.3738456811,2847207.8676054,21.202760276028,0,0
-144.71977617791,-91.41810849845,16.007190719072,1377681.1478032,2198.3738456811,2847207.8676054,21.207190719072,0,0
-144.71977607179,-91.432462600867,16.011621162116,1377681.1478032,2198.3738456811,2847207.8676054,21.211621162116,0,0
-144.71977596566,-91.446816703284,16.016051605161,1377681.1478032,2198.3738456811,2847207.8676054,21.216051605161,0,0
-144.71977585954,-91.461170805701,16.020482048205,1377681.1478032,2198.3738456811,2847207.8676054,21.220482048205,0,0
-144.71977575342,-91.475524908118,16.024912491249,1377681.1478032,2198.3738456811,2847207.8676054,21.224912491249,0,0
-144.71977564729,-91.489879010535,16.029342934293,1377681.1478032,2198.3738456811,2847207.8676054,21.229342934293,0,0
-144.71977554117,-91.504233112951,16.033773377338,1377681.1478032,2198.3738456811,2847207.8676054,21.233773377338,0,0
-144.71977543504,-91.518587215368,16.038203820382,1377681.1478032,2198.3738456811,2847207.8676054,21.238203820382,0,0
-144.71977532892,-91.532941317785,16.042634263426,1377681.1478032,2198.3738456811,2847207.8676054,21.242634263426,0,0
-144.7197752228,-91.547295420202,16.047064706471,1377681.1478032,2198.3738456811,2847207.8676054,21.247064706471,0,0
-144.71977511667,-91.561649522619,16.051495149515,1377681.1478032,2198.3738456811,2847207.8676054,21.251495149515,0,0
-144.71977501055,-91.576003625036,16.055925592559,1377681.1478032,2198.3738456811,2847207.8676054,21.255925592559,0,0
-144.71977490443,-91.590357727452,16.060356035604,1377681.1478032,2198.3738456811,2847207.8676054,21.260356035604,0,0
-144.7197747983,-91.604711829869,16.064786478648,1377681.1478032,2198.3738456811,2847207.8676054,21.264786478648,0,0
-144.71977469218,-91.619065932286,16.069216921692,1377681.1478032,2198.3738456811,2847207.8676054,21.269216921692,0,0
-144.71977458605,-91.633420034703,16.073647364736,1377681.1478032,2198.3738456811,2847207.8676054,21.273647364736,0,0
-144.71977447993,-91.64777413712,16.078077807781,1377681.1478032,2198.3738456811,2847207.8676054,21.278077807781,0,0
-144.71977437381,-91.662128239537,16.082508250825,1377681.1478032,2198.3738456811,2847207.8676054,21.282508250825,0,0
-144.71977426768,-91.676482341954,16.086938693869,1377681.1478032,2198.3738456811,2847207.8676054,21.286938693869,0,0
-144.71977416156,-91.69083644437,16.091369136914,1377681.1478032,2198.3738456811,2847207.8676054,21.291369136914,0,0
-144.71977405543,-91.705190546787,16.095799579958,1377681.1478032,2198.3738456811,2847207.8676054,21.295799579958,0,0
-144.71977394931,-91.719544649204,16.100230023002,1377681.1478032,2198.3738456811,2847207.8676054,21.300230023002,0,0
-144.71977384319,-91.733898751621,16.104660466047,1377681.1478032,2198.3738456811,2847207.8676054,21.304660466047,0,0
-144.71977373706,-91.748252854038,16.109090909091,1377681.1478032,2198.3738456811,2847207.8676054,21.309090909091,0,0
-144.71977363094,-91.762606956455,16.113521352135,1377681.1478032,2198.3738456811,2847207.8676054,21.313521352135,0,0
-144.71977352481,-91.776961058871,16.11795179518,1377681.1478032,2198.3738456811,2847207.8676054,21.31795179518,0,0
-144.71977341869,-91.791315161288,16.122382238224,1377681.1478032,2198.3738456811,2847207.8676054,21.322382238224,0,0
-144.71977331257,-91.805669263705,16.126812681268,1377681.1478032,2198.3738456811,2847207.8676054,21.326812681268,0,0
-144.71977320644,-91.820023366122,16.131243124312,1377681.1478032,2198.3738456811,2847207.8676054,21.331243124312,0,0
-144.71977310032,-91.834377468539,16.135673567357,1377681.1478032,2198.3738456811,2847207.8676054,21.335673567357,0,0
-144.71977299419,-91.848731570956,16.140104010401,1377681.1478032,2198.3738456811,2847207.8676054,21.340104010401,0,0
-144.71977288807,-91.863085673372,16.144534453445,1377681.1478032,2198.3738456811,2847207.8676054,21.344534453445,0,0
-144.71977278195,-91.877439775789,16.14896489649,1377681.1478032,2198.3738456811,2847207.8676054,21.34896489649,0,0
-144.71977267582,-91.891793878206,16.153395339534,1377681.1478032,2198.3738456811,2847207.8676054,21.353395339534,0,0
-144.7197725697,-91.906147980623,16.157825782578,1377681.1478032,2198.3738456811,2847207.8676054,21.357825782578,0,0
-144.71977246358,-91.92050208304,16.162256225623,1377681.1478032,2198.3738456811,2847207.8676054,21.362256225623,0,0
-144.71977235745,-91.934856185457,16.166686668667,1377681.1478032,2198.3738456811,2847207.8676054,21.366686668667,0,0
-144.71977225133,-91.949210287874,16.171117111711,1377681.1478032,2198.3738456811,2847207.8676054,21.371117111711,0,0
-144.7197721452,-91.96356439029,16.175547554755,1377681.1478032,2198.3738456811,2847207.8676054,21.375547554755,0,0
-144.71977203908,-91.977918492707,16.1799779978,1377681.1478032,2198.3738456811,2847207.8676054,21.3799779978,0,0
-144.71977193296,-91.992272595124,16.184408440844,1377681.1478032,2198.3738456811,2847207.8676054,21.384408440844,0,0
-144.71977182683,-92.006626697541,16.188838883888,1377681.1478032,2198.3738456811,2847207.8676054,21.388838883888,0,0
-144.71977172071,-92.020980799958,16.193269326933,1377681.1478032,2198.3738456811,2847207.8676054,21.393269326933,0,0
-144.71977161458,-92.035334902375,16.197699769977,1377681.1478032,2198.3738456811,2847207.8676054,21.397699769977,0,0
-144.71977150846,-92.049689004792,16.202130213021,1377681.1478032,2198.3738456811,2847207.8676054,21.402130213021,0,0
-144.71977140234,-92.064043107208,16.206560656066,1377681.1478032,2198.3738456811,2847207.8676054,21.406560656066,0,0
-144.71977129621,-92.078397209625,16.21099109911,1377681.1478032,2198.3738456811,2847207.8676054,21.41099109911,0,0
-144.71977119009,-92.092751312042,16.215421542154,1377681.1478032,2198.3738456811,2847207.8676054,21.415421542154,0,0
-144.71977108396,-92.107105414459,16.219851985199,1377681.1478032,2198.3738456811,2847207.8676054,21.419851985199,0,0
-144.71977097784,-92.121459516876,16.224282428243,1377681.1478032,2198.3738456811,2847207.8676054,21.424282428243,0,0
-144.71977087172,-92.135813619293,16.228712871287,1377681.1478032,2198.3738456811,2847207.8676054,21.428712871287,0,0
-144.71977076559,-92.150167721709,16.233143314331,1377681.1478032,2198.3738456811,2847207.8676054,21.433143314331,0,0
-144.71977065947,-92.164521824126,16.237573757376,1377681.1478032,2198.3738456811,2847207.8676054,21.437573757376,0,0
-144.71977055335,-92.178875926543,16.24200420042,1377681.1478032,2198.3738456811,2847207.8676054,21.44200420042,0,0
-144.71977044722,-92.19323002896,16.246434643464,1377681.1478032,2198.3738456811,2847207.8676054,21.446434643464,0,0
-144.7197703411,-92.207584131377,16.250865086509,1377681.1478032,2198.3738456811,2847207.8676054,21.450865086509,0,0
-144.71977023497,-92.221938233794,16.255295529553,1377681.1478032,2198.3738456811,2847207.8676054,21.455295529553,0,0
-144.71977012885,-92.23629233621,16.259725972597,1377681.1478032,2198.3738456811,2847207.8676054,21.459725972597,0,0
-144.71977002273,-92.250646438627,16.264156415642,1377681.1478032,2198.3738456811,2847207.8676054,21.464156415642,0,0
-144.7197699166,-92.265000541044,16.268586858686,1377681.1478032,2198.3738456811,2847207.8676054,21.468586858686,0,0
-144.71976981048,-92.279354643461,16.27301730173,1377681.1478032,2198.3738456811,2847207.8676054,21.47301730173,0,0
-144.71976970435,-92.293708745878,16.277447744774,1377681.1478032,2198.3738456811,2847207.8676054,21.477447744774,0,0
-144.71976959823,-92.308062848295,16.281878187819,1377681.1478032,2198.3738456811,2847207.8676054,21.481878187819,0,0
-144.71976949211,-92.322416950712,16.286308630863,1377681.1478032,2198.3738456811,2847207.8676054,21.486308630863,0,0
-144.71976938598,-92.336771053128,16.290739073907,1377681.1478032,2198.3738456811,2847207.8676054,21.490739073907,0,0
-144.71976927986,-92.351125155545,16.295169516952,1377681.1478032,2198.3738456811,2847207.8676054,21.495169516952,0,0
-144.71976917373,-92.365479257962,16.299599959996,1377681.1478032,2198.3738456811,2847207.8676054,21.499599959996,0,0
-144.71976906761,-92.379833360379,16.30403040304,1377681.1478032,2198.3738456811,2847207.8676054,21.50403040304,0,0
-144.71976896149,-92.394187462796,16.308460846085,1377681.1478032,2198.3738456811,2847207.8676054,21.508460846085,0,0
-144.71976885536,-92.408541565213,16.312891289129,1377681.1478032,2198.3738456811,2847207.8676054,21.512891289129,0,0
-144.71976874924,-92.422895667629,16.317321732173,1377681.1478032,2198.3738456811,2847207.8676054,21.517321732173,0,0
-144.71976864311,-92.437249770046,16.321752175218,1377681.1478032,2198.3738456811,2847207.8676054,21.521752175218,0,0
-144.71976853699,-92.451603872463,16.326182618262,1377681.1478032,2198.3738456811,2847207.8676054,21.526182618262,0,0
-144.71976843087,-92.46595797488,16.330613061306,1377681.1478032,2198.3738456811,2847207.8676054,21.530613061306,0,0
-144.71976832474,-92.480312077297,16.33504350435,1377681.1478032,2198.3738456811,2847207.8676054,21.53504350435,0,0
-144.71976821862,-92.494666179714,16.339473947395,1377681.1478032,2198.3738456811,2847207.8676054,21.539473947395,0,0
-144.7197681125,-92.509020282131,16.343904390439,1377681.1478032,2198.3738456811,2847207.8676054,21.543904390439,0,0
-144.71976800637,-92.523374384547,16.348334833483,1377681.1478032,2198.3738456811,2847207.8676054,21.548334833483,0,0
-144.71976790025,-92.537728486964,16.352765276528,1377681.1478032,2198.3738456811,2847207.8676054,21.552765276528,0,0
-144.71976779412,-92.552082589381,16.357195719572,1377681.1478032,2198.3738456811,2847207.8676054,21.557195719572,0,0
-144.719767688,-92.566436691798,16.361626162616,1377681.1478032,2198.3738456811,2847207.8676054,21.561626162616,0,0
-144.71976758188,-92.580790794215,16.366056605661,1377681.1478032,2198.3738456811,2847207.8676054,21.566056605661,0,0
-144.71976747575,-92.595144896632,16.370487048705,1377681.1478032,2198.3738456811,2847207.8676054,21.570487048705,0,0
-144.71976736963,-92.609498999048,16.374917491749,1377681.1478032,2198.3738456811,2847207.8676054,21.574917491749,0,0
-144.7197672635,-92.623853101465,16.379347934793,1377681.1478032,2198.3738456811,2847207.8676054,21.579347934793,0,0
-144.71976715738,-92.638207203882,16.383778377838,1377681.1478032,2198.3738456811,2847207.8676054,21.583778377838,0,0
-144.71976705126,-92.652561306299,16.388208820882,1377681.1478032,2198.3738456811,2847207.8676054,21.588208820882,0,0
-144.71976694513,-92.666915408716,16.392639263926,1377681.1478032,2198.3738456811,2847207.8676054,21.592639263926,0,0
-144.71976683901,-92.681269511133,16.397069706971,1377681.1478032,2198.3738456811,2847207.8676054,21.597069706971,0,0
-144.71976673288,-92.69562361355,16.401500150015,1377681.1478032,2198.3738456811,2847207.8676054,21.601500150015,0,0
-144.71976662676,-92.709977715966,16.405930593059,1377681.1478032,2198.3738456811,2847207.8676054,21.605930593059,0,0
-144.71976652064,-92.724331818383,16.410361036104,1377681.1478032,2198.3738456811,2847207.8676054,21.610361036104,0,0
-144.71976641451,-92.7386859208,16.414791479148,1377681.1478032,2198.3738456811,2847207.8676054,21.614791479148,0,0
-144.71976630839,-92.753040023217,16.419221922192,1377681.1478032,2198.3738456811,2847207.8676054,21.619221922192,0,0
-144.71976620226,-92.767394125634,16.423652365237,1377681.1478032,2198.3738456811,2847207.8676054,21.623652365237,0,0
-144.71976609614,-92.781748228051,16.428082808281,1377681.1478032,2198.3738456811,2847207.8676054,21.628082808281,0,0
-144.71976599002,-92.796102330467,16.432513251325,1377681.1478032,2198.3738456811,2847207.8676054,21.632513251325,0,0
-144.71976588389,-92.810456432884,16.436943694369,1377681.1478032,2198.3738456811,2847207.8676054,21.636943694369,0,0
-144.71976577777,-92.824810535301,16.441374137414,1377681.1478032,2198.3738456811,2847207.8676054,21.641374137414,0,0
-144.71976567165,-92.839164637718,16.445804580458,1377681.1478032,2198.3738456811,2847207.8676054,21.645804580458,0,0
-144.71976556552,-92.853518740135,16.450235023502,1377681.1478032,2198.3738456811,2847207.8676054,21.650235023502,0,0
-144.7197654594,-92.867872842552,16.454665466547,1377681.1478032,2198.3738456811,2847207.8676054,21.654665466547,0,0
-144.71976535327,-92.882226944968,16.459095909591,1377681.1478032,2198.3738456811,2847207.8676054,21.659095909591,0,0
-144.71976524715,-92.896581047385,16.463526352635,1377681.1478032,2198.3738456811,2847207.8676054,21.663526352635,0,0
-144.71976514103,-92.910935149802,16.46795679568,1377681.1478032,2198.3738456811,2847207.8676054,21.66795679568,0,0
-144.7197650349,-92.925289252219,16.472387238724,1377681.1478032,2198.3738456811,2847207.8676054,21.672387238724,0,0
-144.71976492878,-92.939643354636,16.476817681768,1377681.1478032,2198.3738456811,2847207.8676054,21.676817681768,0,0
-144.71976482265,-92.953997457053,16.481248124812,1377681.1478032,2198.3738456811,2847207.8676054,21.681248124812,0,0
-144.71976471653,-92.96835155947,16.485678567857,1377681.1478032,2198.3738456811,2847207.8676054,21.685678567857,0,0
-144.71976461041,-92.982705661886,16.490109010901,1377681.1478032,2198.3738456811,2847207.8676054,21.690109010901,0,0
-144.71976450428,-92.997059764303,16.494539453945,1377681.1478032,2198.3738456811,2847207.8676054,21.694539453945,0,0
-144.71976439816,-93.01141386672,16.49896989699,1377681.1478032,2198.3738456811,2847207.8676054,21.69896989699,0,0
-144.71976429203,-93.025767969137,16.503400340034,1377681.1478032,2198.3738456811,2847207.8676054,21.703400340034,0,0
-144.71976418591,-93.040122071554,16.507830783078,1377681.1478032,2198.3738456811,2847207.8676054,21.707830783078,0,0
-144.71976407979,-93.054476173971,16.512261226123,1377681.1478032,2198.3738456811,2847207.8676054,21.712261226123,0,0
-144.71976397366,-93.068830276387,16.516691669167,1377681.1478032,2198.3738456811,2847207.8676054,21.716691669167,0,0
-144.71976386754,-93.083184378804,16.521122112211,1377681.1478032,2198.3738456811,2847207.8676054,21.721122112211,0,0
-144.71976376142,-93.097538481221,16.525552555256,1377681.1478032,2198.3738456811,2847207.8676054,21.725552555256,0,0
-144.71976365529,-93.111892583638,16.5299829983,1377681.1478032,2198.3738456811,2847207.8676054,21.7299829983,0,0
-144.71976354917,-93.126246686055,16.534413441344,1377681.1478032,2198.3738456811,2847207.8676054,21.734413441344,0,0
-144.71976344304,-93.140600788472,16.538843884388,1377681.1478032,2198.3738456811,2847207.8676054,21.738843884388,0,0
-144.71976333692,-93.154954890889,16.543274327433,1377681.1478032,2198.3738456811,2847207.8676054,21.743274327433,0,0
-144.7197632308,-93.169308993305,16.547704770477,1377681.1478032,2198.3738456811,2847207.8676054,21.747704770477,0,0
-144.71976312467,-93.183663095722,16.552135213521,1377681.1478032,2198.3738456811,2847207.8676054,21.752135213521,0,0
-144.71976301855,-93.198017198139,16.556565656566,1377681.1478032,2198.3738456811,2847207.8676054,21.756565656566,0,0
-144.71976291242,-93.212371300556,16.56099609961,1377681.1478032,2198.3738456811,2847207.8676054,21.76099609961,0,0
-144.7197628063,-93.226725402973,16.565426542654,1377681.1478032,2198.3738456811,2847207.8676054,21.765426542654,0,0
-144.71976270018,-93.24107950539,16.569856985699,1377681.1478032,2198.3738456811,2847207.8676054,21.769856985699,0,0
-144.71976259405,-93.255433607806,16.574287428743,1377681.1478032,2198.3738456811,2847207.8676054,21.774287428743,0,0
-144.71976248793,-93.269787710223,16.578717871787,1377681.1478032,2198.3738456811,2847207.8676054,21.778717871787,0,0
-144.7197623818,-93.28414181264,16.583148314831,1377681.1478032,2198.3738456811,2847207.8676054,21.783148314831,0,0
-144.71976227568,-93.298495915057,16.587578757876,1377681.1478032,2198.3738456811,2847207.8676054,21.787578757876,0,0
-144.71976216956,-93.312850017474,16.59200920092,1377681.1478032,2198.3738456811,2847207.8676054,21.79200920092,0,0
-144.71976206343,-93.327204119891,16.596439643964,1377681.1478032,2198.3738456811,2847207.8676054,21.796439643964,0,0
-144.71976195731,-93.341558222308,16.600870087009,1377681.1478032,2198.3738456811,2847207.8676054,21.800870087009,0,0
-144.71976185118,-93.355912324724,16.605300530053,1377681.1478032,2198.3738456811,2847207.8676054,21.805300530053,0,0
-144.71976174506,-93.370266427141,16.609730973097,1377681.1478032,2198.3738456811,2847207.8676054,21.809730973097,0,0
-144.71976163894,-93.384620529558,16.614161416142,1377681.1478032,2198.3738456811,2847207.8676054,21.814161416142,0,0
-144.71976153281,-93.398974631975,16.618591859186,1377681.1478032,2198.3738456811,2847207.8676054,21.818591859186,0,0
-144.71976142669,-93.413328734392,16.62302230223,1377681.1478032,2198.3738456811,2847207.8676054,21.82302230223,0,0
-144.71976132057,-93.427682836809,16.627452745275,1377681.1478032,2198.3738456811,2847207.8676054,21.827452745275,0,0
-144.71976121444,-93.442036939225,16.631883188319,1377681.1478032,2198.3738456811,2847207.8676054,21.831883188319,0,0
-144.71976110832,-93.456391041642,16.636313631363,1377681.1478032,2198.3738456811,2847207.8676054,21.836313631363,0,0
-144.71976100219,-93.470745144059,16.640744074407,1377681.1478032,2198.3738456811,2847207.8676054,21.840744074407,0,0
-144.71976089607,-93.485099246476,16.645174517452,1377681.1478032,2198.3738456811,2847207.8676054,21.845174517452,0,0
-144.71976078995,-93.499453348893,16.649604960496,1377681.1478032,2198.3738456811,2847207.8676054,21.849604960496,0,0
-144.71976068382,-93.51380745131,16.65403540354,1377681.1478032,2198.3738456811,2847207.8676054,21.85403540354,0,0
-144.7197605777,-93.528161553727,16.658465846585,1377681.1478032,2198.3738456811,2847207.8676054,21.858465846585,0,0
-144.71976047157,-93.542515656143,16.662896289629,1377681.1478032,2198.3738456811,2847207.8676054,21.862896289629,0,0
-144.71976036545,-93.55686975856,16.667326732673,1377681.1478032,2198.3738456811,2847207.8676054,21.867326732673,0,0
-144.71976025933,-93.571223860977,16.671757175718,1377681.1478032,2198.3738456811,2847207.8676054,21.871757175718,0,0
-144.7197601532,-93.585577963394,16.676187618762,1377681.1478032,2198.3738456811,2847207.8676054,21.876187618762,0,0
-144.71976004708,-93.599932065811,16.680618061806,1377681.1478032,2198.3738456811,2847207.8676054,21.880618061806,0,0
-144.71975994095,-93.614286168228,16.68504850485,1377681.1478032,2198.3738456811,2847207.8676054,21.88504850485,0,0
-144.71975983483,-93.628640270644,16.689478947895,1377681.1478032,2198.3738456811,2847207.8676054,21.889478947895,0,0
-144.71975972871,-93.642994373061,16.693909390939,1377681.1478032,2198.3738456811,2847207.8676054,21.893909390939,0,0
-144.71975962258,-93.657348475478,16.698339833983,1377681.1478032,2198.3738456811,2847207.8676054,21.898339833983,0,0
-144.71975951646,-93.671702577895,16.702770277028,1377681.1478032,2198.3738456811,2847207.8676054,21.902770277028,0,0
-144.71975941034,-93.686056680312,16.707200720072,1377681.1478032,2198.3738456811,2847207.8676054,21.907200720072,0,0
-144.71975930421,-93.700410782729,16.711631163116,1377681.1478032,2198.3738456811,2847207.8676054,21.911631163116,0,0
-144.71975919809,-93.714764885146,16.716061606161,1377681.1478032,2198.3738456811,2847207.8676054,21.916061606161,0,0
-144.71975909196,-93.729118987562,16.720492049205,1377681.1478032,2198.3738456811,2847207.8676054,21.920492049205,0,0
-144.71975898584,-93.743473089979,16.724922492249,1377681.1478032,2198.3738456811,2847207.8676054,21.924922492249,0,0
-144.71975887972,-93.757827192396,16.729352935294,1377681.1478032,2198.3738456811,2847207.8676054,21.929352935294,0,0
-144.71975877359,-93.772181294813,16.733783378338,1377681.1478032,2198.3738456811,2847207.8676054,21.933783378338,0,0
-144.71975866747,-93.78653539723,16.738213821382,1377681.1478032,2198.3738456811,2847207.8676054,21.938213821382,0,0
-144.71975856134,-93.800889499647,16.742644264426,1377681.1478032,2198.3738456811,2847207.8676054,21.942644264426,0,0
-144.71975845522,-93.815243602063,16.747074707471,1377681.1478032,2198.3738456811,2847207.8676054,21.947074707471,0,0
-144.7197583491,-93.82959770448,16.751505150515,1377681.1478032,2198.3738456811,2847207.8676054,21.951505150515,0,0
-144.71975824297,-93.843951806897,16.755935593559,1377681.1478032,2198.3738456811,2847207.8676054,21.955935593559,0,0
-144.71975813685,-93.858305909314,16.760366036604,1377681.1478032,2198.3738456811,2847207.8676054,21.960366036604,0,0
-144.71975803072,-93.872660011731,16.764796479648,1377681.1478032,2198.3738456811,2847207.8676054,21.964796479648,0,0
-144.7197579246,-93.887014114148,16.769226922692,1377681.1478032,2198.3738456811,2847207.8676054,21.969226922692,0,0
-144.71975781848,-93.901368216565,16.773657365737,1377681.1478032,2198.3738456811,2847207.8676054,21.973657365737,0,0
-144.71975771235,-93.915722318981,16.778087808781,1377681.1478032,2198.3738456811,2847207.8676054,21.978087808781,0,0
-144.71975760623,-93.930076421398,16.782518251825,1377681.1478032,2198.3738456811,2847207.8676054,21.982518251825,0,0
-144.71975750003,-93.944430524194,16.786948694869,1376934.4288129,-1354.7598178775,2837794.6383352,21.986948694869,0,0
-144.71975739371,-93.958784627521,16.791379137914,1376934.4288129,-1354.7598178775,2837794.6383352,21.991379137914,0,0
-144.7197572874,-93.973138730848,16.795809580958,1376934.4288129,-1354.7598178775,2837794.6383352,21.995809580958,0,0
-144.71975718108,-93.987492834176,16.800240024002,1376934.4288129,-1354.7598178775,2837794.6383352,22.000240024002,0,0
-144.71975707477,-94.001846937503,16.804670467047,1376934.4288129,-1354.7598178775,2837794.6383352,22.004670467047,0,0
-144.71975696845,-94.01620104083,16.809100910091,1376934.4288129,-1354.7598178775,2837794.6383352,22.009100910091,0,0
-144.71975686214,-94.030555144157,16.813531353135,1376934.4288129,-1354.7598178775,2837794.6383352,22.013531353135,0,0
-144.71975675582,-94.044909247485,16.81796179618,1376934.4288129,-1354.7598178775,2837794.6383352,22.01796179618,0,0
-144.71975664951,-94.059263350812,16.822392239224,1376934.4288129,-1354.7598178775,2837794.6383352,22.022392239224,0,0
-144.71975654319,-94.073617454139,16.826822682268,1376934.4288129,-1354.7598178775,2837794.6383352,22.026822682268,0,0
-144.71975643688,-94.087971557466,16.831253125313,1376934.4288129,-1354.7598178775,2837794.6383352,22.031253125313,0,0
-144.71975633056,-94.102325660794,16.835683568357,1376934.4288129,-1354.7598178775,2837794.6383352,22.035683568357,0,0
-144.71975622425,-94.116679764121,16.840114011401,1376934.4288129,-1354.7598178775,2837794.6383352,22.040114011401,0,0
-144.71975611793,-94.131033867448,16.844544454445,1376934.4288129,-1354.7598178775,2837794.6383352,22.044544454445,0,0
-144.71975601162,-94.145387970775,16.84897489749,1376934.4288129,-1354.7598178775,2837794.6383352,22.04897489749,0,0
-144.7197559053,-94.159742074103,16.853405340534,1376934.4288129,-1354.7598178775,2837794.6383352,22.053405340534,0,0
-144.71975579899,-94.17409617743,16.857835783578,1376934.4288129,-1354.7598178775,2837794.6383352,22.057835783578,0,0
-144.71975569267,-94.188450280757,16.862266226623,1376934.4288129,-1354.7598178775,2837794.6383352,22.062266226623,0,0
-144.71975558636,-94.202804384084,16.866696669667,1376934.4288129,-1354.7598178775,2837794.6383352,22.066696669667,0,0
-144.71975548004,-94.217158487411,16.871127112711,1376934.4288129,-1354.7598178775,2837794.6383352,22.071127112711,0,0
-144.71975537373,-94.231512590739,16.875557555756,1376934.4288129,-1354.7598178775,2837794.6383352,22.075557555756,0,0
-144.71975526741,-94.245866694066,16.8799879988,1376934.4288129,-1354.7598178775,2837794.6383352,22.0799879988,0,0
-144.7197551611,-94.260220797393,16.884418441844,1376934.4288129,-1354.7598178775,2837794.6383352,22.084418441844,0,0
-144.71975505478,-94.27457490072,16.888848884888,1376934.4288129,-1354.7598178775,2837794.6383352,22.088848884888,0,0
-144.71975494847,-94.288929004048,16.893279327933,1376934.4288129,-1354.7598178775,2837794.6383352,22.093279327933,0,0
-144.71975484215,-94.303283107375,16.897709770977,1376934.4288129,-1354.7598178775,2837794.6383352,22.097709770977,0,0
-144.71975473584,-94.317637210702,16.902140214021,1376934.4288129,-1354.7598178775,2837794.6383352,22.102140214021,0,0
-144.71975462952,-94.331991314029,16.906570657066,1376934.4288129,-1354.7598178775,2837794.6383352,22.106570657066,0,0
-144.71975452321,-94.346345417357,16.91100110011,1376934.4288129,-1354.7598178775,2837794.6383352,22.11100110011,0,0
-144.71975441689,-94.360699520684,16.915431543154,1376934.4288129,-1354.7598178775,2837794.6383352,22.115431543154,0,0
-144.71975431058,-94.375053624011,16.919861986199,1376934.4288129,-1354.7598178775,2837794.6383352,22.119861986199,0,0
-144.71975420426,-94.389407727338,16.924292429243,1376934.4288129,-1354.7598178775,2837794.6383352,22.124292429243,0,0
-144.71975409795,-94.403761830665,16.928722872287,1376934.4288129,-1354.7598178775,2837794.6383352,22.128722872287,0,0
-144.71975399163,-94.418115933993,16.933153315332,1376934.4288129,-1354.7598178775,2837794.6383352,22.133153315332,0,0
-144.71975388532,-94.43247003732,16.937583758376,1376934.4288129,-1354.7598178775,2837794.6383352,22.137583758376,0,0
-144.719753779,-94.446824140647,16.94201420142,1376934.4288129,-1354.7598178775,2837794.6383352,22.14201420142,0,0
-144.71975367269,-94.461178243974,16.946444644464,1376934.4288129,-1354.7598178775,2837794.6383352,22.146444644464,0,0
-144.71975356637,-94.475532347302,16.950875087509,1376934.4288129,-1354.7598178775,2837794.6383352,22.150875087509,0,0
-144.71975346006,-94.489886450629,16.955305530553,1376934.4288129,-1354.7598178775,2837794.6383352,22.155305530553,0,0
-144.71975335374,-94.504240553956,16.959735973597,1376934.4288129,-1354.7598178775,2837794.6383352,22.159735973597,0,0
-144.71975324743,-94.518594657283,16.964166416642,1376934.4288129,-1354.7598178775,2837794.6383352,22.164166416642,0,0
-144.71975314111,-94.532948760611,16.968596859686,1376934.4288129,-1354.7598178775,2837794.6383352,22.168596859686,0,0
-144.7197530348,-94.547302863938,16.97302730273,1376934.4288129,-1354.7598178775,2837794.6383352,22.17302730273,0,0
-144.71975292849,-94.561656967265,16.977457745775,1376934.4288129,-1354.7598178775,2837794.6383352,22.177457745775,0,0
-144.71975282217,-94.576011070592,16.981888188819,1376934.4288129,-1354.7598178775,2837794.6383352,22.181888188819,0,0
-144.71975271586,-94.59036517392,16.986318631863,1376934.4288129,-1354.7598178775,2837794.6383352,22.186318631863,0,0
-144.71975260954,-94.604719277247,16.990749074907,1376934.4288129,-1354.7598178775,2837794.6383352,22.190749074907,0,0
-144.71975250323,-94.619073380574,16.995179517952,1376934.4288129,-1354.7598178775,2837794.6383352,22.195179517952,0,0
-144.71975239691,-94.633427483901,16.999609960996,1376934.4288129,-1354.7598178775,2837794.6383352,22.199609960996,0,0
-144.7197522906,-94.647781587228,17.00404040404,1376934.4288129,-1354.7598178775,2837794.6383352,22.20404040404,0,0
-144.71975218428,-94.662135690556,17.008470847085,1376934.4288129,-1354.7598178775,2837794.6383352,22.208470847085,0,0
-144.71975207797,-94.676489793883,17.012901290129,1376934.4288129,-1354.7598178775,2837794.6383352,22.212901290129,0,0
-144.71975197165,-94.69084389721,17.017331733173,1376934.4288129,-1354.7598178775,2837794.6383352,22.217331733173,0,0
-144.71975186534,-94.705198000537,17.021762176218,1376934.4288129,-1354.7598178775,2837794.6383352,22.221762176218,0,0
-144.71975175902,-94.719552103865,17.026192619262,1376934.4288129,-1354.7598178775,2837794.6383352,22.226192619262,0,0
-144.71975165271,-94.733906207192,17.030623062306,1376934.4288129,-1354.7598178775,2837794.6383352,22.230623062306,0,0
-144.71975154639,-94.748260310519,17.035053505351,1376934.4288129,-1354.7598178775,2837794.6383352,22.235053505351,0,0
-144.71975144008,-94.762614413846,17.039483948395,1376934.4288129,-1354.7598178775,2837794.6383352,22.239483948395,0,0
-144.71975133376,-94.776968517174,17.043914391439,1376934.4288129,-1354.7598178775,2837794.6383352,22.243914391439,0,0
-144.71975122745,-94.791322620501,17.048344834483,1376934.4288129,-1354.7598178775,2837794.6383352,22.248344834483,0,0
-144.71975112113,-94.805676723828,17.052775277528,1376934.4288129,-1354.7598178775,2837794.6383352,22.252775277528,0,0
-144.71975101482,-94.820030827155,17.057205720572,1376934.4288129,-1354.7598178775,2837794.6383352,22.257205720572,0,0
-144.7197509085,-94.834384930482,17.061636163616,1376934.4288129,-1354.7598178775,2837794.6383352,22.261636163616,0,0
-144.71975080219,-94.84873903381,17.066066606661,1376934.4288129,-1354.7598178775,2837794.6383352,22.266066606661,0,0
-144.71975069587,-94.863093137137,17.070497049705,1376934.4288129,-1354.7598178775,2837794.6383352,22.270497049705,0,0
-144.71975058956,-94.877447240464,17.074927492749,1376934.4288129,-1354.7598178775,2837794.6383352,22.274927492749,0,0
-144.71975048324,-94.891801343791,17.079357935794,1376934.4288129,-1354.7598178775,2837794.6383352,22.279357935794,0,0
-144.71975037693,-94.906155447119,17.083788378838,1376934.4288129,-1354.7598178775,2837794.6383352,22.283788378838,0,0
-144.71975027061,-94.920509550446,17.088218821882,1376934.4288129,-1354.7598178775,2837794.6383352,22.288218821882,0,0
-144.7197501643,-94.934863653773,17.092649264926,1376934.4288129,-1354.7598178775,2837794.6383352,22.292649264926,0,0
-144.71975005798,-94.9492177571,17.097079707971,1376934.4288129,-1354.7598178775,2837794.6383352,22.297079707971,0,0
-144.71974995167,-94.963571860428,17.101510151015,1376934.4288129,-1354.7598178775,2837794.6383352,22.301510151015,0,0
-144.71974984535,-94.977925963755,17.105940594059,1376934.4288129,-1354.7598178775,2837794.6383352,22.305940594059,0,0
-144.71974973904,-94.992280067082,17.110371037104,1376934.4288129,-1354.7598178775,2837794.6383352,22.310371037104,0,0
-144.71974963272,-95.006634170409,17.114801480148,1376934.4288129,-1354.7598178775,2837794.6383352,22.314801480148,0,0
-144.71974952641,-95.020988273737,17.119231923192,1376934.4288129,-1354.7598178775,2837794.6383352,22.319231923192,0,0
-144.71974942009,-95.035342377064,17.123662366237,1376934.4288129,-1354.7598178775,2837794.6383352,22.323662366237,0,0
-144.71974931378,-95.049696480391,17.128092809281,1376934.4288129,-1354.7598178775,2837794.6383352,22.328092809281,0,0
-144.71974920746,-95.064050583718,17.132523252325,1376934.4288129,-1354.7598178775,2837794.6383352,22.332523252325,0,0
-144.71974910115,-95.078404687045,17.13695369537,1376934.4288129,-1354.7598178775,2837794.6383352,22.33695369537,0,0
-144.71974899483,-95.092758790373,17.141384138414,1376934.4288129,-1354.7598178775,2837794.6383352,22.341384138414,0,0
-144.71974888852,-95.1071128937,17.145814581458,1376934.4288129,-1354.7598178775,2837794.6383352,22.345814581458,0,0
-144.7197487822,-95.121466997027,17.150245024502,1376934.4288129,-1354.7598178775,2837794.6383352,22.350245024502,0,0
-144.71974867589,-95.135821100354,17.154675467547,1376934.4288129,-1354.7598178775,2837794.6383352,22.354675467547,0,0
-144.71974856957,-95.150175203682,17.159105910591,1376934.4288129,-1354.7598178775,2837794.6383352,22.359105910591,0,0
-144.71974846326,-95.164529307009,17.163536353635,1376934.4288129,-1354.7598178775,2837794.6383352,22.363536353635,0,0
-144.71974835695,-95.178883410336,17.16796679668,1376934.4288129,-1354.7598178775,2837794.6383352,22.36796679668,0,0
-144.71974825063,-95.193237513663,17.172397239724,1376934.4288129,-1354.7598178775,2837794.6383352,22.372397239724,0,0
-144.71974814432,-95.207591616991,17.176827682768,1376934.4288129,-1354.7598178775,2837794.6383352,22.376827682768,0,0
-144.719748038,-95.221945720318,17.181258125813,1376934.4288129,-1354.7598178775,2837794.6383352,22.381258125813,0,0
-144.71974793169,-95.236299823645,17.185688568857,1376934.4288129,-1354.7598178775,2837794.6383352,22.385688568857,0,0
-144.71974782538,-95.250653926319,17.190119011901,1374624.2255501,2162.0393333933,2831408.4467092,22.390119011901,0,0
-144.71974771908,-95.265008028906,17.194549454945,1374624.2255501,2162.0393333933,2831408.4467092,22.394549454945,0,0
-144.71974761278,-95.279362131493,17.19897989799,1374624.2255501,2162.0393333933,2831408.4467092,22.39897989799,0,0
-144.71974750648,-95.29371623408,17.203410341034,1374624.2255501,2162.0393333933,2831408.4467092,22.403410341034,0,0
-144.71974740018,-95.308070336667,17.207840784078,1374624.2255501,2162.0393333933,2831408.4467092,22.407840784078,0,0
-144.71974729388,-95.322424439254,17.212271227123,1374624.2255501,2162.0393333933,2831408.4467092,22.412271227123,0,0
-144.71974718758,-95.336778541841,17.216701670167,1374624.2255501,2162.0393333933,2831408.4467092,22.416701670167,0,0
-144.71974708128,-95.351132644428,17.221132113211,1374624.2255501,2162.0393333933,2831408.4467092,22.421132113211,0,0
-144.71974697498,-95.365486747015,17.225562556256,1374624.2255501,2162.0393333933,2831408.4467092,22.425562556256,0,0
-144.71974686868,-95.379840849602,17.2299929993,1374624.2255501,2162.0393333933,2831408.4467092,22.4299929993,0,0
-144.71974676238,-95.394194952189,17.234423442344,1374624.2255501,2162.0393333933,2831408.4467092,22.434423442344,0,0
-144.71974665608,-95.408549054776,17.238853885389,1374624.2255501,2162.0393333933,2831408.4467092,22.438853885389,0,0
-144.71974654978,-95.422903157362,17.243284328433,1374624.2255501,2162.0393333933,2831408.4467092,22.443284328433,0,0
-144.71974644348,-95.437257259949,17.247714771477,1374624.2255501,2162.0393333933,2831408.4467092,22.447714771477,0,0
-144.71974633718,-95.451611362536,17.252145214521,1374624.2255501,2162.0393333933,2831408.4467092,22.452145214521,0,0
-144.71974623088,-95.465965465123,17.256575657566,1374624.2255501,2162.0393333933,2831408.4467092,22.456575657566,0,0
-144.71974612458,-95.48031956771,17.26100610061,1374624.2255501,2162.0393333933,2831408.4467092,22.46100610061,0,0
-144.71974601828,-95.494673670297,17.265436543654,1374624.2255501,2162.0393333933,2831408.4467092,22.465436543654,0,0
-144.71974591198,-95.509027772884,17.269866986699,1374624.2255501,2162.0393333933,2831408.4467092,22.469866986699,0,0
-144.71974580568,-95.523381875471,17.274297429743,1374624.2255501,2162.0393333933,2831408.4467092,22.474297429743,0,0
-144.71974569938,-95.537735978058,17.278727872787,1374624.2255501,2162.0393333933,2831408.4467092,22.478727872787,0,0
-144.71974559308,-95.552090080645,17.283158315832,1374624.2255501,2162.0393333933,2831408.4467092,22.483158315832,0,0
-144.71974548677,-95.566444183232,17.287588758876,1374624.2255501,2162.0393333933,2831408.4467092,22.487588758876,0,0
-144.71974538047,-95.580798285819,17.29201920192,1374624.2255501,2162.0393333933,2831408.4467092,22.49201920192,0,0
-144.71974527417,-95.595152388406,17.296449644964,1374624.2255501,2162.0393333933,2831408.4467092,22.496449644964,0,0
-144.71974516787,-95.609506490993,17.300880088009,1374624.2255501,2162.0393333933,2831408.4467092,22.500880088009,0,0
-144.71974506157,-95.62386059358,17.305310531053,1374624.2255501,2162.0393333933,2831408.4467092,22.505310531053,0,0
-144.71974495527,-95.638214696166,17.309740974097,1374624.2255501,2162.0393333933,2831408.4467092,22.509740974097,0,0
-144.71974484897,-95.652568798753,17.314171417142,1374624.2255501,2162.0393333933,2831408.4467092,22.514171417142,0,0
-144.71974474267,-95.66692290134,17.318601860186,1374624.2255501,2162.0393333933,2831408.4467092,22.518601860186,0,0
-144.71974463637,-95.681277003927,17.32303230323,1374624.2255501,2162.0393333933,2831408.4467092,22.52303230323,0,0
-144.71974453007,-95.695631106514,17.327462746275,1374624.2255501,2162.0393333933,2831408.4467092,22.527462746275,0,0
-144.71974442377,-95.709985209101,17.331893189319,1374624.2255501,2162.0393333933,2831408.4467092,22.531893189319,0,0
-144.71974431747,-95.724339311688,17.336323632363,1374624.2255501,2162.0393333933,2831408.4467092,22.536323632363,0,0
-144.71974421117,-95.738693414275,17.340754075408,1374624.2255501,2162.0393333933,2831408.4467092,22.540754075408,0,0
-144.71974410487,-95.753047516862,17.345184518452,1374624.2255501,2162.0393333933,2831408.4467092,22.545184518452,0,0
-144.71974399857,-95.767401619449,17.349614961496,1374624.2255501,2162.0393333933,2831408.4467092,22.549614961496,0,0
-144.71974389227,-95.781755722036,17.35404540454,1374624.2255501,2162.0393333933,2831408.4467092,22.55404540454,0,0
-144.71974378597,-95.796109824623,17.358475847585,1374624.2255501,2162.0393333933,2831408.4467092,22.558475847585,0,0
-144.71974367967,-95.81046392721,17.362906290629,1374624.2255501,2162.0393333933,2831408.4467092,22.562906290629,0,0
-144.71974357337,-95.824818029797,17.367336733673,1374624.2255501,2162.0393333933,2831408.4467092,22.567336733673,0,0
-144.71974346707,-95.839172132383,17.371767176718,1374624.2255501,2162.0393333933,2831408.4467092,22.571767176718,0,0
-144.71974336077,-95.85352623497,17.376197619762,1374624.2255501,2162.0393333933,2831408.4467092,22.576197619762,0,0
-144.71974325447,-95.867880337557,17.380628062806,1374624.2255501,2162.0393333933,2831408.4467092,22.580628062806,0,0
-144.71974314817,-95.882234440144,17.385058505851,1374624.2255501,2162.0393333933,2831408.4467092,22.585058505851,0,0
-144.71974304187,-95.896588542731,17.389488948895,1374624.2255501,2162.0393333933,2831408.4467092,22.589488948895,0,0
-144.71974293557,-95.910942645318,17.393919391939,1374624.2255501,2162.0393333933,2831408.4467092,22.593919391939,0,0
-144.71974282926,-95.925296747905,17.398349834983,1374624.2255501,2162.0393333933,2831408.4467092,22.598349834983,0,0
-144.71974272296,-95.939650850492,17.402780278028,1374624.2255501,2162.0393333933,2831408.4467092,22.602780278028,0,0
-144.71974261666,-95.954004953079,17.407210721072,1374624.2255501,2162.0393333933,2831408.4467092,22.607210721072,0,0
-144.71974251036,-95.968359055666,17.411641164116,1374624.2255501,2162.0393333933,2831408.4467092,22.611641164116,0,0
-144.71974240406,-95.982713158253,17.416071607161,1374624.2255501,2162.0393333933,2831408.4467092,22.616071607161,0,0
-144.71974229776,-95.99706726084,17.420502050205,1374624.2255501,2162.0393333933,2831408.4467092,22.620502050205,0,0
-144.71974219146,-96.011421363427,17.424932493249,1374624.2255501,2162.0393333933,2831408.4467092,22.624932493249,0,0
-144.71974208516,-96.025775466014,17.429362936294,1374624.2255501,2162.0393333933,2831408.4467092,22.629362936294,0,0
-144.71974197886,-96.040129568601,17.433793379338,1374624.2255501,2162.0393333933,2831408.4467092,22.633793379338,0,0
-144.71974187256,-96.054483671187,17.438223822382,1374624.2255501,2162.0393333933,2831408.4467092,22.638223822382,0,0
-144.71974176626,-96.068837773774,17.442654265427,1374624.2255501,2162.0393333933,2831408.4467092,22.642654265427,0,0
-144.71974165996,-96.083191876361,17.447084708471,1374624.2255501,2162.0393333933,2831408.4467092,22.647084708471,0,0
-144.71974155366,-96.097545978948,17.451515151515,1374624.2255501,2162.0393333933,2831408.4467092,22.651515151515,0,0
-144.71974144736,-96.111900081535,17.455945594559,1374624.2255501,2162.0393333933,2831408.4467092,22.655945594559,0,0
-144.71974134106,-96.126254184122,17.460376037604,1374624.2255501,2162.0393333933,2831408.4467092,22.660376037604,0,0
-144.71974123476,-96.140608286709,17.464806480648,1374624.2255501,2162.0393333933,2831408.4467092,22.664806480648,0,0
-144.71974112846,-96.154962389296,17.469236923692,1374624.2255501,2162.0393333933,2831408.4467092,22.669236923692,0,0
-144.71974102216,-96.169316491883,17.473667366737,1374624.2255501,2162.0393333933,2831408.4467092,22.673667366737,0,0
-144.71974091586,-96.18367059447,17.478097809781,1374624.2255501,2162.0393333933,2831408.4467092,22.678097809781,0,0
-144.71974080956,-96.198024697057,17.482528252825,1374624.2255501,2162.0393333933,2831408.4467092,22.682528252825,0,0
-144.71974070326,-96.212378799644,17.48695869587,1374624.2255501,2162.0393333933,2831408.4467092,22.68695869587,0,0
-144.71974059696,-96.226732902231,17.491389138914,1374624.2255501,2162.0393333933,2831408.4467092,22.691389138914,0,0
-144.71974049066,-96.241087004818,17.495819581958,1374624.2255501,2162.0393333933,2831408.4467092,22.695819581958,0,0
-144.71974038436,-96.255441107404,17.500250025002,1374624.2255501,2162.0393333933,2831408.4467092,22.700250025002,0,0
-144.71974027806,-96.269795209991,17.504680468047,1374624.2255501,2162.0393333933,2831408.4467092,22.704680468047,0,0
-144.71974017176,-96.284149312578,17.509110911091,1374624.2255501,2162.0393333933,2831408.4467092,22.709110911091,0,0
-144.71974006545,-96.298503415165,17.513541354135,1374624.2255501,2162.0393333933,2831408.4467092,22.713541354135,0,0
-144.71973995915,-96.312857517752,17.51797179718,1374624.2255501,2162.0393333933,2831408.4467092,22.71797179718,0,0
-144.71973985285,-96.327211620339,17.522402240224,1374624.2255501,2162.0393333933,2831408.4467092,22.722402240224,0,0
-144.71973974655,-96.341565722926,17.526832683268,1374624.2255501,2162.0393333933,2831408.4467092,22.726832683268,0,0
-144.71973964025,-96.355919825513,17.531263126313,1374624.2255501,2162.0393333933,2831408.4467092,22.731263126313,0,0
-144.71973953395,-96.3702739281,17.535693569357,1374624.2255501,2162.0393333933,2831408.4467092,22.735693569357,0,0
-144.71973942765,-96.384628030687,17.540124012401,1374624.2255501,2162.0393333933,2831408.4467092,22.740124012401,0,0
-144.71973932135,-96.398982133274,17.544554455446,1374624.2255501,2162.0393333933,2831408.4467092,22.744554455446,0,0
-144.71973921505,-96.413336235861,17.54898489849,1374624.2255501,2162.0393333933,2831408.4467092,22.74898489849,0,0
-144.71973910875,-96.427690338448,17.553415341534,1374624.2255501,2162.0393333933,2831408.4467092,22.753415341534,0,0
-144.71973900245,-96.442044441035,17.557845784578,1374624.2255501,2162.0393333933,2831408.4467092,22.757845784578,0,0
-144.71973889615,-96.456398543622,17.562276227623,1374624.2255501,2162.0393333933,2831408.4467092,22.762276227623,0,0
-144.71973878985,-96.470752646208,17.566706670667,1374624.2255501,2162.0393333933,2831408.4467092,22.766706670667,0,0
-144.71973868355,-96.485106748795,17.571137113711,1374624.2255501,2162.0393333933,2831408.4467092,22.771137113711,0,0
-144.71973857725,-96.499460851382,17.575567556756,1374624.2255501,2162.0393333933,2831408.4467092,22.775567556756,0,0
-144.71973847095,-96.513814953969,17.5799979998,1374624.2255501,2162.0393333933,2831408.4467092,22.7799979998,0,0
-144.71973836465,-96.528169056556,17.584428442844,1374624.2255501,2162.0393333933,2831408.4467092,22.784428442844,0,0
-144.71973825835,-96.542523159143,17.588858885889,1374624.2255501,2162.0393333933,2831408.4467092,22.788858885889,0,0
-144.71973815205,-96.55687726173,17.593289328933,1374624.2255501,2162.0393333933,2831408.4467092,22.793289328933,0,0
-144.71973804575,-96.571231364317,17.597719771977,1374624.2255501,2162.0393333933,2831408.4467092,22.797719771977,0,0
-144.71973793945,-96.585585466904,17.602150215021,1374624.2255501,2162.0393333933,2831408.4467092,22.802150215021,0,0
-144.71973783315,-96.599939569491,17.606580658066,1374624.2255501,2162.0393333933,2831408.4467092,22.806580658066,0,0
-144.71973772685,-96.614293672078,17.61101110111,1374624.2255501,2162.0393333933,2831408.4467092,22.81101110111,0,0
-144.71973762055,-96.628647774665,17.615441544154,1374624.2255501,2162.0393333933,2831408.4467092,22.815441544154,0,0
-144.71973751425,-96.643001877252,17.619871987199,1374624.2255501,2162.0393333933,2831408.4467092,22.819871987199,0,0
-144.71973740794,-96.657355979839,17.624302430243,1374624.2255501,2162.0393333933,2831408.4467092,22.824302430243,0,0
-144.71973730164,-96.671710082426,17.628732873287,1374624.2255501,2162.0393333933,2831408.4467092,22.828732873287,0,0
-144.71973719534,-96.686064185012,17.633163316332,1374624.2255501,2162.0393333933,2831408.4467092,22.833163316332,0,0
-144.71973708904,-96.700418287599,17.637593759376,1374624.2255501,2162.0393333933,2831408.4467092,22.837593759376,0,0
-144.71973698274,-96.714772390186,17.64202420242,1374624.2255501,2162.0393333933,2831408.4467092,22.84202420242,0,0
-144.71973687644,-96.729126492773,17.646454645465,1374624.2255501,2162.0393333933,2831408.4467092,22.846454645465,0,0
-144.71973677014,-96.74348059536,17.650885088509,1374624.2255501,2162.0393333933,2831408.4467092,22.850885088509,0,0
-144.71973666384,-96.757834697947,17.655315531553,1374624.2255501,2162.0393333933,2831408.4467092,22.855315531553,0,0
-144.71973655754,-96.772188800534,17.659745974597,1374624.2255501,2162.0393333933,2831408.4467092,22.859745974597,0,0
-144.71973645124,-96.786542903121,17.664176417642,1374624.2255501,2162.0393333933,2831408.4467092,22.864176417642,0,0
-144.71973634494,-96.800897005708,17.668606860686,1374624.2255501,2162.0393333933,2831408.4467092,22.868606860686,0,0
-144.71973623864,-96.815251108295,17.67303730373,1374624.2255501,2162.0393333933,2831408.4467092,22.87303730373,0,0
-144.71973613234,-96.829605210882,17.677467746775,1374624.2255501,2162.0393333933,2831408.4467092,22.877467746775,0,0
-144.71973602604,-96.843959313469,17.681898189819,1374624.2255501,2162.0393333933,2831408.4467092,22.881898189819,0,0
-144.71973591974,-96.858313416056,17.686328632863,1374624.2255501,2162.0393333933,2831408.4467092,22.886328632863,0,0
-144.71973581344,-96.872667518643,17.690759075908,1374624.2255501,2162.0393333933,2831408.4467092,22.890759075908,0,0
-144.71973570714,-96.88702162123,17.695189518952,1374624.2255501,2162.0393333933,2831408.4467092,22.895189518952,0,0
-144.71973560084,-96.901375723816,17.699619961996,1374624.2255501,2162.0393333933,2831408.4467092,22.899619961996,0,0
-144.71973549454,-96.915729826403,17.704050405041,1374624.2255501,2162.0393333933,2831408.4467092,22.904050405041,0,0
-144.71973538824,-96.93008392899,17.708480848085,1374624.2255501,2162.0393333933,2831408.4467092,22.908480848085,0,0
-144.71973528194,-96.944438031577,17.712911291129,1374624.2255501,2162.0393333933,2831408.4467092,22.912911291129,0,0
-144.71973517564,-96.958792134164,17.717341734173,1374624.2255501,2162.0393333933,2831408.4467092,22.917341734173,0,0
-144.71973506934,-96.973146236751,17.721772177218,1374624.2255501,2162.0393333933,2831408.4467092,22.921772177218,0,0
-144.71973496304,-96.987500339338,17.726202620262,1374624.2255501,2162.0393333933,2831408.4467092,22.926202620262,0,0
-144.71973485674,-97.001854441925,17.730633063306,1374624.2255501,2162.0393333933,2831408.4467092,22.930633063306,0,0
-144.71973475044,-97.016208544512,17.735063506351,1374624.2255501,2162.0393333933,2831408.4467092,22.935063506351,0,0
-144.71973464413,-97.030562647099,17.739493949395,1374624.2255501,2162.0393333933,2831408.4467092,22.939493949395,0,0
-144.71973453783,-97.044916749686,17.743924392439,1374624.2255501,2162.0393333933,2831408.4467092,22.943924392439,0,0
-144.71973443153,-97.059270852273,17.748354835484,1374624.2255501,2162.0393333933,2831408.4467092,22.948354835484,0,0
-144.71973432523,-97.07362495486,17.752785278528,1374624.2255501,2162.0393333933,2831408.4467092,22.952785278528,0,0
-144.71973421893,-97.087979057447,17.757215721572,1374624.2255501,2162.0393333933,2831408.4467092,22.957215721572,0,0
-144.71973411263,-97.102333160033,17.761646164616,1374624.2255501,2162.0393333933,2831408.4467092,22.961646164616,0,0
-144.71973400633,-97.11668726262,17.766076607661,1374624.2255501,2162.0393333933,2831408.4467092,22.966076607661,0,0
-144.71973390003,-97.131041365207,17.770507050705,1374624.2255501,2162.0393333933,2831408.4467092,22.970507050705,0,0
-144.71973379373,-97.145395467794,17.774937493749,1374624.2255501,2162.0393333933,2831408.4467092,22.974937493749,0,0
-144.71973368743,-97.159749570381,17.779367936794,1374624.2255501,2162.0393333933,2831408.4467092,22.979367936794,0,0
-144.71973358113,-97.174103672968,17.783798379838,1374624.2255501,2162.0393333933,2831408.4467092,22.983798379838,0,0
-144.71973347483,-97.188457775555,17.788228822882,1374624.2255501,2162.0393333933,2831408.4467092,22.988228822882,0,0
-144.71973336853,-97.202811878142,17.792659265927,1374624.2255501,2162.0393333933,2831408.4467092,22.992659265927,0,0
-144.71973326223,-97.217165980729,17.797089708971,1374624.2255501,2162.0393333933,2831408.4467092,22.997089708971,0,0
-144.71973315593,-97.231520083316,17.801520152015,1374624.2255501,2162.0393333933,2831408.4467092,23.001520152015,0,0
-144.71973304963,-97.245874185903,17.80595059506,1374624.2255501,2162.0393333933,2831408.4467092,23.00595059506,0,0
-144.71973294333,-97.26022828849,17.810381038104,1374624.2255501,2162.0393333933,2831408.4467092,23.010381038104,0,0
-144.71973283703,-97.274582391077,17.814811481148,1374624.2255501,2162.0393333933,2831408.4467092,23.014811481148,0,0
-144.71973273073,-97.288936493664,17.819241924192,1374624.2255501,2162.0393333933,2831408.4467092,23.019241924192,0,0
-144.71973262443,-97.303290596251,17.823672367237,1374624.2255501,2162.0393333933,2831408.4467092,23.023672367237,0,0
-144.71973251813,-97.317644698837,17.828102810281,1374624.2255501,2162.0393333933,2831408.4467092,23.028102810281,0,0
-144.71973241183,-97.331998801424,17.832533253325,1374624.2255501,2162.0393333933,2831408.4467092,23.032533253325,0,0
-144.71973230553,-97.346352904011,17.83696369637,1374624.2255501,2162.0393333933,2831408.4467092,23.03696369637,0,0
-144.71973219923,-97.360707006598,17.841394139414,1374624.2255501,2162.0393333933,2831408.4467092,23.041394139414,0,0
-144.71973209293,-97.375061109185,17.845824582458,1374624.2255501,2162.0393333933,2831408.4467092,23.045824582458,0,0
-144.71973198662,-97.389415211772,17.850255025503,1374624.2255501,2162.0393333933,2831408.4467092,23.050255025503,0,0
-144.71973188032,-97.403769314359,17.854685468547,1374624.2255501,2162.0393333933,2831408.4467092,23.054685468547,0,0
-144.71973177402,-97.418123416946,17.859115911591,1374624.2255501,2162.0393333933,2831408.4467092,23.059115911591,0,0
-144.71973166772,-97.432477519533,17.863546354635,1374624.2255501,2162.0393333933,2831408.4467092,23.063546354635,0,0
-144.71973156142,-97.44683162212,17.86797679768,1374624.2255501,2162.0393333933,2831408.4467092,23.06797679768,0,0
-144.71973145512,-97.461185724707,17.872407240724,1374624.2255501,2162.0393333933,2831408.4467092,23.072407240724,0,0
-144.71973134882,-97.475539827294,17.876837683768,1374624.2255501,2162.0393333933,2831408.4467092,23.076837683768,0,0
-144.71973124252,-97.489893929881,17.881268126813,1374624.2255501,2162.0393333933,2831408.4467092,23.081268126813,0,0
-144.71973113622,-97.504248032468,17.885698569857,1374624.2255501,2162.0393333933,2831408.4467092,23.085698569857,0,0
-144.71973102992,-97.518602135054,17.890129012901,1374624.2255501,2162.0393333933,2831408.4467092,23.090129012901,0,0
-144.71973092362,-97.532956237641,17.894559455946,1374624.2255501,2162.0393333933,2831408.4467092,23.094559455946,0,0
-144.71973081732,-97.547310340228,17.89898989899,1374624.2255501,2162.0393333933,2831408.4467092,23.09898989899,0,0
-144.71973071102,-97.561664442815,17.903420342034,1374624.2255501,2162.0393333933,2831408.4467092,23.103420342034,0,0
-144.71973060472,-97.576018545402,17.907850785079,1374624.2255501,2162.0393333933,2831408.4467092,23.107850785079,0,0
-144.71973049842,-97.590372647989,17.912281228123,1374624.2255501,2162.0393333933,2831408.4467092,23.112281228123,0,0
-144.71973039212,-97.604726750576,17.916711671167,1374624.2255501,2162.0393333933,2831408.4467092,23.116711671167,0,0
-144.71973028582,-97.619080853163,17.921142114211,1374624.2255501,2162.0393333933,2831408.4467092,23.121142114211,0,0
-144.71973017952,-97.63343495575,17.925572557256,1374624.2255501,2162.0393333933,2831408.4467092,23.125572557256,0,0
-144.71973007322,-97.647789058337,17.9300030003,1374624.2255501,2162.0393333933,2831408.4467092,23.1300030003,0,0
-144.71972996692,-97.662143160924,17.934433443344,1374624.2255501,2162.0393333933,2831408.4467092,23.134433443344,0,0
-144.71972986062,-97.676497263511,17.938863886389,1374624.2255501,2162.0393333933,2831408.4467092,23.138863886389,0,0
-144.71972975432,-97.690851366098,17.943294329433,1374624.2255501,2162.0393333933,2831408.4467092,23.143294329433,0,0
-144.71972964802,-97.705205468685,17.947724772477,1374624.2255501,2162.0393333933,2831408.4467092,23.147724772477,0,0
-144.71972954172,-97.719559571272,17.952155215522,1374624.2255501,2162.0393333933,2831408.4467092,23.152155215522,0,0
-144.71972943542,-97.733913673858,17.956585658566,1374624.2255501,2162.0393333933,2831408.4467092,23.156585658566,0,0
-144.71972932911,-97.748267776445,17.96101610161,1374624.2255501,2162.0393333933,2831408.4467092,23.16101610161,0,0
-144.71972922281,-97.762621879032,17.965446544654,1374624.2255501,2162.0393333933,2831408.4467092,23.165446544654,0,0
-144.71972911651,-97.776975981619,17.969876987699,1374624.2255501,2162.0393333933,2831408.4467092,23.169876987699,0,0
-144.71972901021,-97.791330084206,17.974307430743,1374624.2255501,2162.0393333933,2831408.4467092,23.174307430743,0,0
-144.71972890391,-97.805684186793,17.978737873787,1374624.2255501,2162.0393333933,2831408.4467092,23.178737873787,0,0
-144.71972879761,-97.82003828938,17.983168316832,1374624.2255501,2162.0393333933,2831408.4467092,23.183168316832,0,0
-144.71972869131,-97.834392391967,17.987598759876,1374624.2255501,2162.0393333933,2831408.4467092,23.187598759876,0,0
-144.71972858501,-97.848746494554,17.99202920292,1374624.2255501,2162.0393333933,2831408.4467092,23.19202920292,0,0
-144.71972847871,-97.863100597141,17.996459645965,1374624.2255501,2162.0393333933,2831408.4467092,23.196459645965,0,0
-144.71972837241,-97.877454699728,18.000890089009,1374624.2255501,2162.0393333933,2831408.4467092,23.200890089009,0,0
-144.71972826611,-97.891808802315,18.005320532053,1374624.2255501,2162.0393333933,2831408.4467092,23.205320532053,0,0
-144.71972815981,-97.906162904902,18.009750975098,1374624.2255501,2162.0393333933,2831408.4467092,23.209750975098,0,0
-144.71972805351,-97.920517007489,18.014181418142,1374624.2255501,2162.0393333933,2831408.4467092,23.214181418142,0,0
-144.71972794721,-97.934871110076,18.018611861186,1374624.2255501,2162.0393333933,2831408.4467092,23.218611861186,0,0
-144.71972784091,-97.949225212662,18.02304230423,1374624.2255501,2162.0393333933,2831408.4467092,23.22304230423,0,0
-144.71972773461,-97.963579315249,18.027472747275,1374624.2255501,2162.0393333933,2831408.4467092,23.227472747275,0,0
-144.71972762831,-97.977933417836,18.031903190319,1374624.2255501,2162.0393333933,2831408.4467092,23.231903190319,0,0
-144.71972752201,-97.992287520423,18.036333633363,1374624.2255501,2162.0393333933,2831408.4467092,23.236333633363,0,0
-144.71972741571,-98.00664162301,18.040764076408,1374624.2255501,2162.0393333933,2831408.4467092,23.240764076408,0,0
-144.71972730941,-98.020995725597,18.045194519452,1374624.2255501,2162.0393333933,2831408.4467092,23.245194519452,0,0
-144.71972720311,-98.035349828184,18.049624962496,1374624.2255501,2162.0393333933,2831408.4467092,23.249624962496,0,0
-144.71972709681,-98.049703930771,18.054055405541,1374624.2255501,2162.0393333933,2831408.4467092,23.254055405541,0,0
-144.71972699051,-98.064058033358,18.058485848585,1374624.2255501,2162.0393333933,2831408.4467092,23.258485848585,0,0
-144.71972688421,-98.078412135945,18.062916291629,1374624.2255501,2162.0393333933,2831408.4467092,23.262916291629,0,0
-144.71972677791,-98.092766238532,18.067346734673,1374624.2255501,2162.0393333933,2831408.4467092,23.267346734673,0,0
-144.71972667161,-98.107120341119,18.071777177718,1374624.2255501,2162.0393333933,2831408.4467092,23.271777177718,0,0
-144.7197265653,-98.121474443706,18.076207620762,1374624.2255501,2162.0393333933,2831408.4467092,23.276207620762,0,0
-144.719726459,-98.135828546293,18.080638063806,1374624.2255501,2162.0393333933,2831408.4467092,23.280638063806,0,0
-144.7197263527,-98.150182648879,18.085068506851,1374624.2255501,2162.0393333933,2831408.4467092,23.285068506851,0,0
-144.7197262464,-98.164536751466,18.089498949895,1374624.2255501,2162.0393333933,2831408.4467092,23.289498949895,0,0
-144.7197261401,-98.178890854053,18.093929392939,1374624.2255501,2162.0393333933,2831408.4467092,23.293929392939,0,0
-144.7197260338,-98.19324495664,18.098359835984,1374624.2255501,2162.0393333933,2831408.4467092,23.298359835984,0,0
-144.7197259275,-98.207599059227,18.102790279028,1374624.2255501,2162.0393333933,2831408.4467092,23.302790279028,0,0
-144.7197258212,-98.221953161814,18.107220722072,1374624.2255501,2162.0393333933,2831408.4467092,23.307220722072,0,0
-144.7197257149,-98.236307264401,18.111651165117,1374624.2255501,2162.0393333933,2831408.4467092,23.311651165117,0,0
-144.7197256086,-98.250661366988,18.116081608161,1374624.2255501,2162.0393333933,2831408.4467092,23.316081608161,0,0
-144.7197255023,-98.265015469575,18.120512051205,1374624.2255501,2162.0393333933,2831408.4467092,23.320512051205,0,0
-144.719725396,-98.279369572162,18.124942494249,1374624.2255501,2162.0393333933,2831408.4467092,23.324942494249,0,0
-144.7197252897,-98.293723674749,18.129372937294,1374624.2255501,2162.0393333933,2831408.4467092,23.329372937294,0,0
-144.7197251834,-98.308077777336,18.133803380338,1374624.2255501,2162.0393333933,2831408.4467092,23.333803380338,0,0
-144.7197250771,-98.322431879923,18.138233823382,1374624.2255501,2162.0393333933,2831408.4467092,23.338233823382,0,0
-144.7197249708,-98.33678598251,18.142664266427,1374624.2255501,2162.0393333933,2831408.4467092,23.342664266427,0,0
-144.7197248645,-98.351140085097,18.147094709471,1374624.2255501,2162.0393333933,2831408.4467092,23.347094709471,0,0
-144.7197247582,-98.365494187683,18.151525152515,1374624.2255501,2162.0393333933,2831408.4467092,23.351525152515,0,0
-144.7197246519,-98.37984829027,18.15595559556,1374624.2255501,2162.0393333933,2831408.4467092,23.35595559556,0,0
-144.7197245456,-98.394202392857,18.160386038604,1374624.2255501,2162.0393333933,2831408.4467092,23.360386038604,0,0
-144.7197244393,-98.408556495444,18.164816481648,1374624.2255501,2162.0393333933,2831408.4467092,23.364816481648,0,0
-144.719724333,-98.422910598031,18.169246924692,1374624.2255501,2162.0393333933,2831408.4467092,23.369246924692,0,0
-144.7197242267,-98.437264700618,18.173677367737,1374624.2255501,2162.0393333933,2831408.4467092,23.373677367737,0,0
-144.7197241204,-98.451618803205,18.178107810781,1374624.2255501,2162.0393333933,2831408.4467092,23.378107810781,0,0
-144.7197240141,-98.465972905792,18.182538253825,1374624.2255501,2162.0393333933,2831408.4467092,23.382538253825,0,0
-144.71972390779,-98.480327008379,18.18696869687,1374624.2255501,2162.0393333933,2831408.4467092,23.38696869687,0,0
-144.71972380149,-98.494681110966,18.191399139914,1374624.2255501,2162.0393333933,2831408.4467092,23.391399139914,0,0
-144.71972369519,-98.509035213553,18.195829582958,1374624.2255501,2162.0393333933,2831408.4467092,23.395829582958,0,0
-144.71972358889,-98.52338931614,18.200260026003,1374624.2255501,2162.0393333933,2831408.4467092,23.400260026003,0,0
-144.71972348259,-98.537743418727,18.204690469047,1374624.2255501,2162.0393333933,2831408.4467092,23.404690469047,0,0
-144.71972337629,-98.552097521314,18.209120912091,1374624.2255501,2162.0393333933,2831408.4467092,23.409120912091,0,0
-144.71972326999,-98.5664516239,18.213551355136,1374624.2255501,2162.0393333933,2831408.4467092,23.413551355136,0,0
-144.71972316369,-98.580805726487,18.21798179818,1374624.2255501,2162.0393333933,2831408.4467092,23.41798179818,0,0
-144.71972305739,-98.595159829074,18.222412241224,1374624.2255501,2162.0393333933,2831408.4467092,23.422412241224,0,0
-144.71972295109,-98.609513931661,18.226842684268,1374624.2255501,2162.0393333933,2831408.4467092,23.426842684268,0,0
-144.71972284479,-98.623868034248,18.231273127313,1374624.2255501,2162.0393333933,2831408.4467092,23.431273127313,0,0
-144.71972273849,-98.638222136835,18.235703570357,1374624.2255501,2162.0393333933,2831408.4467092,23.435703570357,0,0
-144.71972263219,-98.652576239422,18.240134013401,1374624.2255501,2162.0393333933,2831408.4467092,23.440134013401,0,0
-144.71972252589,-98.666930342009,18.244564456446,1374624.2255501,2162.0393333933,2831408.4467092,23.444564456446,0,0
-144.71972241959,-98.681284444596,18.24899489949,1374624.2255501,2162.0393333933,2831408.4467092,23.44899489949,0,0
-144.71972231329,-98.695638547183,18.253425342534,1374624.2255501,2162.0393333933,2831408.4467092,23.453425342534,0,0
-144.71972220699,-98.70999264977,18.257855785579,1374624.2255501,2162.0393333933,2831408.4467092,23.457855785579,0,0
-144.71972210069,-98.724346752357,18.262286228623,1374624.2255501,2162.0393333933,2831408.4467092,23.462286228623,0,0
-144.71972199439,-98.738700854944,18.266716671667,1374624.2255501,2162.0393333933,2831408.4467092,23.466716671667,0,0
-144.71972188809,-98.753054957531,18.271147114711,1374624.2255501,2162.0393333933,2831408.4467092,23.471147114711,0,0
-144.71972178179,-98.767409060118,18.275577557756,1374624.2255501,2162.0393333933,2831408.4467092,23.475577557756,0,0
-144.71972167549,-98.781763162704,18.2800080008,1374624.2255501,2162.0393333933,2831408.4467092,23.4800080008,0,0
-144.71972156919,-98.796117265291,18.284438443844,1374624.2255501,2162.0393333933,2831408.4467092,23.484438443844,0,0
-144.71972146289,-98.810471367878,18.288868886889,1374624.2255501,2162.0393333933,2831408.4467092,23.488868886889,0,0
-144.71972135659,-98.824825470465,18.293299329933,1374624.2255501,2162.0393333933,2831408.4467092,23.493299329933,0,0
-144.71972125029,-98.839179573052,18.297729772977,1374624.2255501,2162.0393333933,2831408.4467092,23.497729772977,0,0
-144.71972114398,-98.853533675639,18.302160216022,1374624.2255501,2162.0393333933,2831408.4467092,23.502160216022,0,0
-144.71972103768,-98.867887778226,18.306590659066,1374624.2255501,2162.0393333933,2831408.4467092,23.506590659066,0,0
-144.71972093138,-98.882241880813,18.31102110211,1374624.2255501,2162.0393333933,2831408.4467092,23.51102110211,0,0
-144.71972082508,-98.8965959834,18.315451545155,1374624.2255501,2162.0393333933,2831408.4467092,23.515451545155,0,0
-144.71972071878,-98.910950085987,18.319881988199,1374624.2255501,2162.0393333933,2831408.4467092,23.519881988199,0,0
-144.71972061248,-98.925304188574,18.324312431243,1374624.2255501,2162.0393333933,2831408.4467092,23.524312431243,0,0
-144.71972050609,-98.939658291347,18.328742874287,1376141.8989966,736.60511011441,2822550.2803658,23.528742874287,0,0
-144.71972039943,-98.954012394624,18.333173317332,1376141.8989966,736.60511011441,2822550.2803658,23.533173317332,0,0
-144.71972029277,-98.968366497901,18.337603760376,1376141.8989966,736.60511011441,2822550.2803658,23.537603760376,0,0
-144.71972018611,-98.982720601179,18.34203420342,1376141.8989966,736.60511011441,2822550.2803658,23.54203420342,0,0
-144.71972007946,-98.997074704456,18.346464646465,1376141.8989966,736.60511011441,2822550.2803658,23.546464646465,0,0
-144.7197199728,-99.011428807733,18.350895089509,1376141.8989966,736.60511011441,2822550.2803658,23.550895089509,0,0
-144.71971986614,-99.025782911011,18.355325532553,1376141.8989966,736.60511011441,2822550.2803658,23.555325532553,0,0
-144.71971975948,-99.040137014288,18.359755975598,1376141.8989966,736.60511011441,2822550.2803658,23.559755975598,0,0
-144.71971965283,-99.054491117566,18.364186418642,1376141.8989966,736.60511011441,2822550.2803658,23.564186418642,0,0
-144.71971954617,-99.068845220843,18.368616861686,1376141.8989966,736.60511011441,2822550.2803658,23.568616861686,0,0
-144.71971943951,-99.08319932412,18.37304730473,1376141.8989966,736.60511011441,2822550.2803658,23.57304730473,0,0
-144.71971933285,-99.097553427398,18.377477747775,1376141.8989966,736.60511011441,2822550.2803658,23.577477747775,0,0
-144.7197192262,-99.111907530675,18.381908190819,1376141.8989966,736.60511011441,2822550.2803658,23.581908190819,0,0
-144.71971911954,-99.126261633952,18.386338633863,1376141.8989966,736.60511011441,2822550.2803658,23.586338633863,0,0
-144.71971901288,-99.14061573723,18.390769076908,1376141.8989966,736.60511011441,2822550.2803658,23.590769076908,0,0
-144.71971890622,-99.154969840507,18.395199519952,1376141.8989966,736.60511011441,2822550.2803658,23.595199519952,0,0
-144.71971879957,-99.169323943785,18.399629962996,1376141.8989966,736.60511011441,2822550.2803658,23.599629962996,0,0
-144.71971869291,-99.183678047062,18.404060406041,1376141.8989966,736.60511011441,2822550.2803658,23.604060406041,0,0
-144.71971858625,-99.198032150339,18.408490849085,1376141.8989966,736.60511011441,2822550.2803658,23.608490849085,0,0
-144.71971847959,-99.212386253617,18.412921292129,1376141.8989966,736.60511011441,2822550.2803658,23.612921292129,0,0
-144.71971837294,-99.226740356894,18.417351735174,1376141.8989966,736.60511011441,2822550.2803658,23.617351735174,0,0
-144.71971826628,-99.241094460171,18.421782178218,1376141.8989966,736.60511011441,2822550.2803658,23.621782178218,0,0
-144.71971815962,-99.255448563449,18.426212621262,1376141.8989966,736.60511011441,2822550.2803658,23.626212621262,0,0
-144.71971805296,-99.269802666726,18.430643064306,1376141.8989966,736.60511011441,2822550.2803658,23.630643064306,0,0
-144.71971794631,-99.284156770004,18.435073507351,1376141.8989966,736.60511011441,2822550.2803658,23.635073507351,0,0
-144.71971783965,-99.298510873281,18.439503950395,1376141.8989966,736.60511011441,2822550.2803658,23.639503950395,0,0
-144.71971773299,-99.312864976558,18.443934393439,1376141.8989966,736.60511011441,2822550.2803658,23.643934393439,0,0
-144.7197176267,-99.327219079532,18.448364836484,1370784.5795942,2306.7231218988,2820530.0562285,23.648364836484,0,0
-144.71971752042,-99.341573182498,18.452795279528,1370784.5795942,2306.7231218988,2820530.0562285,23.652795279528,0,0
-144.71971741413,-99.355927285463,18.457225722572,1370784.5795942,2306.7231218988,2820530.0562285,23.657225722572,0,0
-144.71971730785,-99.370281388428,18.461656165617,1370784.5795942,2306.7231218988,2820530.0562285,23.661656165617,0,0
-144.71971720157,-99.384635491394,18.466086608661,1370784.5795942,2306.7231218988,2820530.0562285,23.666086608661,0,0
-144.71971709528,-99.398989594359,18.470517051705,1370784.5795942,2306.7231218988,2820530.0562285,23.670517051705,0,0
-144.719716989,-99.413343697325,18.474947494749,1370784.5795942,2306.7231218988,2820530.0562285,23.674947494749,0,0
-144.71971688272,-99.42769780029,18.479377937794,1370784.5795942,2306.7231218988,2820530.0562285,23.679377937794,0,0
-144.71971677643,-99.442051903255,18.483808380838,1370784.5795942,2306.7231218988,2820530.0562285,23.683808380838,0,0
-144.71971667015,-99.456406006221,18.488238823882,1370784.5795942,2306.7231218988,2820530.0562285,23.688238823882,0,0
-144.71971656387,-99.470760109186,18.492669266927,1370784.5795942,2306.7231218988,2820530.0562285,23.692669266927,0,0
-144.71971645758,-99.485114212152,18.497099709971,1370784.5795942,2306.7231218988,2820530.0562285,23.697099709971,0,0
-144.7197163513,-99.499468315117,18.501530153015,1370784.5795942,2306.7231218988,2820530.0562285,23.701530153015,0,0
-144.71971624502,-99.513822418082,18.50596059606,1370784.5795942,2306.7231218988,2820530.0562285,23.70596059606,0,0
-144.71971613873,-99.528176521048,18.510391039104,1370784.5795942,2306.7231218988,2820530.0562285,23.710391039104,0,0
-144.71971603245,-99.542530624013,18.514821482148,1370784.5795942,2306.7231218988,2820530.0562285,23.714821482148,0,0
-144.71971592617,-99.556884726978,18.519251925193,1370784.5795942,2306.7231218988,2820530.0562285,23.719251925193,0,0
-144.71971581988,-99.571238829944,18.523682368237,1370784.5795942,2306.7231218988,2820530.0562285,23.723682368237,0,0
-144.7197157136,-99.585592932909,18.528112811281,1370784.5795942,2306.7231218988,2820530.0562285,23.728112811281,0,0
-144.71971560732,-99.599947035875,18.532543254325,1370784.5795942,2306.7231218988,2820530.0562285,23.732543254325,0,0
-144.71971550103,-99.61430113884,18.53697369737,1370784.5795942,2306.7231218988,2820530.0562285,23.73697369737,0,0
-144.71971539475,-99.628655241805,18.541404140414,1370784.5795942,2306.7231218988,2820530.0562285,23.741404140414,0,0
-144.71971528847,-99.643009344771,18.545834583458,1370784.5795942,2306.7231218988,2820530.0562285,23.745834583458,0,0
-144.71971518218,-99.657363447736,18.550265026503,1370784.5795942,2306.7231218988,2820530.0562285,23.750265026503,0,0
-144.7197150759,-99.671717550702,18.554695469547,1370784.5795942,2306.7231218988,2820530.0562285,23.754695469547,0,0
-144.71971496962,-99.686071653667,18.559125912591,1370784.5795942,2306.7231218988,2820530.0562285,23.759125912591,0,0
-144.71971486333,-99.700425756632,18.563556355636,1370784.5795942,2306.7231218988,2820530.0562285,23.763556355636,0,0
-144.71971475705,-99.714779859598,18.56798679868,1370784.5795942,2306.7231218988,2820530.0562285,23.76798679868,0,0
-144.71971465077,-99.729133962563,18.572417241724,1370784.5795942,2306.7231218988,2820530.0562285,23.772417241724,0,0
-144.71971454448,-99.743488065529,18.576847684768,1370784.5795942,2306.7231218988,2820530.0562285,23.776847684768,0,0
-144.7197144382,-99.757842168494,18.581278127813,1370784.5795942,2306.7231218988,2820530.0562285,23.781278127813,0,0
-144.71971433192,-99.772196271459,18.585708570857,1370784.5795942,2306.7231218988,2820530.0562285,23.785708570857,0,0
-144.71971422563,-99.786550374425,18.590139013901,1370784.5795942,2306.7231218988,2820530.0562285,23.790139013901,0,0
-144.71971411935,-99.80090447739,18.594569456946,1370784.5795942,2306.7231218988,2820530.0562285,23.794569456946,0,0
-144.71971401307,-99.815258580356,18.59899989999,1370784.5795942,2306.7231218988,2820530.0562285,23.79899989999,0,0
-144.71971390678,-99.829612683321,18.603430343034,1370784.5795942,2306.7231218988,2820530.0562285,23.803430343034,0,0
-144.7197138005,-99.843966786286,18.607860786079,1370784.5795942,2306.7231218988,2820530.0562285,23.807860786079,0,0
-144.71971369422,-99.858320889252,18.612291229123,1370784.5795942,2306.7231218988,2820530.0562285,23.812291229123,0,0
-144.71971358793,-99.872674992217,18.616721672167,1370784.5795942,2306.7231218988,2820530.0562285,23.816721672167,0,0
-144.71971348165,-99.887029095183,18.621152115212,1370784.5795942,2306.7231218988,2820530.0562285,23.821152115212,0,0
-144.71971337537,-99.901383198148,18.625582558256,1370784.5795942,2306.7231218988,2820530.0562285,23.825582558256,0,0
-144.71971326908,-99.915737301113,18.6300130013,1370784.5795942,2306.7231218988,2820530.0562285,23.8300130013,0,0
-144.7197131628,-99.930091404079,18.634443444344,1370784.5795942,2306.7231218988,2820530.0562285,23.834443444344,0,0
-144.71971305652,-99.944445507044,18.638873887389,1370784.5795942,2306.7231218988,2820530.0562285,23.838873887389,0,0
-144.71971295023,-99.95879961001,18.643304330433,1370784.5795942,2306.7231218988,2820530.0562285,23.843304330433,0,0
-144.71971284395,-99.973153712975,18.647734773477,1370784.5795942,2306.7231218988,2820530.0562285,23.847734773477,0,0
-144.71971273767,-99.98750781594,18.652165216522,1370784.5795942,2306.7231218988,2820530.0562285,23.852165216522,0,0
-144.71971263138,-100.00186191891,18.656595659566,1370784.5795942,2306.7231218988,2820530.0562285,23.856595659566,0,0
-144.7197125251,-100.01621602187,18.66102610261,1370784.5795942,2306.7231218988,2820530.0562285,23.86102610261,0,0
-144.71971241881,-100.03057012484,18.665456545655,1370784.5795942,2306.7231218988,2820530.0562285,23.865456545655,0,0
-144.71971231253,-100.0449242278,18.669886988699,1370784.5795942,2306.7231218988,2820530.0562285,23.869886988699,0,0
-144.71971220625,-100.05927833077,18.674317431743,1370784.5795942,2306.7231218988,2820530.0562285,23.874317431743,0,0
-144.71971209996,-100.07363243373,18.678747874787,1370784.5795942,2306.7231218988,2820530.0562285,23.878747874787,0,0
-144.71971199368,-100.0879865367,18.683178317832,1370784.5795942,2306.7231218988,2820530.0562285,23.883178317832,0,0
-144.7197118874,-100.10234063966,18.687608760876,1370784.5795942,2306.7231218988,2820530.0562285,23.887608760876,0,0
-144.71971178111,-100.11669474263,18.69203920392,1370784.5795942,2306.7231218988,2820530.0562285,23.89203920392,0,0
-144.71971167483,-100.13104884559,18.696469646965,1370784.5795942,2306.7231218988,2820530.0562285,23.896469646965,0,0
-144.71971156855,-100.14540294856,18.700900090009,1370784.5795942,2306.7231218988,2820530.0562285,23.900900090009,0,0
-144.71971146226,-100.15975705153,18.705330533053,1370784.5795942,2306.7231218988,2820530.0562285,23.905330533053,0,0
-144.71971135598,-100.17411115449,18.709760976098,1370784.5795942,2306.7231218988,2820530.0562285,23.909760976098,0,0
-144.7197112497,-100.18846525746,18.714191419142,1370784.5795942,2306.7231218988,2820530.0562285,23.914191419142,0,0
-144.71971114341,-100.20281936042,18.718621862186,1370784.5795942,2306.7231218988,2820530.0562285,23.918621862186,0,0
-144.71971103713,-100.21717346339,18.723052305231,1370784.5795942,2306.7231218988,2820530.0562285,23.923052305231,0,0
-144.71971093085,-100.23152756635,18.727482748275,1370784.5795942,2306.7231218988,2820530.0562285,23.927482748275,0,0
-144.71971082456,-100.24588166932,18.731913191319,1370784.5795942,2306.7231218988,2820530.0562285,23.931913191319,0,0
-144.71971071828,-100.26023577228,18.736343634363,1370784.5795942,2306.7231218988,2820530.0562285,23.936343634363,0,0
-144.719710612,-100.27458987525,18.740774077408,1370784.5795942,2306.7231218988,2820530.0562285,23.940774077408,0,0
-144.71971050571,-100.28894397821,18.745204520452,1370784.5795942,2306.7231218988,2820530.0562285,23.945204520452,0,0
-144.71971039943,-100.30329808118,18.749634963496,1370784.5795942,2306.7231218988,2820530.0562285,23.949634963496,0,0
-144.71971029315,-100.31765218414,18.754065406541,1370784.5795942,2306.7231218988,2820530.0562285,23.954065406541,0,0
-144.71971018686,-100.33200628711,18.758495849585,1370784.5795942,2306.7231218988,2820530.0562285,23.958495849585,0,0
-144.71971008058,-100.34636039008,18.762926292629,1370784.5795942,2306.7231218988,2820530.0562285,23.962926292629,0,0
-144.7197099743,-100.36071449304,18.767356735674,1370784.5795942,2306.7231218988,2820530.0562285,23.967356735674,0,0
-144.7197098679,-100.37506859596,18.771787178718,1374122.2798125,-3125.0090024514,2815497.2827132,23.971787178718,0,0
-144.71970976121,-100.38942269878,18.776217621762,1374122.2798125,-3125.0090024514,2815497.2827132,23.976217621762,0,0
-144.71970965453,-100.40377680159,18.780648064806,1374122.2798125,-3125.0090024514,2815497.2827132,23.980648064806,0,0
-144.71970954785,-100.41813090441,18.785078507851,1374122.2798125,-3125.0090024514,2815497.2827132,23.985078507851,0,0
-144.71970944116,-100.43248500722,18.789508950895,1374122.2798125,-3125.0090024514,2815497.2827132,23.989508950895,0,0
-144.71970933448,-100.44683911004,18.793939393939,1374122.2798125,-3125.0090024514,2815497.2827132,23.993939393939,0,0
-144.71970922779,-100.46119321285,18.798369836984,1374122.2798125,-3125.0090024514,2815497.2827132,23.998369836984,0,0
-144.71970912111,-100.47554731567,18.802800280028,1374122.2798125,-3125.0090024514,2815497.2827132,24.002800280028,0,0
-144.71970901443,-100.48990141848,18.807230723072,1374122.2798125,-3125.0090024514,2815497.2827132,24.007230723072,0,0
-144.71970890774,-100.5042555213,18.811661166117,1374122.2798125,-3125.0090024514,2815497.2827132,24.011661166117,0,0
-144.71970880106,-100.51860962411,18.816091609161,1374122.2798125,-3125.0090024514,2815497.2827132,24.016091609161,0,0
-144.71970869437,-100.53296372693,18.820522052205,1374122.2798125,-3125.0090024514,2815497.2827132,24.020522052205,0,0
-144.71970858769,-100.54731782974,18.82495249525,1374122.2798125,-3125.0090024514,2815497.2827132,24.02495249525,0,0
-144.71970848101,-100.56167193256,18.829382938294,1374122.2798125,-3125.0090024514,2815497.2827132,24.029382938294,0,0
-144.71970837432,-100.57602603537,18.833813381338,1374122.2798125,-3125.0090024514,2815497.2827132,24.033813381338,0,0
-144.71970826764,-100.59038013819,18.838243824382,1374122.2798125,-3125.0090024514,2815497.2827132,24.038243824382,0,0
-144.71970816095,-100.604734241,18.842674267427,1374122.2798125,-3125.0090024514,2815497.2827132,24.042674267427,0,0
-144.71970805427,-100.61908834382,18.847104710471,1374122.2798125,-3125.0090024514,2815497.2827132,24.047104710471,0,0
-144.71970794759,-100.63344244663,18.851535153515,1374122.2798125,-3125.0090024514,2815497.2827132,24.051535153515,0,0
-144.7197078409,-100.64779654945,18.85596559656,1374122.2798125,-3125.0090024514,2815497.2827132,24.05596559656,0,0
-144.71970773422,-100.66215065226,18.860396039604,1374122.2798125,-3125.0090024514,2815497.2827132,24.060396039604,0,0
-144.71970762753,-100.67650475508,18.864826482648,1374122.2798125,-3125.0090024514,2815497.2827132,24.064826482648,0,0
-144.71970752085,-100.69085885789,18.869256925693,1374122.2798125,-3125.0090024514,2815497.2827132,24.069256925693,0,0
-144.71970741417,-100.70521296071,18.873687368737,1374122.2798125,-3125.0090024514,2815497.2827132,24.073687368737,0,0
-144.71970730748,-100.71956706352,18.878117811781,1374122.2798125,-3125.0090024514,2815497.2827132,24.078117811781,0,0
-144.7197072008,-100.73392116634,18.882548254825,1374122.2798125,-3125.0090024514,2815497.2827132,24.082548254825,0,0
-144.71970709412,-100.74827526915,18.88697869787,1374122.2798125,-3125.0090024514,2815497.2827132,24.08697869787,0,0
-144.71970698743,-100.76262937197,18.891409140914,1374122.2798125,-3125.0090024514,2815497.2827132,24.091409140914,0,0
-144.71970688075,-100.77698347478,18.895839583958,1374122.2798125,-3125.0090024514,2815497.2827132,24.095839583958,0,0
-144.71970677406,-100.7913375776,18.900270027003,1374122.2798125,-3125.0090024514,2815497.2827132,24.100270027003,0,0
-144.71970666738,-100.80569168041,18.904700470047,1374122.2798125,-3125.0090024514,2815497.2827132,24.104700470047,0,0
-144.7197065607,-100.82004578323,18.909130913091,1374122.2798125,-3125.0090024514,2815497.2827132,24.109130913091,0,0
-144.71970645401,-100.83439988604,18.913561356136,1374122.2798125,-3125.0090024514,2815497.2827132,24.113561356136,0,0
-144.71970634733,-100.84875398886,18.91799179918,1374122.2798125,-3125.0090024514,2815497.2827132,24.11799179918,0,0
-144.71970624064,-100.86310809167,18.922422242224,1374122.2798125,-3125.0090024514,2815497.2827132,24.122422242224,0,0
-144.71970613396,-100.87746219449,18.926852685269,1374122.2798125,-3125.0090024514,2815497.2827132,24.126852685269,0,0
-144.71970602728,-100.8918162973,18.931283128313,1374122.2798125,-3125.0090024514,2815497.2827132,24.131283128313,0,0
-144.71970592059,-100.90617040012,18.935713571357,1374122.2798125,-3125.0090024514,2815497.2827132,24.135713571357,0,0
-144.71970581391,-100.92052450293,18.940144014401,1374122.2798125,-3125.0090024514,2815497.2827132,24.140144014401,0,0
-144.71970570722,-100.93487860575,18.944574457446,1374122.2798125,-3125.0090024514,2815497.2827132,24.144574457446,0,0
-144.71970560054,-100.94923270856,18.94900490049,1374122.2798125,-3125.0090024514,2815497.2827132,24.14900490049,0,0
-144.71970549386,-100.96358681138,18.953435343534,1374122.2798125,-3125.0090024514,2815497.2827132,24.153435343534,0,0
-144.71970538717,-100.97794091419,18.957865786579,1374122.2798125,-3125.0090024514,2815497.2827132,24.157865786579,0,0
-144.71970528049,-100.99229501701,18.962296229623,1374122.2798125,-3125.0090024514,2815497.2827132,24.162296229623,0,0
-144.7197051738,-101.00664911982,18.966726672667,1374122.2798125,-3125.0090024514,2815497.2827132,24.166726672667,0,0
-144.71970506712,-101.02100322264,18.971157115712,1374122.2798125,-3125.0090024514,2815497.2827132,24.171157115712,0,0
-144.71970496044,-101.03535732545,18.975587558756,1374122.2798125,-3125.0090024514,2815497.2827132,24.175587558756,0,0
-144.71970485375,-101.04971142827,18.9800180018,1374122.2798125,-3125.0090024514,2815497.2827132,24.1800180018,0,0
-144.71970474707,-101.06406553108,18.984448444844,1374122.2798125,-3125.0090024514,2815497.2827132,24.184448444844,0,0
-144.71970464038,-101.0784196339,18.988878887889,1374122.2798125,-3125.0090024514,2815497.2827132,24.188878887889,0,0
-144.7197045337,-101.09277373671,18.993309330933,1374122.2798125,-3125.0090024514,2815497.2827132,24.193309330933,0,0
-144.71970442702,-101.10712783953,18.997739773977,1374122.2798125,-3125.0090024514,2815497.2827132,24.197739773977,0,0
-144.71970432033,-101.12148194234,19.002170217022,1374122.2798125,-3125.0090024514,2815497.2827132,24.202170217022,0,0
-144.71970421365,-101.13583604516,19.006600660066,1374122.2798125,-3125.0090024514,2815497.2827132,24.206600660066,0,0
-144.71970410696,-101.15019014797,19.01103110311,1374122.2798125,-3125.0090024514,2815497.2827132,24.21103110311,0,0
-144.71970400028,-101.16454425079,19.015461546155,1374122.2798125,-3125.0090024514,2815497.2827132,24.215461546155,0,0
-144.7197038936,-101.1788983536,19.019891989199,1374122.2798125,-3125.0090024514,2815497.2827132,24.219891989199,0,0
-144.71970378691,-101.19325245642,19.024322432243,1374122.2798125,-3125.0090024514,2815497.2827132,24.224322432243,0,0
-144.71970368023,-101.20760655923,19.028752875288,1374122.2798125,-3125.0090024514,2815497.2827132,24.228752875288,0,0
-144.71970357355,-101.22196066205,19.033183318332,1374122.2798125,-3125.0090024514,2815497.2827132,24.233183318332,0,0
-144.71970346686,-101.23631476486,19.037613761376,1374122.2798125,-3125.0090024514,2815497.2827132,24.237613761376,0,0
-144.71970336018,-101.25066886768,19.04204420442,1374122.2798125,-3125.0090024514,2815497.2827132,24.24204420442,0,0
-144.71970325349,-101.26502297049,19.046474647465,1374122.2798125,-3125.0090024514,2815497.2827132,24.246474647465,0,0
-144.71970314681,-101.27937707331,19.050905090509,1374122.2798125,-3125.0090024514,2815497.2827132,24.250905090509,0,0
-144.71970304013,-101.29373117612,19.055335533553,1374122.2798125,-3125.0090024514,2815497.2827132,24.255335533553,0,0
-144.71970293344,-101.30808527894,19.059765976598,1374122.2798125,-3125.0090024514,2815497.2827132,24.259765976598,0,0
-144.71970282676,-101.32243938175,19.064196419642,1374122.2798125,-3125.0090024514,2815497.2827132,24.264196419642,0,0
-144.71970272007,-101.33679348457,19.068626862686,1374122.2798125,-3125.0090024514,2815497.2827132,24.268626862686,0,0
-144.71970261339,-101.35114758738,19.073057305731,1374122.2798125,-3125.0090024514,2815497.2827132,24.273057305731,0,0
-144.71970250671,-101.3655016902,19.077487748775,1374122.2798125,-3125.0090024514,2815497.2827132,24.277487748775,0,0
-144.71970240002,-101.37985579301,19.081918191819,1374122.2798125,-3125.0090024514,2815497.2827132,24.281918191819,0,0
-144.71970229334,-101.39420989583,19.086348634863,1374122.2798125,-3125.0090024514,2815497.2827132,24.286348634863,0,0
-144.71970218665,-101.40856399864,19.090779077908,1374122.2798125,-3125.0090024514,2815497.2827132,24.290779077908,0,0
-144.71970207997,-101.42291810146,19.095209520952,1374122.2798125,-3125.0090024514,2815497.2827132,24.295209520952,0,0
-144.71970197329,-101.43727220427,19.099639963996,1374122.2798125,-3125.0090024514,2815497.2827132,24.299639963996,0,0
-144.7197018666,-101.45162630709,19.104070407041,1374122.2798125,-3125.0090024514,2815497.2827132,24.304070407041,0,0
-144.71970175992,-101.4659804099,19.108500850085,1374122.2798125,-3125.0090024514,2815497.2827132,24.308500850085,0,0
-144.71970165323,-101.48033451272,19.112931293129,1374122.2798125,-3125.0090024514,2815497.2827132,24.312931293129,0,0
-144.71970154655,-101.49468861553,19.117361736174,1374122.2798125,-3125.0090024514,2815497.2827132,24.317361736174,0,0
-144.71970143987,-101.50904271835,19.121792179218,1374122.2798125,-3125.0090024514,2815497.2827132,24.321792179218,0,0
-144.71970133318,-101.52339682116,19.126222622262,1374122.2798125,-3125.0090024514,2815497.2827132,24.326222622262,0,0
-144.7197012265,-101.53775092398,19.130653065307,1374122.2798125,-3125.0090024514,2815497.2827132,24.330653065307,0,0
-144.71970111981,-101.55210502679,19.135083508351,1374122.2798125,-3125.0090024514,2815497.2827132,24.335083508351,0,0
-144.71970101313,-101.56645912961,19.139513951395,1374122.2798125,-3125.0090024514,2815497.2827132,24.339513951395,0,0
-144.71970090645,-101.58081323242,19.143944394439,1374122.2798125,-3125.0090024514,2815497.2827132,24.343944394439,0,0
-144.71970079976,-101.59516733524,19.148374837484,1374122.2798125,-3125.0090024514,2815497.2827132,24.348374837484,0,0
-144.71970069308,-101.60952143805,19.152805280528,1374122.2798125,-3125.0090024514,2815497.2827132,24.352805280528,0,0
-144.71970058639,-101.62387554087,19.157235723572,1374122.2798125,-3125.0090024514,2815497.2827132,24.357235723572,0,0
-144.71970047971,-101.63822964368,19.161666166617,1374122.2798125,-3125.0090024514,2815497.2827132,24.361666166617,0,0
-144.71970037303,-101.6525837465,19.166096609661,1374122.2798125,-3125.0090024514,2815497.2827132,24.366096609661,0,0
-144.71970026634,-101.66693784931,19.170527052705,1374122.2798125,-3125.0090024514,2815497.2827132,24.370527052705,0,0
-144.71970015966,-101.68129195213,19.17495749575,1374122.2798125,-3125.0090024514,2815497.2827132,24.37495749575,0,0
-144.71970005298,-101.69564605494,19.179387938794,1374122.2798125,-3125.0090024514,2815497.2827132,24.379387938794,0,0
-144.71969994629,-101.71000015776,19.183818381838,1374122.2798125,-3125.0090024514,2815497.2827132,24.383818381838,0,0
-144.71969983961,-101.72435426057,19.188248824882,1374122.2798125,-3125.0090024514,2815497.2827132,24.388248824882,0,0
-144.71969973292,-101.73870836339,19.192679267927,1374122.2798125,-3125.0090024514,2815497.2827132,24.392679267927,0,0
-144.71969962624,-101.7530624662,19.197109710971,1374122.2798125,-3125.0090024514,2815497.2827132,24.397109710971,0,0
-144.71969951956,-101.76741656902,19.201540154015,1374122.2798125,-3125.0090024514,2815497.2827132,24.401540154015,0,0
-144.71969941287,-101.78177067183,19.20597059706,1374122.2798125,-3125.0090024514,2815497.2827132,24.40597059706,0,0
-144.71969930619,-101.79612477465,19.210401040104,1374122.2798125,-3125.0090024514,2815497.2827132,24.410401040104,0,0
-144.7196991995,-101.81047887746,19.214831483148,1374122.2798125,-3125.0090024514,2815497.2827132,24.414831483148,0,0
-144.71969909282,-101.82483298028,19.219261926193,1374122.2798125,-3125.0090024514,2815497.2827132,24.419261926193,0,0
-144.71969898614,-101.83918708309,19.223692369237,1374122.2798125,-3125.0090024514,2815497.2827132,24.423692369237,0,0
-144.71969887945,-101.85354118591,19.228122812281,1374122.2798125,-3125.0090024514,2815497.2827132,24.428122812281,0,0
-144.71969877277,-101.86789528872,19.232553255326,1374122.2798125,-3125.0090024514,2815497.2827132,24.432553255326,0,0
-144.71969866608,-101.88224939154,19.23698369837,1374122.2798125,-3125.0090024514,2815497.2827132,24.43698369837,0,0
-144.7196985594,-101.89660349435,19.241414141414,1374122.2798125,-3125.0090024514,2815497.2827132,24.441414141414,0,0
-144.71969845272,-101.91095759717,19.245844584458,1374122.2798125,-3125.0090024514,2815497.2827132,24.445844584458,0,0
-144.71969834603,-101.92531169998,19.250275027503,1374122.2798125,-3125.0090024514,2815497.2827132,24.450275027503,0,0
-144.71969823935,-101.9396658028,19.254705470547,1374122.2798125,-3125.0090024514,2815497.2827132,24.454705470547,0,0
-144.71969813266,-101.95401990561,19.259135913591,1374122.2798125,-3125.0090024514,2815497.2827132,24.459135913591,0,0
-144.71969802598,-101.96837400843,19.263566356636,1374122.2798125,-3125.0090024514,2815497.2827132,24.463566356636,0,0
-144.7196979193,-101.98272811124,19.26799679968,1374122.2798125,-3125.0090024514,2815497.2827132,24.46799679968,0,0
-144.71969781261,-101.99708221406,19.272427242724,1374122.2798125,-3125.0090024514,2815497.2827132,24.472427242724,0,0
-144.71969770593,-102.01143631687,19.276857685769,1374122.2798125,-3125.0090024514,2815497.2827132,24.476857685769,0,0
-144.71969759924,-102.02579041969,19.281288128813,1374122.2798125,-3125.0090024514,2815497.2827132,24.481288128813,0,0
-144.71969749256,-102.0401445225,19.285718571857,1374122.2798125,-3125.0090024514,2815497.2827132,24.485718571857,0,0
-144.71969738588,-102.05449862532,19.290149014901,1374122.2798125,-3125.0090024514,2815497.2827132,24.490149014901,0,0
-144.71969727919,-102.06885272813,19.294579457946,1374122.2798125,-3125.0090024514,2815497.2827132,24.494579457946,0,0
-144.71969717251,-102.08320683095,19.29900990099,1374122.2798125,-3125.0090024514,2815497.2827132,24.49900990099,0,0
-144.71969706583,-102.09756093376,19.303440344034,1374122.2798125,-3125.0090024514,2815497.2827132,24.503440344034,0,0
-144.71969695914,-102.11191503658,19.307870787079,1374122.2798125,-3125.0090024514,2815497.2827132,24.507870787079,0,0
-144.71969685246,-102.12626913939,19.312301230123,1374122.2798125,-3125.0090024514,2815497.2827132,24.512301230123,0,0
-144.71969674577,-102.14062324221,19.316731673167,1374122.2798125,-3125.0090024514,2815497.2827132,24.516731673167,0,0
-144.71969663909,-102.15497734502,19.321162116212,1374122.2798125,-3125.0090024514,2815497.2827132,24.521162116212,0,0
-144.71969653241,-102.16933144784,19.325592559256,1374122.2798125,-3125.0090024514,2815497.2827132,24.525592559256,0,0
-144.71969642572,-102.18368555065,19.3300230023,1374122.2798125,-3125.0090024514,2815497.2827132,24.5300230023,0,0
-144.71969631904,-102.19803965347,19.334453445345,1374122.2798125,-3125.0090024514,2815497.2827132,24.534453445345,0,0
-144.71969621235,-102.21239375628,19.338883888389,1374122.2798125,-3125.0090024514,2815497.2827132,24.538883888389,0,0
-144.71969610567,-102.2267478591,19.343314331433,1374122.2798125,-3125.0090024514,2815497.2827132,24.543314331433,0,0
-144.71969599899,-102.24110196191,19.347744774477,1374122.2798125,-3125.0090024514,2815497.2827132,24.547744774477,0,0
-144.7196958923,-102.25545606473,19.352175217522,1374122.2798125,-3125.0090024514,2815497.2827132,24.552175217522,0,0
-144.71969578562,-102.26981016754,19.356605660566,1374122.2798125,-3125.0090024514,2815497.2827132,24.556605660566,0,0
-144.71969567893,-102.28416427036,19.36103610361,1374122.2798125,-3125.0090024514,2815497.2827132,24.56103610361,0,0
-144.71969557225,-102.29851837317,19.365466546655,1374122.2798125,-3125.0090024514,2815497.2827132,24.565466546655,0,0
-144.71969546557,-102.31287247599,19.369896989699,1374122.2798125,-3125.0090024514,2815497.2827132,24.569896989699,0,0
-144.71969535888,-102.3272265788,19.374327432743,1374122.2798125,-3125.0090024514,2815497.2827132,24.574327432743,0,0
-144.7196952522,-102.34158068161,19.378757875788,1374122.2798125,-3125.0090024514,2815497.2827132,24.578757875788,0,0
-144.71969514551,-102.35593478443,19.383188318832,1374122.2798125,-3125.0090024514,2815497.2827132,24.583188318832,0,0
-144.71969503883,-102.37028888724,19.387618761876,1374122.2798125,-3125.0090024514,2815497.2827132,24.587618761876,0,0
-144.71969493215,-102.38464299006,19.39204920492,1374122.2798125,-3125.0090024514,2815497.2827132,24.59204920492,0,0
-144.71969482546,-102.39899709287,19.396479647965,1374122.2798125,-3125.0090024514,2815497.2827132,24.596479647965,0,0
-144.71969471878,-102.41335119569,19.400910091009,1374122.2798125,-3125.0090024514,2815497.2827132,24.600910091009,0,0
-144.71969461209,-102.4277052985,19.405340534053,1374122.2798125,-3125.0090024514,2815497.2827132,24.605340534053,0,0
-144.71969450541,-102.44205940132,19.409770977098,1374122.2798125,-3125.0090024514,2815497.2827132,24.609770977098,0,0
-144.71969439873,-102.45641350413,19.414201420142,1374122.2798125,-3125.0090024514,2815497.2827132,24.614201420142,0,0
-144.71969429204,-102.47076760695,19.418631863186,1374122.2798125,-3125.0090024514,2815497.2827132,24.618631863186,0,0
-144.71969418536,-102.48512170976,19.423062306231,1374122.2798125,-3125.0090024514,2815497.2827132,24.623062306231,0,0
-144.71969407867,-102.49947581258,19.427492749275,1374122.2798125,-3125.0090024514,2815497.2827132,24.627492749275,0,0
-144.71969397199,-102.51382991539,19.431923192319,1374122.2798125,-3125.0090024514,2815497.2827132,24.631923192319,0,0
-144.71969386531,-102.52818401821,19.436353635364,1374122.2798125,-3125.0090024514,2815497.2827132,24.636353635364,0,0
-144.71969375862,-102.54253812102,19.440784078408,1374122.2798125,-3125.0090024514,2815497.2827132,24.640784078408,0,0
-144.71969365194,-102.55689222384,19.445214521452,1374122.2798125,-3125.0090024514,2815497.2827132,24.645214521452,0,0
-144.71969354526,-102.57124632665,19.449644964496,1374122.2798125,-3125.0090024514,2815497.2827132,24.649644964496,0,0
-144.71969343857,-102.58560042947,19.454075407541,1374122.2798125,-3125.0090024514,2815497.2827132,24.654075407541,0,0
-144.71969333189,-102.59995453228,19.458505850585,1374122.2798125,-3125.0090024514,2815497.2827132,24.658505850585,0,0
-144.7196932252,-102.6143086351,19.462936293629,1374122.2798125,-3125.0090024514,2815497.2827132,24.662936293629,0,0
-144.71969311852,-102.62866273791,19.467366736674,1374122.2798125,-3125.0090024514,2815497.2827132,24.667366736674,0,0
-144.71969301184,-102.64301684073,19.471797179718,1374122.2798125,-3125.0090024514,2815497.2827132,24.671797179718,0,0
-144.71969290515,-102.65737094354,19.476227622762,1374122.2798125,-3125.0090024514,2815497.2827132,24.676227622762,0,0
-144.71969279847,-102.67172504636,19.480658065807,1374122.2798125,-3125.0090024514,2815497.2827132,24.680658065807,0,0
-144.71969269178,-102.68607914917,19.485088508851,1374122.2798125,-3125.0090024514,2815497.2827132,24.685088508851,0,0
-144.7196925851,-102.70043325199,19.489518951895,1374122.2798125,-3125.0090024514,2815497.2827132,24.689518951895,0,0
-144.71969247842,-102.7147873548,19.493949394939,1374122.2798125,-3125.0090024514,2815497.2827132,24.693949394939,0,0
-144.71969237173,-102.72914145762,19.498379837984,1374122.2798125,-3125.0090024514,2815497.2827132,24.698379837984,0,0
-144.71969226505,-102.74349556043,19.502810281028,1374122.2798125,-3125.0090024514,2815497.2827132,24.702810281028,0,0
-144.71969215836,-102.75784966325,19.507240724072,1374122.2798125,-3125.0090024514,2815497.2827132,24.707240724072,0,0
-144.71969205168,-102.77220376606,19.511671167117,1374122.2798125,-3125.0090024514,2815497.2827132,24.711671167117,0,0
-144.719691945,-102.78655786888,19.516101610161,1374122.2798125,-3125.0090024514,2815497.2827132,24.716101610161,0,0
-144.71969183831,-102.80091197169,19.520532053205,1374122.2798125,-3125.0090024514,2815497.2827132,24.720532053205,0,0
-144.71969173163,-102.81526607451,19.52496249625,1374122.2798125,-3125.0090024514,2815497.2827132,24.72496249625,0,0
-144.71969162494,-102.82962017732,19.529392939294,1374122.2798125,-3125.0090024514,2815497.2827132,24.729392939294,0,0
-144.71969151826,-102.84397428014,19.533823382338,1374122.2798125,-3125.0090024514,2815497.2827132,24.733823382338,0,0
-144.71969141158,-102.85832838295,19.538253825383,1374122.2798125,-3125.0090024514,2815497.2827132,24.738253825383,0,0
-144.71969130489,-102.87268248577,19.542684268427,1374122.2798125,-3125.0090024514,2815497.2827132,24.742684268427,0,0
-144.71969119821,-102.88703658858,19.547114711471,1374122.2798125,-3125.0090024514,2815497.2827132,24.747114711471,0,0
-144.71969109152,-102.9013906914,19.551545154515,1374122.2798125,-3125.0090024514,2815497.2827132,24.751545154515,0,0
-144.71969098484,-102.91574479421,19.55597559756,1374122.2798125,-3125.0090024514,2815497.2827132,24.75597559756,0,0
-144.71969087816,-102.93009889703,19.560406040604,1374122.2798125,-3125.0090024514,2815497.2827132,24.760406040604,0,0
-144.71969077147,-102.94445299984,19.564836483648,1374122.2798125,-3125.0090024514,2815497.2827132,24.764836483648,0,0
-144.71969066479,-102.95880710266,19.569266926693,1374122.2798125,-3125.0090024514,2815497.2827132,24.769266926693,0,0
-144.7196905583,-102.97316120476,19.573697369737,1369885.5722062,926.50303860752,2810928.9564988,24.773697369737,0,0
-144.71969045183,-102.98751530678,19.578127812781,1369885.5722062,926.50303860752,2810928.9564988,24.778127812781,0,0
-144.71969034537,-103.0018694088,19.582558255826,1369885.5722062,926.50303860752,2810928.9564988,24.782558255826,0,0
-144.7196902389,-103.01622351082,19.58698869887,1369885.5722062,926.50303860752,2810928.9564988,24.78698869887,0,0
-144.71969013243,-103.03057761284,19.591419141914,1369885.5722062,926.50303860752,2810928.9564988,24.791419141914,0,0
-144.71969002596,-103.04493171487,19.595849584958,1369885.5722062,926.50303860752,2810928.9564988,24.795849584958,0,0
-144.7196899195,-103.05928581689,19.600280028003,1369885.5722062,926.50303860752,2810928.9564988,24.800280028003,0,0
-144.71968981303,-103.07363991891,19.604710471047,1369885.5722062,926.50303860752,2810928.9564988,24.804710471047,0,0
-144.71968970656,-103.08799402093,19.609140914091,1369885.5722062,926.50303860752,2810928.9564988,24.809140914091,0,0
-144.7196896001,-103.10234812295,19.613571357136,1369885.5722062,926.50303860752,2810928.9564988,24.813571357136,0,0
-144.71968949363,-103.11670222497,19.61800180018,1369885.5722062,926.50303860752,2810928.9564988,24.81800180018,0,0
-144.71968938716,-103.13105632699,19.622432243224,1369885.5722062,926.50303860752,2810928.9564988,24.822432243224,0,0
-144.71968928069,-103.14541042901,19.626862686269,1369885.5722062,926.50303860752,2810928.9564988,24.826862686269,0,0
-144.71968917423,-103.15976453103,19.631293129313,1369885.5722062,926.50303860752,2810928.9564988,24.831293129313,0,0
-144.71968906776,-103.17411863305,19.635723572357,1369885.5722062,926.50303860752,2810928.9564988,24.835723572357,0,0
-144.71968896129,-103.18847273507,19.640154015402,1369885.5722062,926.50303860752,2810928.9564988,24.840154015402,0,0
-144.71968885482,-103.20282683709,19.644584458446,1369885.5722062,926.50303860752,2810928.9564988,24.844584458446,0,0
-144.71968874836,-103.21718093911,19.64901490149,1369885.5722062,926.50303860752,2810928.9564988,24.84901490149,0,0
-144.71968864189,-103.23153504114,19.653445344534,1369885.5722062,926.50303860752,2810928.9564988,24.853445344534,0,0
-144.71968853542,-103.24588914316,19.657875787579,1369885.5722062,926.50303860752,2810928.9564988,24.857875787579,0,0
-144.71968842896,-103.26024324518,19.662306230623,1369885.5722062,926.50303860752,2810928.9564988,24.862306230623,0,0
-144.71968832249,-103.2745973472,19.666736673667,1369885.5722062,926.50303860752,2810928.9564988,24.866736673667,0,0
-144.71968821602,-103.28895144922,19.671167116712,1369885.5722062,926.50303860752,2810928.9564988,24.871167116712,0,0
-144.71968810955,-103.30330555124,19.675597559756,1369885.5722062,926.50303860752,2810928.9564988,24.875597559756,0,0
-144.71968800309,-103.31765965326,19.6800280028,1369885.5722062,926.50303860752,2810928.9564988,24.8800280028,0,0
-144.71968789662,-103.33201375528,19.684458445845,1369885.5722062,926.50303860752,2810928.9564988,24.884458445845,0,0
-144.71968779015,-103.3463678573,19.688888888889,1369885.5722062,926.50303860752,2810928.9564988,24.888888888889,0,0
-144.71968768369,-103.36072195932,19.693319331933,1369885.5722062,926.50303860752,2810928.9564988,24.893319331933,0,0
-144.71968757722,-103.37507606134,19.697749774977,1369885.5722062,926.50303860752,2810928.9564988,24.897749774977,0,0
-144.71968747075,-103.38943016336,19.702180218022,1369885.5722062,926.50303860752,2810928.9564988,24.902180218022,0,0
-144.71968736428,-103.40378426539,19.706610661066,1369885.5722062,926.50303860752,2810928.9564988,24.906610661066,0,0
-144.71968725782,-103.41813836741,19.71104110411,1369885.5722062,926.50303860752,2810928.9564988,24.91104110411,0,0
-144.71968715135,-103.43249246943,19.715471547155,1369885.5722062,926.50303860752,2810928.9564988,24.915471547155,0,0
-144.71968704488,-103.44684657145,19.719901990199,1369885.5722062,926.50303860752,2810928.9564988,24.919901990199,0,0
-144.71968693842,-103.46120067347,19.724332433243,1369885.5722062,926.50303860752,2810928.9564988,24.924332433243,0,0
-144.71968683195,-103.47555477549,19.728762876288,1369885.5722062,926.50303860752,2810928.9564988,24.928762876288,0,0
-144.71968672548,-103.48990887751,19.733193319332,1369885.5722062,926.50303860752,2810928.9564988,24.933193319332,0,0
-144.71968661901,-103.50426297953,19.737623762376,1369885.5722062,926.50303860752,2810928.9564988,24.937623762376,0,0
-144.71968651255,-103.51861708155,19.742054205421,1369885.5722062,926.50303860752,2810928.9564988,24.942054205421,0,0
-144.71968640608,-103.53297118357,19.746484648465,1369885.5722062,926.50303860752,2810928.9564988,24.946484648465,0,0
-144.71968629961,-103.54732528559,19.750915091509,1369885.5722062,926.50303860752,2810928.9564988,24.950915091509,0,0
-144.71968619315,-103.56167938761,19.755345534553,1369885.5722062,926.50303860752,2810928.9564988,24.955345534553,0,0
-144.71968608668,-103.57603348964,19.759775977598,1369885.5722062,926.50303860752,2810928.9564988,24.959775977598,0,0
-144.71968598021,-103.59038759166,19.764206420642,1369885.5722062,926.50303860752,2810928.9564988,24.964206420642,0,0
-144.71968587374,-103.60474169368,19.768636863686,1369885.5722062,926.50303860752,2810928.9564988,24.968636863686,0,0
-144.71968576728,-103.6190957957,19.773067306731,1369885.5722062,926.50303860752,2810928.9564988,24.973067306731,0,0
-144.71968566081,-103.63344989772,19.777497749775,1369885.5722062,926.50303860752,2810928.9564988,24.977497749775,0,0
-144.71968555434,-103.64780399974,19.781928192819,1369885.5722062,926.50303860752,2810928.9564988,24.981928192819,0,0
-144.71968544788,-103.66215810176,19.786358635864,1369885.5722062,926.50303860752,2810928.9564988,24.986358635864,0,0
-144.71968534141,-103.67651220378,19.790789078908,1369885.5722062,926.50303860752,2810928.9564988,24.990789078908,0,0
-144.71968523494,-103.6908663058,19.795219521952,1369885.5722062,926.50303860752,2810928.9564988,24.995219521952,0,0
-144.71968512847,-103.70522040782,19.799649964996,1369885.5722062,926.50303860752,2810928.9564988,24.999649964996,0,0
-144.71968502201,-103.71957450984,19.804080408041,1369885.5722062,926.50303860752,2810928.9564988,25.004080408041,0,0
-144.71968491554,-103.73392861186,19.808510851085,1369885.5722062,926.50303860752,2810928.9564988,25.008510851085,0,0
-144.71968480907,-103.74828271389,19.812941294129,1369885.5722062,926.50303860752,2810928.9564988,25.012941294129,0,0
-144.71968470261,-103.76263681591,19.817371737174,1369885.5722062,926.50303860752,2810928.9564988,25.017371737174,0,0
-144.7196845961,-103.77699091822,19.821802180218,1369066.3350325,-2756.2586502427,2804177.4975371,25.021802180218,0,0
-144.71968448952,-103.7913450211,19.826232623262,1369066.3350325,-2756.2586502427,2804177.4975371,25.026232623262,0,0
-144.71968438294,-103.80569912397,19.830663066307,1369066.3350325,-2756.2586502427,2804177.4975371,25.030663066307,0,0
-144.71968427635,-103.82005322685,19.835093509351,1369066.3350325,-2756.2586502427,2804177.4975371,25.035093509351,0,0
-144.71968416977,-103.83440732972,19.839523952395,1369066.3350325,-2756.2586502427,2804177.4975371,25.039523952395,0,0
-144.71968406319,-103.8487614326,19.84395439544,1369066.3350325,-2756.2586502427,2804177.4975371,25.04395439544,0,0
-144.71968395661,-103.86311553547,19.848384838484,1369066.3350325,-2756.2586502427,2804177.4975371,25.048384838484,0,0
-144.71968385003,-103.87746963835,19.852815281528,1369066.3350325,-2756.2586502427,2804177.4975371,25.052815281528,0,0
-144.71968374345,-103.89182374122,19.857245724572,1369066.3350325,-2756.2586502427,2804177.4975371,25.057245724572,0,0
-144.71968363687,-103.90617784409,19.861676167617,1369066.3350325,-2756.2586502427,2804177.4975371,25.061676167617,0,0
-144.71968353028,-103.92053194697,19.866106610661,1369066.3350325,-2756.2586502427,2804177.4975371,25.066106610661,0,0
-144.7196834237,-103.93488604984,19.870537053705,1369066.3350325,-2756.2586502427,2804177.4975371,25.070537053705,0,0
-144.71968331712,-103.94924015272,19.87496749675,1369066.3350325,-2756.2586502427,2804177.4975371,25.07496749675,0,0
-144.71968321054,-103.96359425559,19.879397939794,1369066.3350325,-2756.2586502427,2804177.4975371,25.079397939794,0,0
-144.71968310396,-103.97794835847,19.883828382838,1369066.3350325,-2756.2586502427,2804177.4975371,25.083828382838,0,0
-144.71968299738,-103.99230246134,19.888258825883,1369066.3350325,-2756.2586502427,2804177.4975371,25.088258825883,0,0
-144.7196828908,-104.00665656422,19.892689268927,1369066.3350325,-2756.2586502427,2804177.4975371,25.092689268927,0,0
-144.71968278421,-104.02101066709,19.897119711971,1369066.3350325,-2756.2586502427,2804177.4975371,25.097119711971,0,0
-144.71968267763,-104.03536476997,19.901550155015,1369066.3350325,-2756.2586502427,2804177.4975371,25.101550155015,0,0
-144.71968257105,-104.04971887284,19.90598059806,1369066.3350325,-2756.2586502427,2804177.4975371,25.10598059806,0,0
-144.71968246447,-104.06407297571,19.910411041104,1369066.3350325,-2756.2586502427,2804177.4975371,25.110411041104,0,0
-144.71968235789,-104.07842707859,19.914841484148,1369066.3350325,-2756.2586502427,2804177.4975371,25.114841484148,0,0
-144.71968225131,-104.09278118146,19.919271927193,1369066.3350325,-2756.2586502427,2804177.4975371,25.119271927193,0,0
-144.71968214472,-104.10713528434,19.923702370237,1369066.3350325,-2756.2586502427,2804177.4975371,25.123702370237,0,0
-144.71968203814,-104.12148938721,19.928132813281,1369066.3350325,-2756.2586502427,2804177.4975371,25.128132813281,0,0
-144.71968193156,-104.13584349009,19.932563256326,1369066.3350325,-2756.2586502427,2804177.4975371,25.132563256326,0,0
-144.71968182498,-104.15019759296,19.93699369937,1369066.3350325,-2756.2586502427,2804177.4975371,25.13699369937,0,0
-144.7196817184,-104.16455169584,19.941424142414,1369066.3350325,-2756.2586502427,2804177.4975371,25.141424142414,0,0
-144.71968161182,-104.17890579871,19.945854585459,1369066.3350325,-2756.2586502427,2804177.4975371,25.145854585459,0,0
-144.71968150524,-104.19325990159,19.950285028503,1369066.3350325,-2756.2586502427,2804177.4975371,25.150285028503,0,0
-144.71968139865,-104.20761400446,19.954715471547,1369066.3350325,-2756.2586502427,2804177.4975371,25.154715471547,0,0
-144.71968129207,-104.22196810733,19.959145914591,1369066.3350325,-2756.2586502427,2804177.4975371,25.159145914591,0,0
-144.71968118549,-104.23632221021,19.963576357636,1369066.3350325,-2756.2586502427,2804177.4975371,25.163576357636,0,0
-144.71968107891,-104.25067631308,19.96800680068,1369066.3350325,-2756.2586502427,2804177.4975371,25.16800680068,0,0
-144.71968097233,-104.26503041596,19.972437243724,1369066.3350325,-2756.2586502427,2804177.4975371,25.172437243724,0,0
-144.71968086575,-104.27938451883,19.976867686769,1369066.3350325,-2756.2586502427,2804177.4975371,25.176867686769,0,0
-144.71968075917,-104.29373862171,19.981298129813,1369066.3350325,-2756.2586502427,2804177.4975371,25.181298129813,0,0
-144.71968065258,-104.30809272458,19.985728572857,1369066.3350325,-2756.2586502427,2804177.4975371,25.185728572857,0,0
-144.719680546,-104.32244682746,19.990159015902,1369066.3350325,-2756.2586502427,2804177.4975371,25.190159015902,0,0
-144.71968043942,-104.33680093033,19.994589458946,1369066.3350325,-2756.2586502427,2804177.4975371,25.194589458946,0,0
-144.71968033284,-104.35115503321,19.99901990199,1369066.3350325,-2756.2586502427,2804177.4975371,25.19901990199,0,0
-144.71968022626,-104.36550913608,20.003450345035,1369066.3350325,-2756.2586502427,2804177.4975371,25.203450345035,0,0
-144.71968011968,-104.37986323895,20.007880788079,1369066.3350325,-2756.2586502427,2804177.4975371,25.207880788079,0,0
-144.71968001309,-104.39421734183,20.012311231123,1369066.3350325,-2756.2586502427,2804177.4975371,25.212311231123,0,0
-144.71967990651,-104.4085714447,20.016741674167,1369066.3350325,-2756.2586502427,2804177.4975371,25.216741674167,0,0
-144.71967979993,-104.42292554758,20.021172117212,1369066.3350325,-2756.2586502427,2804177.4975371,25.221172117212,0,0
-144.71967969335,-104.43727965045,20.025602560256,1369066.3350325,-2756.2586502427,2804177.4975371,25.225602560256,0,0
-144.71967958677,-104.45163375333,20.0300330033,1369066.3350325,-2756.2586502427,2804177.4975371,25.2300330033,0,0
-144.71967948019,-104.4659878562,20.034463446345,1369066.3350325,-2756.2586502427,2804177.4975371,25.234463446345,0,0
-144.71967937361,-104.48034195908,20.038893889389,1369066.3350325,-2756.2586502427,2804177.4975371,25.238893889389,0,0
-144.71967926702,-104.49469606195,20.043324332433,1369066.3350325,-2756.2586502427,2804177.4975371,25.243324332433,0,0
-144.71967916044,-104.50905016483,20.047754775478,1369066.3350325,-2756.2586502427,2804177.4975371,25.247754775478,0,0
-144.71967905386,-104.5234042677,20.052185218522,1369066.3350325,-2756.2586502427,2804177.4975371,25.252185218522,0,0
-144.71967894728,-104.53775837057,20.056615661566,1369066.3350325,-2756.2586502427,2804177.4975371,25.256615661566,0,0
-144.7196788407,-104.55211247345,20.06104610461,1369066.3350325,-2756.2586502427,2804177.4975371,25.26104610461,0,0
-144.71967873412,-104.56646657632,20.065476547655,1369066.3350325,-2756.2586502427,2804177.4975371,25.265476547655,0,0
-144.71967862754,-104.5808206792,20.069906990699,1369066.3350325,-2756.2586502427,2804177.4975371,25.269906990699,0,0
-144.71967852095,-104.59517478207,20.074337433743,1369066.3350325,-2756.2586502427,2804177.4975371,25.274337433743,0,0
-144.71967841437,-104.60952888495,20.078767876788,1369066.3350325,-2756.2586502427,2804177.4975371,25.278767876788,0,0
-144.71967830779,-104.62388298782,20.083198319832,1369066.3350325,-2756.2586502427,2804177.4975371,25.283198319832,0,0
-144.71967820121,-104.6382370907,20.087628762876,1369066.3350325,-2756.2586502427,2804177.4975371,25.287628762876,0,0
-144.71967809463,-104.65259119357,20.092059205921,1369066.3350325,-2756.2586502427,2804177.4975371,25.292059205921,0,0
-144.71967798805,-104.66694529645,20.096489648965,1369066.3350325,-2756.2586502427,2804177.4975371,25.296489648965,0,0
-144.71967788147,-104.68129939932,20.100920092009,1369066.3350325,-2756.2586502427,2804177.4975371,25.300920092009,0,0
-144.71967777488,-104.69565350219,20.105350535054,1369066.3350325,-2756.2586502427,2804177.4975371,25.305350535054,0,0
-144.7196776683,-104.71000760507,20.109780978098,1369066.3350325,-2756.2586502427,2804177.4975371,25.309780978098,0,0
-144.71967756172,-104.72436170794,20.114211421142,1369066.3350325,-2756.2586502427,2804177.4975371,25.314211421142,0,0
-144.71967745514,-104.73871581082,20.118641864186,1369066.3350325,-2756.2586502427,2804177.4975371,25.318641864186,0,0
-144.71967734856,-104.75306991369,20.123072307231,1369066.3350325,-2756.2586502427,2804177.4975371,25.323072307231,0,0
-144.71967724198,-104.76742401657,20.127502750275,1369066.3350325,-2756.2586502427,2804177.4975371,25.327502750275,0,0
-144.71967713539,-104.78177811944,20.131933193319,1369066.3350325,-2756.2586502427,2804177.4975371,25.331933193319,0,0
-144.71967702881,-104.79613222232,20.136363636364,1369066.3350325,-2756.2586502427,2804177.4975371,25.336363636364,0,0
-144.71967692223,-104.81048632519,20.140794079408,1369066.3350325,-2756.2586502427,2804177.4975371,25.340794079408,0,0
-144.71967681565,-104.82484042807,20.145224522452,1369066.3350325,-2756.2586502427,2804177.4975371,25.345224522452,0,0
-144.71967670907,-104.83919453094,20.149654965497,1369066.3350325,-2756.2586502427,2804177.4975371,25.349654965497,0,0
-144.71967660249,-104.85354863381,20.154085408541,1369066.3350325,-2756.2586502427,2804177.4975371,25.354085408541,0,0
-144.71967649591,-104.86790273669,20.158515851585,1369066.3350325,-2756.2586502427,2804177.4975371,25.358515851585,0,0
-144.71967638932,-104.88225683956,20.162946294629,1369066.3350325,-2756.2586502427,2804177.4975371,25.362946294629,0,0
-144.71967628274,-104.89661094244,20.167376737674,1369066.3350325,-2756.2586502427,2804177.4975371,25.367376737674,0,0
-144.71967617616,-104.91096504531,20.171807180718,1369066.3350325,-2756.2586502427,2804177.4975371,25.371807180718,0,0
-144.71967606958,-104.92531914819,20.176237623762,1369066.3350325,-2756.2586502427,2804177.4975371,25.376237623762,0,0
-144.719675963,-104.93967325106,20.180668066807,1369066.3350325,-2756.2586502427,2804177.4975371,25.380668066807,0,0
-144.71967585642,-104.95402735394,20.185098509851,1369066.3350325,-2756.2586502427,2804177.4975371,25.385098509851,0,0
-144.71967574984,-104.96838145681,20.189528952895,1369066.3350325,-2756.2586502427,2804177.4975371,25.389528952895,0,0
-144.71967564325,-104.98273555969,20.19395939594,1369066.3350325,-2756.2586502427,2804177.4975371,25.39395939594,0,0
-144.71967553667,-104.99708966256,20.198389838984,1369066.3350325,-2756.2586502427,2804177.4975371,25.398389838984,0,0
-144.71967543009,-105.01144376543,20.202820282028,1369066.3350325,-2756.2586502427,2804177.4975371,25.402820282028,0,0
-144.71967532351,-105.02579786831,20.207250725073,1369066.3350325,-2756.2586502427,2804177.4975371,25.407250725073,0,0
-144.71967521693,-105.04015197118,20.211681168117,1369066.3350325,-2756.2586502427,2804177.4975371,25.411681168117,0,0
-144.71967511035,-105.05450607406,20.216111611161,1369066.3350325,-2756.2586502427,2804177.4975371,25.416111611161,0,0
-144.71967500377,-105.06886017693,20.220542054205,1369066.3350325,-2756.2586502427,2804177.4975371,25.420542054205,0,0
-144.71967489718,-105.08321427981,20.22497249725,1369066.3350325,-2756.2586502427,2804177.4975371,25.42497249725,0,0
-144.7196747906,-105.09756838268,20.229402940294,1369066.3350325,-2756.2586502427,2804177.4975371,25.429402940294,0,0
-144.71967468402,-105.11192248556,20.233833383338,1369066.3350325,-2756.2586502427,2804177.4975371,25.433833383338,0,0
-144.71967457744,-105.12627658843,20.238263826383,1369066.3350325,-2756.2586502427,2804177.4975371,25.438263826383,0,0
-144.71967447086,-105.14063069131,20.242694269427,1369066.3350325,-2756.2586502427,2804177.4975371,25.442694269427,0,0
-144.71967436428,-105.15498479418,20.247124712471,1369066.3350325,-2756.2586502427,2804177.4975371,25.447124712471,0,0
-144.71967425769,-105.16933889705,20.251555155516,1369066.3350325,-2756.2586502427,2804177.4975371,25.451555155516,0,0
-144.71967415111,-105.18369299993,20.25598559856,1369066.3350325,-2756.2586502427,2804177.4975371,25.45598559856,0,0
-144.71967404453,-105.1980471028,20.260416041604,1369066.3350325,-2756.2586502427,2804177.4975371,25.460416041604,0,0
-144.71967393795,-105.21240120568,20.264846484648,1369066.3350325,-2756.2586502427,2804177.4975371,25.464846484648,0,0
-144.71967383137,-105.22675530855,20.269276927693,1369066.3350325,-2756.2586502427,2804177.4975371,25.469276927693,0,0
-144.71967372479,-105.24110941143,20.273707370737,1369066.3350325,-2756.2586502427,2804177.4975371,25.473707370737,0,0
-144.71967361821,-105.2554635143,20.278137813781,1369066.3350325,-2756.2586502427,2804177.4975371,25.478137813781,0,0
-144.71967351162,-105.26981761718,20.282568256826,1369066.3350325,-2756.2586502427,2804177.4975371,25.482568256826,0,0
-144.71967340504,-105.28417172005,20.28699869987,1369066.3350325,-2756.2586502427,2804177.4975371,25.48699869987,0,0
-144.71967329846,-105.29852582293,20.291429142914,1369066.3350325,-2756.2586502427,2804177.4975371,25.491429142914,0,0
-144.71967319188,-105.3128799258,20.295859585959,1369066.3350325,-2756.2586502427,2804177.4975371,25.495859585959,0,0
-144.7196730853,-105.32723402867,20.300290029003,1369066.3350325,-2756.2586502427,2804177.4975371,25.500290029003,0,0
-144.71967297872,-105.34158813155,20.304720472047,1369066.3350325,-2756.2586502427,2804177.4975371,25.504720472047,0,0
-144.71967287214,-105.35594223442,20.309150915092,1369066.3350325,-2756.2586502427,2804177.4975371,25.509150915092,0,0
-144.71967276555,-105.3702963373,20.313581358136,1369066.3350325,-2756.2586502427,2804177.4975371,25.513581358136,0,0
-144.71967265897,-105.38465044017,20.31801180118,1369066.3350325,-2756.2586502427,2804177.4975371,25.51801180118,0,0
-144.71967255239,-105.39900454305,20.322442244224,1369066.3350325,-2756.2586502427,2804177.4975371,25.522442244224,0,0
-144.71967244581,-105.41335864592,20.326872687269,1369066.3350325,-2756.2586502427,2804177.4975371,25.526872687269,0,0
-144.71967233923,-105.4277127488,20.331303130313,1369066.3350325,-2756.2586502427,2804177.4975371,25.531303130313,0,0
-144.71967223265,-105.44206685167,20.335733573357,1369066.3350325,-2756.2586502427,2804177.4975371,25.535733573357,0,0
-144.71967212607,-105.45642095455,20.340164016402,1369066.3350325,-2756.2586502427,2804177.4975371,25.540164016402,0,0
-144.71967201948,-105.47077505742,20.344594459446,1369066.3350325,-2756.2586502427,2804177.4975371,25.544594459446,0,0
-144.7196719129,-105.48512916029,20.34902490249,1369066.3350325,-2756.2586502427,2804177.4975371,25.54902490249,0,0
-144.71967180632,-105.49948326317,20.353455345535,1369066.3350325,-2756.2586502427,2804177.4975371,25.553455345535,0,0
-144.71967169974,-105.51383736604,20.357885788579,1369066.3350325,-2756.2586502427,2804177.4975371,25.557885788579,0,0
-144.71967159316,-105.52819146892,20.362316231623,1369066.3350325,-2756.2586502427,2804177.4975371,25.562316231623,0,0
-144.71967148658,-105.54254557179,20.366746674667,1369066.3350325,-2756.2586502427,2804177.4975371,25.566746674667,0,0
-144.71967137999,-105.55689967467,20.371177117712,1369066.3350325,-2756.2586502427,2804177.4975371,25.571177117712,0,0
-144.71967127341,-105.57125377754,20.375607560756,1369066.3350325,-2756.2586502427,2804177.4975371,25.575607560756,0,0
-144.71967116683,-105.58560788042,20.3800380038,1369066.3350325,-2756.2586502427,2804177.4975371,25.5800380038,0,0
-144.71967106025,-105.59996198329,20.384468446845,1369066.3350325,-2756.2586502427,2804177.4975371,25.584468446845,0,0
-144.71967095367,-105.61431608617,20.388898889889,1369066.3350325,-2756.2586502427,2804177.4975371,25.588898889889,0,0
-144.71967084709,-105.62867018904,20.393329332933,1369066.3350325,-2756.2586502427,2804177.4975371,25.593329332933,0,0
-144.71967074051,-105.64302429191,20.397759775978,1369066.3350325,-2756.2586502427,2804177.4975371,25.597759775978,0,0
-144.71967063392,-105.65737839479,20.402190219022,1369066.3350325,-2756.2586502427,2804177.4975371,25.602190219022,0,0
-144.71967052734,-105.67173249766,20.406620662066,1369066.3350325,-2756.2586502427,2804177.4975371,25.606620662066,0,0
-144.71967042076,-105.68608660054,20.411051105111,1369066.3350325,-2756.2586502427,2804177.4975371,25.611051105111,0,0
-144.71967031418,-105.70044070341,20.415481548155,1369066.3350325,-2756.2586502427,2804177.4975371,25.615481548155,0,0
-144.7196702076,-105.71479480629,20.419911991199,1369066.3350325,-2756.2586502427,2804177.4975371,25.619911991199,0,0
-144.71967010102,-105.72914890916,20.424342434243,1369066.3350325,-2756.2586502427,2804177.4975371,25.624342434243,0,0
-144.71966999444,-105.74350301204,20.428772877288,1369066.3350325,-2756.2586502427,2804177.4975371,25.628772877288,0,0
-144.71966988785,-105.75785711491,20.433203320332,1369066.3350325,-2756.2586502427,2804177.4975371,25.633203320332,0,0
-144.71966978127,-105.77221121779,20.437633763376,1369066.3350325,-2756.2586502427,2804177.4975371,25.637633763376,0,0
-144.71966967469,-105.78656532066,20.442064206421,1369066.3350325,-2756.2586502427,2804177.4975371,25.642064206421,0,0
-144.71966956811,-105.80091942353,20.446494649465,1369066.3350325,-2756.2586502427,2804177.4975371,25.646494649465,0,0
-144.71966946153,-105.81527352641,20.450925092509,1369066.3350325,-2756.2586502427,2804177.4975371,25.650925092509,0,0
-144.71966935495,-105.82962762928,20.455355535554,1369066.3350325,-2756.2586502427,2804177.4975371,25.655355535554,0,0
-144.71966924837,-105.84398173216,20.459785978598,1369066.3350325,-2756.2586502427,2804177.4975371,25.659785978598,0,0
-144.71966914178,-105.85833583503,20.464216421642,1369066.3350325,-2756.2586502427,2804177.4975371,25.664216421642,0,0
-144.7196690352,-105.87268993791,20.468646864686,1369066.3350325,-2756.2586502427,2804177.4975371,25.668646864686,0,0
-144.71966892862,-105.88704404078,20.473077307731,1369066.3350325,-2756.2586502427,2804177.4975371,25.673077307731,0,0
-144.71966882204,-105.90139814366,20.477507750775,1369066.3350325,-2756.2586502427,2804177.4975371,25.677507750775,0,0
-144.71966871546,-105.91575224653,20.481938193819,1369066.3350325,-2756.2586502427,2804177.4975371,25.681938193819,0,0
-144.71966860888,-105.93010634941,20.486368636864,1369066.3350325,-2756.2586502427,2804177.4975371,25.686368636864,0,0
-144.71966850229,-105.94446045228,20.490799079908,1369066.3350325,-2756.2586502427,2804177.4975371,25.690799079908,0,0
-144.71966839571,-105.95881455515,20.495229522952,1369066.3350325,-2756.2586502427,2804177.4975371,25.695229522952,0,0
-144.71966828913,-105.97316865803,20.499659965997,1369066.3350325,-2756.2586502427,2804177.4975371,25.699659965997,0,0
-144.71966818255,-105.9875227609,20.504090409041,1369066.3350325,-2756.2586502427,2804177.4975371,25.704090409041,0,0
-144.71966807597,-106.00187686378,20.508520852085,1369066.3350325,-2756.2586502427,2804177.4975371,25.708520852085,0,0
-144.71966796939,-106.01623096665,20.51295129513,1369066.3350325,-2756.2586502427,2804177.4975371,25.71295129513,0,0
-144.71966786281,-106.03058506953,20.517381738174,1369066.3350325,-2756.2586502427,2804177.4975371,25.717381738174,0,0
-144.71966775622,-106.0449391724,20.521812181218,1369066.3350325,-2756.2586502427,2804177.4975371,25.721812181218,0,0
-144.71966764964,-106.05929327528,20.526242624262,1369066.3350325,-2756.2586502427,2804177.4975371,25.726242624262,0,0
-144.71966754306,-106.07364737815,20.530673067307,1369066.3350325,-2756.2586502427,2804177.4975371,25.730673067307,0,0
-144.71966743648,-106.08800148103,20.535103510351,1369066.3350325,-2756.2586502427,2804177.4975371,25.735103510351,0,0
-144.7196673299,-106.1023555839,20.539533953395,1369066.3350325,-2756.2586502427,2804177.4975371,25.739533953395,0,0
-144.71966722332,-106.11670968677,20.54396439644,1369066.3350325,-2756.2586502427,2804177.4975371,25.74396439644,0,0
-144.71966711674,-106.13106378965,20.548394839484,1369066.3350325,-2756.2586502427,2804177.4975371,25.748394839484,0,0
-144.71966701015,-106.14541789252,20.552825282528,1369066.3350325,-2756.2586502427,2804177.4975371,25.752825282528,0,0
-144.71966690357,-106.1597719954,20.557255725573,1369066.3350325,-2756.2586502427,2804177.4975371,25.757255725573,0,0
-144.71966679699,-106.17412609827,20.561686168617,1369066.3350325,-2756.2586502427,2804177.4975371,25.761686168617,0,0
-144.71966669041,-106.18848020115,20.566116611661,1369066.3350325,-2756.2586502427,2804177.4975371,25.766116611661,0,0
-144.71966658383,-106.20283430402,20.570547054705,1369066.3350325,-2756.2586502427,2804177.4975371,25.770547054705,0,0
-144.71966647725,-106.2171884069,20.57497749775,1369066.3350325,-2756.2586502427,2804177.4975371,25.77497749775,0,0
-144.71966637067,-106.23154250977,20.579407940794,1369066.3350325,-2756.2586502427,2804177.4975371,25.779407940794,0,0
-144.71966626408,-106.24589661265,20.583838383838,1369066.3350325,-2756.2586502427,2804177.4975371,25.783838383838,0,0
-144.7196661575,-106.26025071552,20.588268826883,1369066.3350325,-2756.2586502427,2804177.4975371,25.788268826883,0,0
-144.71966605092,-106.27460481839,20.592699269927,1369066.3350325,-2756.2586502427,2804177.4975371,25.792699269927,0,0
-144.71966594434,-106.28895892127,20.597129712971,1369066.3350325,-2756.2586502427,2804177.4975371,25.797129712971,0,0
-144.71966583776,-106.30331302414,20.601560156016,1369066.3350325,-2756.2586502427,2804177.4975371,25.801560156016,0,0
-144.71966573118,-106.31766712702,20.60599059906,1369066.3350325,-2756.2586502427,2804177.4975371,25.80599059906,0,0
-144.71966562459,-106.33202122989,20.610421042104,1369066.3350325,-2756.2586502427,2804177.4975371,25.810421042104,0,0
-144.71966551801,-106.34637533277,20.614851485149,1369066.3350325,-2756.2586502427,2804177.4975371,25.814851485149,0,0
-144.71966541143,-106.36072943564,20.619281928193,1369066.3350325,-2756.2586502427,2804177.4975371,25.819281928193,0,0
-144.71966530485,-106.37508353852,20.623712371237,1369066.3350325,-2756.2586502427,2804177.4975371,25.823712371237,0,0
-144.71966519827,-106.38943764139,20.628142814281,1369066.3350325,-2756.2586502427,2804177.4975371,25.828142814281,0,0
-144.71966509169,-106.40379174427,20.632573257326,1369066.3350325,-2756.2586502427,2804177.4975371,25.832573257326,0,0
-144.71966498511,-106.41814584714,20.63700370037,1369066.3350325,-2756.2586502427,2804177.4975371,25.83700370037,0,0
-144.71966487852,-106.43249995001,20.641434143414,1369066.3350325,-2756.2586502427,2804177.4975371,25.841434143414,0,0
-144.71966477194,-106.44685405289,20.645864586459,1369066.3350325,-2756.2586502427,2804177.4975371,25.845864586459,0,0
-144.71966466536,-106.46120815576,20.650295029503,1369066.3350325,-2756.2586502427,2804177.4975371,25.850295029503,0,0
-144.71966455878,-106.47556225864,20.654725472547,1369066.3350325,-2756.2586502427,2804177.4975371,25.854725472547,0,0
-144.7196644522,-106.48991636151,20.659155915592,1369066.3350325,-2756.2586502427,2804177.4975371,25.859155915592,0,0
-144.71966434562,-106.50427046439,20.663586358636,1369066.3350325,-2756.2586502427,2804177.4975371,25.863586358636,0,0
-144.71966423904,-106.51862456726,20.66801680168,1369066.3350325,-2756.2586502427,2804177.4975371,25.86801680168,0,0
-144.71966413245,-106.53297867014,20.672447244724,1369066.3350325,-2756.2586502427,2804177.4975371,25.872447244724,0,0
-144.71966402587,-106.54733277301,20.676877687769,1369066.3350325,-2756.2586502427,2804177.4975371,25.876877687769,0,0
-144.71966391929,-106.56168687589,20.681308130813,1369066.3350325,-2756.2586502427,2804177.4975371,25.881308130813,0,0
-144.71966381271,-106.57604097876,20.685738573857,1369066.3350325,-2756.2586502427,2804177.4975371,25.885738573857,0,0
-144.71966370613,-106.59039508163,20.690169016902,1369066.3350325,-2756.2586502427,2804177.4975371,25.890169016902,0,0
-144.71966359955,-106.60474918451,20.694599459946,1369066.3350325,-2756.2586502427,2804177.4975371,25.894599459946,0,0
-144.71966349297,-106.61910328738,20.69902990299,1369066.3350325,-2756.2586502427,2804177.4975371,25.89902990299,0,0
-144.71966338638,-106.63345739026,20.703460346035,1369066.3350325,-2756.2586502427,2804177.4975371,25.903460346035,0,0
-144.7196632798,-106.64781149313,20.707890789079,1369066.3350325,-2756.2586502427,2804177.4975371,25.907890789079,0,0
-144.71966317322,-106.66216559601,20.712321232123,1369066.3350325,-2756.2586502427,2804177.4975371,25.912321232123,0,0
-144.71966306664,-106.67651969888,20.716751675168,1369066.3350325,-2756.2586502427,2804177.4975371,25.916751675168,0,0
-144.71966296006,-106.69087380176,20.721182118212,1369066.3350325,-2756.2586502427,2804177.4975371,25.921182118212,0,0
-144.71966285348,-106.70522790463,20.725612561256,1369066.3350325,-2756.2586502427,2804177.4975371,25.925612561256,0,0
-144.71966274689,-106.71958200751,20.7300430043,1369066.3350325,-2756.2586502427,2804177.4975371,25.9300430043,0,0
-144.71966264031,-106.73393611038,20.734473447345,1369066.3350325,-2756.2586502427,2804177.4975371,25.934473447345,0,0
-144.71966253373,-106.74829021325,20.738903890389,1369066.3350325,-2756.2586502427,2804177.4975371,25.938903890389,0,0
-144.71966242715,-106.76264431613,20.743334333433,1369066.3350325,-2756.2586502427,2804177.4975371,25.943334333433,0,0
-144.71966232057,-106.776998419,20.747764776478,1369066.3350325,-2756.2586502427,2804177.4975371,25.947764776478,0,0
-144.71966221399,-106.79135252188,20.752195219522,1369066.3350325,-2756.2586502427,2804177.4975371,25.952195219522,0,0
-144.71966210741,-106.80570662475,20.756625662566,1369066.3350325,-2756.2586502427,2804177.4975371,25.956625662566,0,0
-144.71966200082,-106.82006072763,20.761056105611,1369066.3350325,-2756.2586502427,2804177.4975371,25.961056105611,0,0
-144.71966189424,-106.8344148305,20.765486548655,1369066.3350325,-2756.2586502427,2804177.4975371,25.965486548655,0,0
-144.71966178766,-106.84876893338,20.769916991699,1369066.3350325,-2756.2586502427,2804177.4975371,25.969916991699,0,0
-144.71966168108,-106.86312303625,20.774347434743,1369066.3350325,-2756.2586502427,2804177.4975371,25.974347434743,0,0
-144.7196615745,-106.87747713913,20.778777877788,1369066.3350325,-2756.2586502427,2804177.4975371,25.978777877788,0,0
-144.71966146792,-106.891831242,20.783208320832,1369066.3350325,-2756.2586502427,2804177.4975371,25.983208320832,0,0
-144.71966136134,-106.90618534487,20.787638763876,1369066.3350325,-2756.2586502427,2804177.4975371,25.987638763876,0,0
-144.71966125475,-106.92053944775,20.792069206921,1369066.3350325,-2756.2586502427,2804177.4975371,25.992069206921,0,0
-144.71966114817,-106.93489355062,20.796499649965,1369066.3350325,-2756.2586502427,2804177.4975371,25.996499649965,0,0
-144.71966104159,-106.9492476535,20.800930093009,1369066.3350325,-2756.2586502427,2804177.4975371,26.000930093009,0,0
-144.71966093501,-106.96360175637,20.805360536054,1369066.3350325,-2756.2586502427,2804177.4975371,26.005360536054,0,0
-144.71966082843,-106.97795585925,20.809790979098,1369066.3350325,-2756.2586502427,2804177.4975371,26.009790979098,0,0
-144.71966072185,-106.99230996212,20.814221422142,1369066.3350325,-2756.2586502427,2804177.4975371,26.014221422142,0,0
-144.71966061527,-107.006664065,20.818651865187,1369066.3350325,-2756.2586502427,2804177.4975371,26.018651865187,0,0
-144.71966050868,-107.02101816787,20.823082308231,1369066.3350325,-2756.2586502427,2804177.4975371,26.023082308231,0,0
-144.7196604021,-107.03537227075,20.827512751275,1369066.3350325,-2756.2586502427,2804177.4975371,26.027512751275,0,0
-144.71966029552,-107.04972637362,20.831943194319,1369066.3350325,-2756.2586502427,2804177.4975371,26.031943194319,0,0
-144.71966018894,-107.06408047649,20.836373637364,1369066.3350325,-2756.2586502427,2804177.4975371,26.036373637364,0,0
-144.71966008236,-107.07843457937,20.840804080408,1369066.3350325,-2756.2586502427,2804177.4975371,26.040804080408,0,0
-144.71965997578,-107.09278868224,20.845234523452,1369066.3350325,-2756.2586502427,2804177.4975371,26.045234523452,0,0
-144.71965986919,-107.10714278512,20.849664966497,1369066.3350325,-2756.2586502427,2804177.4975371,26.049664966497,0,0
-144.71965976261,-107.12149688799,20.854095409541,1369066.3350325,-2756.2586502427,2804177.4975371,26.054095409541,0,0
-144.71965965603,-107.13585099087,20.858525852585,1369066.3350325,-2756.2586502427,2804177.4975371,26.058525852585,0,0
-144.71965954945,-107.15020509374,20.86295629563,1369066.3350325,-2756.2586502427,2804177.4975371,26.06295629563,0,0
-144.71965944287,-107.16455919662,20.867386738674,1369066.3350325,-2756.2586502427,2804177.4975371,26.067386738674,0,0
-144.71965933629,-107.17891329949,20.871817181718,1369066.3350325,-2756.2586502427,2804177.4975371,26.071817181718,0,0
-144.71965922971,-107.19326740237,20.876247624762,1369066.3350325,-2756.2586502427,2804177.4975371,26.076247624762,0,0
-144.71965912312,-107.20762150524,20.880678067807,1369066.3350325,-2756.2586502427,2804177.4975371,26.080678067807,0,0
-144.71965901654,-107.22197560811,20.885108510851,1369066.3350325,-2756.2586502427,2804177.4975371,26.085108510851,0,0
-144.71965890996,-107.23632971099,20.889538953895,1369066.3350325,-2756.2586502427,2804177.4975371,26.089538953895,0,0
-144.71965880338,-107.25068381386,20.89396939694,1369066.3350325,-2756.2586502427,2804177.4975371,26.09396939694,0,0
-144.7196586968,-107.26503791674,20.898399839984,1369066.3350325,-2756.2586502427,2804177.4975371,26.098399839984,0,0
-144.71965859022,-107.27939201961,20.902830283028,1369066.3350325,-2756.2586502427,2804177.4975371,26.102830283028,0,0
-144.71965848364,-107.29374612249,20.907260726073,1369066.3350325,-2756.2586502427,2804177.4975371,26.107260726073,0,0
-144.71965837705,-107.30810022536,20.911691169117,1369066.3350325,-2756.2586502427,2804177.4975371,26.111691169117,0,0
-144.71965827047,-107.32245432824,20.916121612161,1369066.3350325,-2756.2586502427,2804177.4975371,26.116121612161,0,0
-144.71965816389,-107.33680843111,20.920552055206,1369066.3350325,-2756.2586502427,2804177.4975371,26.120552055206,0,0
-144.71965805731,-107.35116253399,20.92498249825,1369066.3350325,-2756.2586502427,2804177.4975371,26.12498249825,0,0
-144.71965795073,-107.36551663686,20.929412941294,1369066.3350325,-2756.2586502427,2804177.4975371,26.129412941294,0,0
-144.71965784415,-107.37987073973,20.933843384338,1369066.3350325,-2756.2586502427,2804177.4975371,26.133843384338,0,0
-144.71965773757,-107.39422484261,20.938273827383,1369066.3350325,-2756.2586502427,2804177.4975371,26.138273827383,0,0
-144.71965763098,-107.40857894548,20.942704270427,1369066.3350325,-2756.2586502427,2804177.4975371,26.142704270427,0,0
-144.7196575244,-107.42293304836,20.947134713471,1369066.3350325,-2756.2586502427,2804177.4975371,26.147134713471,0,0
-144.71965741782,-107.43728715123,20.951565156516,1369066.3350325,-2756.2586502427,2804177.4975371,26.151565156516,0,0
-144.71965731124,-107.45164125411,20.95599559956,1369066.3350325,-2756.2586502427,2804177.4975371,26.15599559956,0,0
-144.71965720466,-107.46599535698,20.960426042604,1369066.3350325,-2756.2586502427,2804177.4975371,26.160426042604,0,0
-144.71965709808,-107.48034945986,20.964856485649,1369066.3350325,-2756.2586502427,2804177.4975371,26.164856485649,0,0
-144.71965699149,-107.49470356273,20.969286928693,1369066.3350325,-2756.2586502427,2804177.4975371,26.169286928693,0,0
-144.71965688491,-107.50905766561,20.973717371737,1369066.3350325,-2756.2586502427,2804177.4975371,26.173717371737,0,0
-144.71965677833,-107.52341176848,20.978147814781,1369066.3350325,-2756.2586502427,2804177.4975371,26.178147814781,0,0
-144.71965667175,-107.53776587135,20.982578257826,1368531.0912614,1041.8600162666,2800159.8926857,26.182578257826,0,0
-144.7196565651,-107.55211997339,20.98700870087,1368531.0912614,1041.8600162666,2800159.8926857,26.18700870087,0,0
-144.71965645846,-107.56647407543,20.991439143914,1368531.0912614,1041.8600162666,2800159.8926857,26.191439143914,0,0
-144.71965635181,-107.58082817747,20.995869586959,1368531.0912614,1041.8600162666,2800159.8926857,26.195869586959,0,0
-144.71965624517,-107.59518227951,21.000300030003,1368531.0912614,1041.8600162666,2800159.8926857,26.200300030003,0,0
-144.71965613852,-107.60953638155,21.004730473047,1368531.0912614,1041.8600162666,2800159.8926857,26.204730473047,0,0
-144.71965603188,-107.6238904836,21.009160916092,1368531.0912614,1041.8600162666,2800159.8926857,26.209160916092,0,0
-144.71965592523,-107.63824458564,21.013591359136,1368531.0912614,1041.8600162666,2800159.8926857,26.213591359136,0,0
-144.71965581858,-107.65259868768,21.01802180218,1368531.0912614,1041.8600162666,2800159.8926857,26.21802180218,0,0
-144.71965571194,-107.66695278972,21.022452245225,1368531.0912614,1041.8600162666,2800159.8926857,26.222452245225,0,0
-144.71965560529,-107.68130689176,21.026882688269,1368531.0912614,1041.8600162666,2800159.8926857,26.226882688269,0,0
-144.71965549865,-107.69566099381,21.031313131313,1368531.0912614,1041.8600162666,2800159.8926857,26.231313131313,0,0
-144.719655392,-107.71001509585,21.035743574357,1368531.0912614,1041.8600162666,2800159.8926857,26.235743574357,0,0
-144.71965528536,-107.72436919789,21.040174017402,1368531.0912614,1041.8600162666,2800159.8926857,26.240174017402,0,0
-144.71965517871,-107.73872329993,21.044604460446,1368531.0912614,1041.8600162666,2800159.8926857,26.244604460446,0,0
-144.71965507206,-107.75307740197,21.04903490349,1368531.0912614,1041.8600162666,2800159.8926857,26.24903490349,0,0
-144.71965496542,-107.76743150402,21.053465346535,1368531.0912614,1041.8600162666,2800159.8926857,26.253465346535,0,0
-144.71965485877,-107.78178560606,21.057895789579,1368531.0912614,1041.8600162666,2800159.8926857,26.257895789579,0,0
-144.71965475213,-107.7961397081,21.062326232623,1368531.0912614,1041.8600162666,2800159.8926857,26.262326232623,0,0
-144.71965464548,-107.81049381014,21.066756675668,1368531.0912614,1041.8600162666,2800159.8926857,26.266756675668,0,0
-144.71965453884,-107.82484791218,21.071187118712,1368531.0912614,1041.8600162666,2800159.8926857,26.271187118712,0,0
-144.71965443219,-107.83920201423,21.075617561756,1368531.0912614,1041.8600162666,2800159.8926857,26.275617561756,0,0
-144.71965432554,-107.85355611627,21.0800480048,1368531.0912614,1041.8600162666,2800159.8926857,26.2800480048,0,0
-144.7196542189,-107.86791021831,21.084478447845,1368531.0912614,1041.8600162666,2800159.8926857,26.284478447845,0,0
-144.71965411225,-107.88226432035,21.088908890889,1368531.0912614,1041.8600162666,2800159.8926857,26.288908890889,0,0
-144.71965400561,-107.89661842239,21.093339333933,1368531.0912614,1041.8600162666,2800159.8926857,26.293339333933,0,0
-144.71965389896,-107.91097252443,21.097769776978,1368531.0912614,1041.8600162666,2800159.8926857,26.297769776978,0,0
-144.71965379232,-107.92532662648,21.102200220022,1368531.0912614,1041.8600162666,2800159.8926857,26.302200220022,0,0
-144.71965368567,-107.93968072852,21.106630663066,1368531.0912614,1041.8600162666,2800159.8926857,26.306630663066,0,0
-144.71965357902,-107.95403483056,21.111061106111,1368531.0912614,1041.8600162666,2800159.8926857,26.311061106111,0,0
-144.71965347238,-107.9683889326,21.115491549155,1368531.0912614,1041.8600162666,2800159.8926857,26.315491549155,0,0
-144.71965336573,-107.98274303464,21.119921992199,1368531.0912614,1041.8600162666,2800159.8926857,26.319921992199,0,0
-144.71965325909,-107.99709713669,21.124352435244,1368531.0912614,1041.8600162666,2800159.8926857,26.324352435244,0,0
-144.71965315244,-108.01145123873,21.128782878288,1368531.0912614,1041.8600162666,2800159.8926857,26.328782878288,0,0
-144.7196530458,-108.02580534077,21.133213321332,1368531.0912614,1041.8600162666,2800159.8926857,26.333213321332,0,0
-144.71965293915,-108.04015944281,21.137643764376,1368531.0912614,1041.8600162666,2800159.8926857,26.337643764376,0,0
-144.7196528325,-108.05451354485,21.142074207421,1368531.0912614,1041.8600162666,2800159.8926857,26.342074207421,0,0
-144.71965272586,-108.0688676469,21.146504650465,1368531.0912614,1041.8600162666,2800159.8926857,26.346504650465,0,0
-144.71965261921,-108.08322174894,21.150935093509,1368531.0912614,1041.8600162666,2800159.8926857,26.350935093509,0,0
-144.71965251257,-108.09757585098,21.155365536554,1368531.0912614,1041.8600162666,2800159.8926857,26.355365536554,0,0
-144.71965240592,-108.11192995302,21.159795979598,1368531.0912614,1041.8600162666,2800159.8926857,26.359795979598,0,0
-144.71965229928,-108.12628405506,21.164226422642,1368531.0912614,1041.8600162666,2800159.8926857,26.364226422642,0,0
-144.71965219256,-108.14063815766,21.168656865687,1367585.4669665,-2391.0368347856,2793846.6678315,26.368656865687,0,0
-144.71965208583,-108.15499226049,21.173087308731,1367585.4669665,-2391.0368347856,2793846.6678315,26.373087308731,0,0
-144.71965197909,-108.16934636332,21.177517751775,1367585.4669665,-2391.0368347856,2793846.6678315,26.377517751775,0,0
-144.71965187235,-108.18370046615,21.181948194819,1367585.4669665,-2391.0368347856,2793846.6678315,26.381948194819,0,0
-144.71965176561,-108.19805456898,21.186378637864,1367585.4669665,-2391.0368347856,2793846.6678315,26.386378637864,0,0
-144.71965165887,-108.21240867181,21.190809080908,1367585.4669665,-2391.0368347856,2793846.6678315,26.390809080908,0,0
-144.71965155214,-108.22676277464,21.195239523952,1367585.4669665,-2391.0368347856,2793846.6678315,26.395239523952,0,0
-144.7196514454,-108.24111687747,21.199669966997,1367585.4669665,-2391.0368347856,2793846.6678315,26.399669966997,0,0
-144.71965133866,-108.2554709803,21.204100410041,1367585.4669665,-2391.0368347856,2793846.6678315,26.404100410041,0,0
-144.71965123192,-108.26982508313,21.208530853085,1367585.4669665,-2391.0368347856,2793846.6678315,26.408530853085,0,0
-144.71965112518,-108.28417918596,21.21296129613,1367585.4669665,-2391.0368347856,2793846.6678315,26.41296129613,0,0
-144.71965101844,-108.29853328879,21.217391739174,1367585.4669665,-2391.0368347856,2793846.6678315,26.417391739174,0,0
-144.71965091171,-108.31288739161,21.221822182218,1367585.4669665,-2391.0368347856,2793846.6678315,26.421822182218,0,0
-144.71965080497,-108.32724149444,21.226252625263,1367585.4669665,-2391.0368347856,2793846.6678315,26.426252625263,0,0
-144.71965069823,-108.34159559727,21.230683068307,1367585.4669665,-2391.0368347856,2793846.6678315,26.430683068307,0,0
-144.71965059149,-108.3559497001,21.235113511351,1367585.4669665,-2391.0368347856,2793846.6678315,26.435113511351,0,0
-144.71965048475,-108.37030380293,21.239543954395,1367585.4669665,-2391.0368347856,2793846.6678315,26.439543954395,0,0
-144.71965037801,-108.38465790576,21.24397439744,1367585.4669665,-2391.0368347856,2793846.6678315,26.44397439744,0,0
-144.71965027128,-108.39901200859,21.248404840484,1367585.4669665,-2391.0368347856,2793846.6678315,26.448404840484,0,0
-144.71965016454,-108.41336611142,21.252835283528,1367585.4669665,-2391.0368347856,2793846.6678315,26.452835283528,0,0
-144.7196500578,-108.42772021425,21.257265726573,1367585.4669665,-2391.0368347856,2793846.6678315,26.457265726573,0,0
-144.71964995106,-108.44207431708,21.261696169617,1367585.4669665,-2391.0368347856,2793846.6678315,26.461696169617,0,0
-144.71964984432,-108.45642841991,21.266126612661,1367585.4669665,-2391.0368347856,2793846.6678315,26.466126612661,0,0
-144.71964973758,-108.47078252274,21.270557055706,1367585.4669665,-2391.0368347856,2793846.6678315,26.470557055706,0,0
-144.71964963085,-108.48513662557,21.27498749875,1367585.4669665,-2391.0368347856,2793846.6678315,26.47498749875,0,0
-144.71964952411,-108.4994907284,21.279417941794,1367585.4669665,-2391.0368347856,2793846.6678315,26.479417941794,0,0
-144.71964941737,-108.51384483123,21.283848384838,1367585.4669665,-2391.0368347856,2793846.6678315,26.483848384838,0,0
-144.71964931063,-108.52819893406,21.288278827883,1367585.4669665,-2391.0368347856,2793846.6678315,26.488278827883,0,0
-144.71964920389,-108.54255303689,21.292709270927,1367585.4669665,-2391.0368347856,2793846.6678315,26.492709270927,0,0
-144.71964909716,-108.55690713971,21.297139713971,1367585.4669665,-2391.0368347856,2793846.6678315,26.497139713971,0,0
-144.71964899042,-108.57126124254,21.301570157016,1367585.4669665,-2391.0368347856,2793846.6678315,26.501570157016,0,0
-144.71964888368,-108.58561534537,21.30600060006,1367585.4669665,-2391.0368347856,2793846.6678315,26.50600060006,0,0
-144.71964877694,-108.5999694482,21.310431043104,1367585.4669665,-2391.0368347856,2793846.6678315,26.510431043104,0,0
-144.7196486702,-108.61432355103,21.314861486149,1367585.4669665,-2391.0368347856,2793846.6678315,26.514861486149,0,0
-144.71964856346,-108.62867765386,21.319291929193,1367585.4669665,-2391.0368347856,2793846.6678315,26.519291929193,0,0
-144.71964845673,-108.64303175669,21.323722372237,1367585.4669665,-2391.0368347856,2793846.6678315,26.523722372237,0,0
-144.71964834999,-108.65738585952,21.328152815282,1367585.4669665,-2391.0368347856,2793846.6678315,26.528152815282,0,0
-144.71964824325,-108.67173996235,21.332583258326,1367585.4669665,-2391.0368347856,2793846.6678315,26.532583258326,0,0
-144.71964813651,-108.68609406518,21.33701370137,1367585.4669665,-2391.0368347856,2793846.6678315,26.53701370137,0,0
-144.71964802977,-108.70044816801,21.341444144414,1367585.4669665,-2391.0368347856,2793846.6678315,26.541444144414,0,0
-144.71964792303,-108.71480227084,21.345874587459,1367585.4669665,-2391.0368347856,2793846.6678315,26.545874587459,0,0
-144.7196478163,-108.72915637367,21.350305030503,1367585.4669665,-2391.0368347856,2793846.6678315,26.550305030503,0,0
-144.71964770956,-108.7435104765,21.354735473547,1367585.4669665,-2391.0368347856,2793846.6678315,26.554735473547,0,0
-144.71964760282,-108.75786457933,21.359165916592,1367585.4669665,-2391.0368347856,2793846.6678315,26.559165916592,0,0
-144.71964749608,-108.77221868216,21.363596359636,1367585.4669665,-2391.0368347856,2793846.6678315,26.563596359636,0,0
-144.71964738934,-108.78657278499,21.36802680268,1367585.4669665,-2391.0368347856,2793846.6678315,26.56802680268,0,0
-144.7196472826,-108.80092688781,21.372457245725,1367585.4669665,-2391.0368347856,2793846.6678315,26.572457245725,0,0
-144.71964717587,-108.81528099064,21.376887688769,1367585.4669665,-2391.0368347856,2793846.6678315,26.576887688769,0,0
-144.71964706913,-108.82963509347,21.381318131813,1367585.4669665,-2391.0368347856,2793846.6678315,26.581318131813,0,0
-144.71964696239,-108.8439891963,21.385748574857,1367585.4669665,-2391.0368347856,2793846.6678315,26.585748574857,0,0
-144.71964685565,-108.85834329913,21.390179017902,1367585.4669665,-2391.0368347856,2793846.6678315,26.590179017902,0,0
-144.71964674891,-108.87269740196,21.394609460946,1367585.4669665,-2391.0368347856,2793846.6678315,26.594609460946,0,0
-144.71964664218,-108.88705150479,21.39903990399,1367585.4669665,-2391.0368347856,2793846.6678315,26.59903990399,0,0
-144.71964653544,-108.90140560762,21.403470347035,1367585.4669665,-2391.0368347856,2793846.6678315,26.603470347035,0,0
-144.7196464287,-108.91575971045,21.407900790079,1367585.4669665,-2391.0368347856,2793846.6678315,26.607900790079,0,0
-144.71964632196,-108.93011381328,21.412331233123,1367585.4669665,-2391.0368347856,2793846.6678315,26.612331233123,0,0
-144.71964621522,-108.94446791611,21.416761676168,1367585.4669665,-2391.0368347856,2793846.6678315,26.616761676168,0,0
-144.71964610848,-108.95882201894,21.421192119212,1367585.4669665,-2391.0368347856,2793846.6678315,26.621192119212,0,0
-144.71964600175,-108.97317612177,21.425622562256,1367585.4669665,-2391.0368347856,2793846.6678315,26.625622562256,0,0
-144.71964589501,-108.9875302246,21.430053005301,1367585.4669665,-2391.0368347856,2793846.6678315,26.630053005301,0,0
-144.71964578827,-109.00188432743,21.434483448345,1367585.4669665,-2391.0368347856,2793846.6678315,26.634483448345,0,0
-144.71964568153,-109.01623843026,21.438913891389,1367585.4669665,-2391.0368347856,2793846.6678315,26.638913891389,0,0
-144.71964557479,-109.03059253309,21.443344334433,1367585.4669665,-2391.0368347856,2793846.6678315,26.643344334433,0,0
-144.71964546805,-109.04494663591,21.447774777478,1367585.4669665,-2391.0368347856,2793846.6678315,26.647774777478,0,0
-144.71964536132,-109.05930073874,21.452205220522,1367585.4669665,-2391.0368347856,2793846.6678315,26.652205220522,0,0
-144.71964525458,-109.07365484157,21.456635663566,1367585.4669665,-2391.0368347856,2793846.6678315,26.656635663566,0,0
-144.71964514784,-109.0880089444,21.461066106611,1367585.4669665,-2391.0368347856,2793846.6678315,26.661066106611,0,0
-144.7196450411,-109.10236304723,21.465496549655,1367585.4669665,-2391.0368347856,2793846.6678315,26.665496549655,0,0
-144.71964493436,-109.11671715006,21.469926992699,1367585.4669665,-2391.0368347856,2793846.6678315,26.669926992699,0,0
-144.71964482762,-109.13107125289,21.474357435744,1367585.4669665,-2391.0368347856,2793846.6678315,26.674357435744,0,0
-144.71964472089,-109.14542535572,21.478787878788,1367585.4669665,-2391.0368347856,2793846.6678315,26.678787878788,0,0
-144.71964461415,-109.15977945855,21.483218321832,1367585.4669665,-2391.0368347856,2793846.6678315,26.683218321832,0,0
-144.71964450741,-109.17413356138,21.487648764876,1367585.4669665,-2391.0368347856,2793846.6678315,26.687648764876,0,0
-144.71964440067,-109.18848766421,21.492079207921,1367585.4669665,-2391.0368347856,2793846.6678315,26.692079207921,0,0
-144.71964429393,-109.20284176704,21.496509650965,1367585.4669665,-2391.0368347856,2793846.6678315,26.696509650965,0,0
-144.7196441872,-109.21719586987,21.500940094009,1367585.4669665,-2391.0368347856,2793846.6678315,26.700940094009,0,0
-144.71964408046,-109.2315499727,21.505370537054,1367585.4669665,-2391.0368347856,2793846.6678315,26.705370537054,0,0
-144.71964397372,-109.24590407553,21.509800980098,1367585.4669665,-2391.0368347856,2793846.6678315,26.709800980098,0,0
-144.71964386698,-109.26025817836,21.514231423142,1367585.4669665,-2391.0368347856,2793846.6678315,26.714231423142,0,0
-144.71964376024,-109.27461228119,21.518661866187,1367585.4669665,-2391.0368347856,2793846.6678315,26.718661866187,0,0
-144.7196436535,-109.28896638401,21.523092309231,1367585.4669665,-2391.0368347856,2793846.6678315,26.723092309231,0,0
-144.71964354677,-109.30332048684,21.527522752275,1367585.4669665,-2391.0368347856,2793846.6678315,26.727522752275,0,0
-144.71964344003,-109.31767458967,21.53195319532,1367585.4669665,-2391.0368347856,2793846.6678315,26.73195319532,0,0
-144.71964333329,-109.3320286925,21.536383638364,1367585.4669665,-2391.0368347856,2793846.6678315,26.736383638364,0,0
-144.71964322655,-109.34638279533,21.540814081408,1367585.4669665,-2391.0368347856,2793846.6678315,26.740814081408,0,0
-144.71964311981,-109.36073689816,21.545244524452,1367585.4669665,-2391.0368347856,2793846.6678315,26.745244524452,0,0
-144.71964301307,-109.37509100099,21.549674967497,1367585.4669665,-2391.0368347856,2793846.6678315,26.749674967497,0,0
-144.71964290634,-109.38944510382,21.554105410541,1367585.4669665,-2391.0368347856,2793846.6678315,26.754105410541,0,0
-144.7196427996,-109.40379920665,21.558535853585,1367585.4669665,-2391.0368347856,2793846.6678315,26.758535853585,0,0
-144.71964269286,-109.41815330948,21.56296629663,1367585.4669665,-2391.0368347856,2793846.6678315,26.76296629663,0,0
-144.71964258612,-109.43250741231,21.567396739674,1367585.4669665,-2391.0368347856,2793846.6678315,26.767396739674,0,0
-144.71964247938,-109.44686151514,21.571827182718,1367585.4669665,-2391.0368347856,2793846.6678315,26.771827182718,0,0
-144.71964237264,-109.46121561797,21.576257625763,1367585.4669665,-2391.0368347856,2793846.6678315,26.776257625763,0,0
-144.71964226591,-109.4755697208,21.580688068807,1367585.4669665,-2391.0368347856,2793846.6678315,26.780688068807,0,0
-144.71964215917,-109.48992382363,21.585118511851,1367585.4669665,-2391.0368347856,2793846.6678315,26.785118511851,0,0
-144.71964205243,-109.50427792646,21.589548954895,1367585.4669665,-2391.0368347856,2793846.6678315,26.789548954895,0,0
-144.71964194569,-109.51863202929,21.59397939794,1367585.4669665,-2391.0368347856,2793846.6678315,26.79397939794,0,0
-144.71964183895,-109.53298613211,21.598409840984,1367585.4669665,-2391.0368347856,2793846.6678315,26.798409840984,0,0
-144.71964173222,-109.54734023494,21.602840284028,1367585.4669665,-2391.0368347856,2793846.6678315,26.802840284028,0,0
-144.71964162548,-109.56169433777,21.607270727073,1367585.4669665,-2391.0368347856,2793846.6678315,26.807270727073,0,0
-144.71964151874,-109.5760484406,21.611701170117,1367585.4669665,-2391.0368347856,2793846.6678315,26.811701170117,0,0
-144.719641412,-109.59040254343,21.616131613161,1367585.4669665,-2391.0368347856,2793846.6678315,26.816131613161,0,0
-144.71964130526,-109.60475664626,21.620562056206,1367585.4669665,-2391.0368347856,2793846.6678315,26.820562056206,0,0
-144.71964119852,-109.61911074909,21.62499249925,1367585.4669665,-2391.0368347856,2793846.6678315,26.82499249925,0,0
-144.71964109179,-109.63346485192,21.629422942294,1367585.4669665,-2391.0368347856,2793846.6678315,26.829422942294,0,0
-144.71964098505,-109.64781895475,21.633853385339,1367585.4669665,-2391.0368347856,2793846.6678315,26.833853385339,0,0
-144.71964087831,-109.66217305758,21.638283828383,1367585.4669665,-2391.0368347856,2793846.6678315,26.838283828383,0,0
-144.71964077157,-109.67652716041,21.642714271427,1367585.4669665,-2391.0368347856,2793846.6678315,26.842714271427,0,0
-144.71964066483,-109.69088126324,21.647144714471,1367585.4669665,-2391.0368347856,2793846.6678315,26.847144714471,0,0
-144.71964055809,-109.70523536607,21.651575157516,1367585.4669665,-2391.0368347856,2793846.6678315,26.851575157516,0,0
-144.71964045136,-109.7195894689,21.65600560056,1367585.4669665,-2391.0368347856,2793846.6678315,26.85600560056,0,0
-144.71964034462,-109.73394357173,21.660436043604,1367585.4669665,-2391.0368347856,2793846.6678315,26.860436043604,0,0
-144.71964023788,-109.74829767456,21.664866486649,1367585.4669665,-2391.0368347856,2793846.6678315,26.864866486649,0,0
-144.71964013114,-109.76265177739,21.669296929693,1367585.4669665,-2391.0368347856,2793846.6678315,26.869296929693,0,0
-144.7196400244,-109.77700588021,21.673727372737,1367585.4669665,-2391.0368347856,2793846.6678315,26.873727372737,0,0
-144.71963991766,-109.79135998304,21.678157815782,1367585.4669665,-2391.0368347856,2793846.6678315,26.878157815782,0,0
-144.71963981093,-109.80571408587,21.682588258826,1367585.4669665,-2391.0368347856,2793846.6678315,26.882588258826,0,0
-144.71963970419,-109.8200681887,21.68701870187,1367585.4669665,-2391.0368347856,2793846.6678315,26.88701870187,0,0
-144.71963959745,-109.83442229153,21.691449144914,1367585.4669665,-2391.0368347856,2793846.6678315,26.891449144914,0,0
-144.71963949071,-109.84877639436,21.695879587959,1367585.4669665,-2391.0368347856,2793846.6678315,26.895879587959,0,0
-144.71963938397,-109.86313049719,21.700310031003,1367585.4669665,-2391.0368347856,2793846.6678315,26.900310031003,0,0
-144.71963927724,-109.87748460002,21.704740474047,1367585.4669665,-2391.0368347856,2793846.6678315,26.904740474047,0,0
-144.7196391705,-109.89183870285,21.709170917092,1367585.4669665,-2391.0368347856,2793846.6678315,26.909170917092,0,0
-144.71963906376,-109.90619280568,21.713601360136,1367585.4669665,-2391.0368347856,2793846.6678315,26.913601360136,0,0
-144.71963895702,-109.92054690851,21.71803180318,1367585.4669665,-2391.0368347856,2793846.6678315,26.91803180318,0,0
-144.71963885028,-109.93490101134,21.722462246225,1367585.4669665,-2391.0368347856,2793846.6678315,26.922462246225,0,0
-144.71963874354,-109.94925511417,21.726892689269,1367585.4669665,-2391.0368347856,2793846.6678315,26.926892689269,0,0
-144.71963863681,-109.963609217,21.731323132313,1367585.4669665,-2391.0368347856,2793846.6678315,26.931323132313,0,0
-144.71963853007,-109.97796331983,21.735753575358,1367585.4669665,-2391.0368347856,2793846.6678315,26.935753575358,0,0
-144.71963842333,-109.99231742266,21.740184018402,1367585.4669665,-2391.0368347856,2793846.6678315,26.940184018402,0,0
-144.71963831659,-110.00667152549,21.744614461446,1367585.4669665,-2391.0368347856,2793846.6678315,26.944614461446,0,0
-144.71963820985,-110.02102562831,21.74904490449,1367585.4669665,-2391.0368347856,2793846.6678315,26.94904490449,0,0
-144.71963810311,-110.03537973114,21.753475347535,1367585.4669665,-2391.0368347856,2793846.6678315,26.953475347535,0,0
-144.71963799638,-110.04973383397,21.757905790579,1367585.4669665,-2391.0368347856,2793846.6678315,26.957905790579,0,0
-144.71963788964,-110.0640879368,21.762336233623,1367585.4669665,-2391.0368347856,2793846.6678315,26.962336233623,0,0
-144.7196377829,-110.07844203963,21.766766676668,1367585.4669665,-2391.0368347856,2793846.6678315,26.966766676668,0,0
-144.71963767616,-110.09279614246,21.771197119712,1367585.4669665,-2391.0368347856,2793846.6678315,26.971197119712,0,0
-144.71963756942,-110.10715024529,21.775627562756,1367585.4669665,-2391.0368347856,2793846.6678315,26.975627562756,0,0
-144.71963746268,-110.12150434812,21.780058005801,1367585.4669665,-2391.0368347856,2793846.6678315,26.980058005801,0,0
-144.71963735595,-110.13585845095,21.784488448845,1367585.4669665,-2391.0368347856,2793846.6678315,26.984488448845,0,0
-144.71963724921,-110.15021255378,21.788918891889,1367585.4669665,-2391.0368347856,2793846.6678315,26.988918891889,0,0
-144.71963714247,-110.16456665661,21.793349334933,1367585.4669665,-2391.0368347856,2793846.6678315,26.993349334933,0,0
-144.71963703573,-110.17892075944,21.797779777978,1367585.4669665,-2391.0368347856,2793846.6678315,26.997779777978,0,0
-144.71963692899,-110.19327486227,21.802210221022,1367585.4669665,-2391.0368347856,2793846.6678315,27.002210221022,0,0
-144.71963682226,-110.2076289651,21.806640664066,1367585.4669665,-2391.0368347856,2793846.6678315,27.006640664066,0,0
-144.71963671552,-110.22198306793,21.811071107111,1367585.4669665,-2391.0368347856,2793846.6678315,27.011071107111,0,0
-144.71963660878,-110.23633717076,21.815501550155,1367585.4669665,-2391.0368347856,2793846.6678315,27.015501550155,0,0
-144.71963650204,-110.25069127359,21.819931993199,1367585.4669665,-2391.0368347856,2793846.6678315,27.019931993199,0,0
-144.7196363953,-110.26504537641,21.824362436244,1367585.4669665,-2391.0368347856,2793846.6678315,27.024362436244,0,0
-144.71963628856,-110.27939947924,21.828792879288,1367585.4669665,-2391.0368347856,2793846.6678315,27.028792879288,0,0
-144.71963618183,-110.29375358207,21.833223322332,1367585.4669665,-2391.0368347856,2793846.6678315,27.033223322332,0,0
-144.71963607509,-110.3081076849,21.837653765377,1367585.4669665,-2391.0368347856,2793846.6678315,27.037653765377,0,0
-144.71963596835,-110.32246178773,21.842084208421,1367585.4669665,-2391.0368347856,2793846.6678315,27.042084208421,0,0
-144.71963586161,-110.33681589056,21.846514651465,1367585.4669665,-2391.0368347856,2793846.6678315,27.046514651465,0,0
-144.71963575487,-110.35116999339,21.850945094509,1367585.4669665,-2391.0368347856,2793846.6678315,27.050945094509,0,0
-144.71963564813,-110.36552409622,21.855375537554,1367585.4669665,-2391.0368347856,2793846.6678315,27.055375537554,0,0
-144.7196355414,-110.37987819905,21.859805980598,1367585.4669665,-2391.0368347856,2793846.6678315,27.059805980598,0,0
-144.71963543466,-110.39423230188,21.864236423642,1367585.4669665,-2391.0368347856,2793846.6678315,27.064236423642,0,0
-144.71963532792,-110.40858640471,21.868666866687,1367585.4669665,-2391.0368347856,2793846.6678315,27.068666866687,0,0
-144.71963522118,-110.42294050754,21.873097309731,1367585.4669665,-2391.0368347856,2793846.6678315,27.073097309731,0,0
-144.71963511444,-110.43729461037,21.877527752775,1367585.4669665,-2391.0368347856,2793846.6678315,27.077527752775,0,0
-144.7196350077,-110.4516487132,21.88195819582,1367585.4669665,-2391.0368347856,2793846.6678315,27.08195819582,0,0
-144.71963490097,-110.46600281603,21.886388638864,1367585.4669665,-2391.0368347856,2793846.6678315,27.086388638864,0,0
-144.71963479423,-110.48035691886,21.890819081908,1367585.4669665,-2391.0368347856,2793846.6678315,27.090819081908,0,0
-144.71963468749,-110.49471102169,21.895249524952,1367585.4669665,-2391.0368347856,2793846.6678315,27.095249524952,0,0
-144.71963458075,-110.50906512451,21.899679967997,1367585.4669665,-2391.0368347856,2793846.6678315,27.099679967997,0,0
-144.71963447401,-110.52341922734,21.904110411041,1367585.4669665,-2391.0368347856,2793846.6678315,27.104110411041,0,0
-144.71963436728,-110.53777333017,21.908540854085,1367585.4669665,-2391.0368347856,2793846.6678315,27.108540854085,0,0
-144.71963426054,-110.552127433,21.91297129713,1367585.4669665,-2391.0368347856,2793846.6678315,27.11297129713,0,0
-144.7196341538,-110.56648153583,21.917401740174,1367585.4669665,-2391.0368347856,2793846.6678315,27.117401740174,0,0
-144.71963404706,-110.58083563866,21.921832183218,1367585.4669665,-2391.0368347856,2793846.6678315,27.121832183218,0,0
-144.71963394032,-110.59518974149,21.926262626263,1367585.4669665,-2391.0368347856,2793846.6678315,27.126262626263,0,0
-144.71963383358,-110.60954384432,21.930693069307,1367585.4669665,-2391.0368347856,2793846.6678315,27.130693069307,0,0
-144.71963372685,-110.62389794715,21.935123512351,1367585.4669665,-2391.0368347856,2793846.6678315,27.135123512351,0,0
-144.71963362011,-110.63825204998,21.939553955396,1367585.4669665,-2391.0368347856,2793846.6678315,27.139553955396,0,0
-144.71963351337,-110.65260615281,21.94398439844,1367585.4669665,-2391.0368347856,2793846.6678315,27.14398439844,0,0
-144.71963340663,-110.66696025564,21.948414841484,1367585.4669665,-2391.0368347856,2793846.6678315,27.148414841484,0,0
-144.71963329989,-110.68131435847,21.952845284528,1367585.4669665,-2391.0368347856,2793846.6678315,27.152845284528,0,0
-144.71963319315,-110.6956684613,21.957275727573,1367585.4669665,-2391.0368347856,2793846.6678315,27.157275727573,0,0
-144.71963308642,-110.71002256413,21.961706170617,1367585.4669665,-2391.0368347856,2793846.6678315,27.161706170617,0,0
-144.71963297968,-110.72437666696,21.966136613661,1367585.4669665,-2391.0368347856,2793846.6678315,27.166136613661,0,0
-144.71963287294,-110.73873076979,21.970567056706,1367585.4669665,-2391.0368347856,2793846.6678315,27.170567056706,0,0
-144.7196327662,-110.75308487261,21.97499749975,1367585.4669665,-2391.0368347856,2793846.6678315,27.17499749975,0,0
-144.71963265946,-110.76743897544,21.979427942794,1367585.4669665,-2391.0368347856,2793846.6678315,27.179427942794,0,0
-144.71963255272,-110.78179307827,21.983858385839,1367585.4669665,-2391.0368347856,2793846.6678315,27.183858385839,0,0
-144.71963244599,-110.7961471811,21.988288828883,1367585.4669665,-2391.0368347856,2793846.6678315,27.188288828883,0,0
-144.71963233925,-110.81050128393,21.992719271927,1367585.4669665,-2391.0368347856,2793846.6678315,27.192719271927,0,0
-144.71963223251,-110.82485538676,21.997149714971,1367585.4669665,-2391.0368347856,2793846.6678315,27.197149714971,0,0
-144.71963212577,-110.83920948959,22.001580158016,1367585.4669665,-2391.0368347856,2793846.6678315,27.201580158016,0,0
-144.71963201903,-110.85356359242,22.00601060106,1367585.4669665,-2391.0368347856,2793846.6678315,27.20601060106,0,0
-144.7196319123,-110.86791769525,22.010441044104,1367585.4669665,-2391.0368347856,2793846.6678315,27.210441044104,0,0
-144.71963180556,-110.88227179808,22.014871487149,1367585.4669665,-2391.0368347856,2793846.6678315,27.214871487149,0,0
-144.71963169882,-110.89662590091,22.019301930193,1367585.4669665,-2391.0368347856,2793846.6678315,27.219301930193,0,0
-144.71963159208,-110.91098000374,22.023732373237,1367585.4669665,-2391.0368347856,2793846.6678315,27.223732373237,0,0
-144.71963148534,-110.92533410657,22.028162816282,1367585.4669665,-2391.0368347856,2793846.6678315,27.228162816282,0,0
-144.7196313786,-110.9396882094,22.032593259326,1367585.4669665,-2391.0368347856,2793846.6678315,27.232593259326,0,0
-144.71963127187,-110.95404231223,22.03702370237,1367585.4669665,-2391.0368347856,2793846.6678315,27.23702370237,0,0
-144.71963116513,-110.96839641506,22.041454145415,1367585.4669665,-2391.0368347856,2793846.6678315,27.241454145415,0,0
-144.71963105839,-110.98275051789,22.045884588459,1367585.4669665,-2391.0368347856,2793846.6678315,27.245884588459,0,0
-144.71963095165,-110.99710462071,22.050315031503,1367585.4669665,-2391.0368347856,2793846.6678315,27.250315031503,0,0
-144.71963084491,-111.01145872354,22.054745474547,1367585.4669665,-2391.0368347856,2793846.6678315,27.254745474547,0,0
-144.71963073817,-111.02581282637,22.059175917592,1367585.4669665,-2391.0368347856,2793846.6678315,27.259175917592,0,0
-144.71963063144,-111.0401669292,22.063606360636,1367585.4669665,-2391.0368347856,2793846.6678315,27.263606360636,0,0
-144.7196305247,-111.05452103203,22.06803680368,1367585.4669665,-2391.0368347856,2793846.6678315,27.26803680368,0,0
-144.71963041796,-111.06887513486,22.072467246725,1367585.4669665,-2391.0368347856,2793846.6678315,27.272467246725,0,0
-144.71963031122,-111.08322923769,22.076897689769,1367585.4669665,-2391.0368347856,2793846.6678315,27.276897689769,0,0
-144.71963020448,-111.09758334052,22.081328132813,1367585.4669665,-2391.0368347856,2793846.6678315,27.281328132813,0,0
-144.71963009775,-111.11193744335,22.085758575858,1367585.4669665,-2391.0368347856,2793846.6678315,27.285758575858,0,0
-144.71962999101,-111.12629154618,22.090189018902,1367585.4669665,-2391.0368347856,2793846.6678315,27.290189018902,0,0
-144.71962988427,-111.14064564901,22.094619461946,1367585.4669665,-2391.0368347856,2793846.6678315,27.294619461946,0,0
-144.71962977753,-111.15499975184,22.09904990499,1367585.4669665,-2391.0368347856,2793846.6678315,27.29904990499,0,0
-144.71962967079,-111.16935385467,22.103480348035,1367585.4669665,-2391.0368347856,2793846.6678315,27.303480348035,0,0
-144.71962956405,-111.1837079575,22.107910791079,1367585.4669665,-2391.0368347856,2793846.6678315,27.307910791079,0,0
-144.71962945732,-111.19806206033,22.112341234123,1367585.4669665,-2391.0368347856,2793846.6678315,27.312341234123,0,0
-144.71962935058,-111.21241616316,22.116771677168,1367585.4669665,-2391.0368347856,2793846.6678315,27.316771677168,0,0
-144.71962924384,-111.22677026599,22.121202120212,1367585.4669665,-2391.0368347856,2793846.6678315,27.321202120212,0,0
-144.7196291371,-111.24112436881,22.125632563256,1367585.4669665,-2391.0368347856,2793846.6678315,27.325632563256,0,0
-144.71962903036,-111.25547847164,22.130063006301,1367585.4669665,-2391.0368347856,2793846.6678315,27.330063006301,0,0
-144.71962892362,-111.26983257447,22.134493449345,1367585.4669665,-2391.0368347856,2793846.6678315,27.334493449345,0,0
-144.71962881689,-111.2841866773,22.138923892389,1367585.4669665,-2391.0368347856,2793846.6678315,27.338923892389,0,0
-144.71962871015,-111.29854078013,22.143354335434,1367585.4669665,-2391.0368347856,2793846.6678315,27.343354335434,0,0
-144.71962860341,-111.31289488296,22.147784778478,1367585.4669665,-2391.0368347856,2793846.6678315,27.347784778478,0,0
-144.71962849667,-111.32724898579,22.152215221522,1367585.4669665,-2391.0368347856,2793846.6678315,27.352215221522,0,0
-144.71962838993,-111.34160308862,22.156645664566,1367585.4669665,-2391.0368347856,2793846.6678315,27.356645664566,0,0
-144.71962828319,-111.35595719145,22.161076107611,1367585.4669665,-2391.0368347856,2793846.6678315,27.361076107611,0,0
-144.71962817646,-111.37031129428,22.165506550655,1367585.4669665,-2391.0368347856,2793846.6678315,27.365506550655,0,0
-144.71962806972,-111.38466539711,22.169936993699,1367585.4669665,-2391.0368347856,2793846.6678315,27.369936993699,0,0
-144.71962796298,-111.39901949994,22.174367436744,1367585.4669665,-2391.0368347856,2793846.6678315,27.374367436744,0,0
-144.71962785624,-111.41337360277,22.178797879788,1367585.4669665,-2391.0368347856,2793846.6678315,27.378797879788,0,0
-144.7196277495,-111.4277277056,22.183228322832,1367585.4669665,-2391.0368347856,2793846.6678315,27.383228322832,0,0
-144.71962764277,-111.44208180843,22.187658765877,1367585.4669665,-2391.0368347856,2793846.6678315,27.387658765877,0,0
-144.71962753603,-111.45643591126,22.192089208921,1367585.4669665,-2391.0368347856,2793846.6678315,27.392089208921,0,0
-144.71962742929,-111.47079001409,22.196519651965,1367585.4669665,-2391.0368347856,2793846.6678315,27.396519651965,0,0
-144.71962732255,-111.48514411691,22.200950095009,1367585.4669665,-2391.0368347856,2793846.6678315,27.400950095009,0,0
-144.71962721581,-111.49949821974,22.205380538054,1367585.4669665,-2391.0368347856,2793846.6678315,27.405380538054,0,0
-144.71962710907,-111.51385232257,22.209810981098,1367585.4669665,-2391.0368347856,2793846.6678315,27.409810981098,0,0
-144.71962700234,-111.5282064254,22.214241424142,1367585.4669665,-2391.0368347856,2793846.6678315,27.414241424142,0,0
-144.7196268956,-111.54256052823,22.218671867187,1367585.4669665,-2391.0368347856,2793846.6678315,27.418671867187,0,0
-144.71962678886,-111.55691463106,22.223102310231,1367585.4669665,-2391.0368347856,2793846.6678315,27.423102310231,0,0
-144.71962668212,-111.57126873389,22.227532753275,1367585.4669665,-2391.0368347856,2793846.6678315,27.427532753275,0,0
-144.71962657538,-111.58562283672,22.23196319632,1367585.4669665,-2391.0368347856,2793846.6678315,27.43196319632,0,0
-144.71962646864,-111.59997693955,22.236393639364,1367585.4669665,-2391.0368347856,2793846.6678315,27.436393639364,0,0
-144.71962636191,-111.61433104238,22.240824082408,1367585.4669665,-2391.0368347856,2793846.6678315,27.440824082408,0,0
-144.71962625517,-111.62868514521,22.245254525453,1367585.4669665,-2391.0368347856,2793846.6678315,27.445254525453,0,0
-144.71962614843,-111.64303924804,22.249684968497,1367585.4669665,-2391.0368347856,2793846.6678315,27.449684968497,0,0
-144.71962604169,-111.65739335087,22.254115411541,1367585.4669665,-2391.0368347856,2793846.6678315,27.454115411541,0,0
-144.71962593495,-111.6717474537,22.258545854585,1367585.4669665,-2391.0368347856,2793846.6678315,27.458545854585,0,0
-144.71962582821,-111.68610155653,22.26297629763,1367585.4669665,-2391.0368347856,2793846.6678315,27.46297629763,0,0
-144.71962572148,-111.70045565936,22.267406740674,1367585.4669665,-2391.0368347856,2793846.6678315,27.467406740674,0,0
-144.71962561474,-111.71480976219,22.271837183718,1367585.4669665,-2391.0368347856,2793846.6678315,27.471837183718,0,0
-144.719625508,-111.72916386501,22.276267626763,1367585.4669665,-2391.0368347856,2793846.6678315,27.476267626763,0,0
-144.71962540126,-111.74351796784,22.280698069807,1367585.4669665,-2391.0368347856,2793846.6678315,27.480698069807,0,0
-144.71962529452,-111.75787207067,22.285128512851,1367585.4669665,-2391.0368347856,2793846.6678315,27.485128512851,0,0
-144.71962518779,-111.7722261735,22.289558955896,1367585.4669665,-2391.0368347856,2793846.6678315,27.489558955896,0,0
-144.71962508105,-111.78658027633,22.29398939894,1367585.4669665,-2391.0368347856,2793846.6678315,27.49398939894,0,0
-144.71962497431,-111.80093437916,22.298419841984,1367585.4669665,-2391.0368347856,2793846.6678315,27.498419841984,0,0
-144.71962486757,-111.81528848199,22.302850285029,1367585.4669665,-2391.0368347856,2793846.6678315,27.502850285029,0,0
-144.71962476083,-111.82964258482,22.307280728073,1367585.4669665,-2391.0368347856,2793846.6678315,27.507280728073,0,0
-144.71962465409,-111.84399668765,22.311711171117,1367585.4669665,-2391.0368347856,2793846.6678315,27.511711171117,0,0
-144.71962454736,-111.85835079048,22.316141614161,1367585.4669665,-2391.0368347856,2793846.6678315,27.516141614161,0,0
-144.71962444062,-111.87270489331,22.320572057206,1367585.4669665,-2391.0368347856,2793846.6678315,27.520572057206,0,0
-144.71962433388,-111.88705899614,22.32500250025,1367585.4669665,-2391.0368347856,2793846.6678315,27.52500250025,0,0
-144.71962422714,-111.90141309897,22.329432943294,1367585.4669665,-2391.0368347856,2793846.6678315,27.529432943294,0,0
-144.7196241204,-111.9157672018,22.333863386339,1367585.4669665,-2391.0368347856,2793846.6678315,27.533863386339,0,0
-144.71962401366,-111.93012130463,22.338293829383,1367585.4669665,-2391.0368347856,2793846.6678315,27.538293829383,0,0
-144.71962390693,-111.94447540746,22.342724272427,1367585.4669665,-2391.0368347856,2793846.6678315,27.542724272427,0,0
-144.71962380019,-111.95882951029,22.347154715472,1367585.4669665,-2391.0368347856,2793846.6678315,27.547154715472,0,0
-144.71962369345,-111.97318361311,22.351585158516,1367585.4669665,-2391.0368347856,2793846.6678315,27.551585158516,0,0
-144.71962358671,-111.98753771594,22.35601560156,1367585.4669665,-2391.0368347856,2793846.6678315,27.55601560156,0,0
-144.71962347997,-112.00189181877,22.360446044604,1367585.4669665,-2391.0368347856,2793846.6678315,27.560446044604,0,0
-144.71962337323,-112.0162459216,22.364876487649,1367585.4669665,-2391.0368347856,2793846.6678315,27.564876487649,0,0
-144.7196232665,-112.03060002443,22.369306930693,1367585.4669665,-2391.0368347856,2793846.6678315,27.569306930693,0,0
-144.71962315976,-112.04495412726,22.373737373737,1367585.4669665,-2391.0368347856,2793846.6678315,27.573737373737,0,0
-144.71962305302,-112.05930823009,22.378167816782,1367585.4669665,-2391.0368347856,2793846.6678315,27.578167816782,0,0
-144.71962294628,-112.07366233292,22.382598259826,1367585.4669665,-2391.0368347856,2793846.6678315,27.582598259826,0,0
-144.71962283954,-112.08801643575,22.38702870287,1367585.4669665,-2391.0368347856,2793846.6678315,27.58702870287,0,0
-144.71962273281,-112.10237053858,22.391459145915,1367585.4669665,-2391.0368347856,2793846.6678315,27.591459145915,0,0
-144.71962262607,-112.11672464141,22.395889588959,1367585.4669665,-2391.0368347856,2793846.6678315,27.595889588959,0,0
-144.71962251933,-112.13107874424,22.400320032003,1367585.4669665,-2391.0368347856,2793846.6678315,27.600320032003,0,0
-144.71962241259,-112.14543284707,22.404750475048,1367585.4669665,-2391.0368347856,2793846.6678315,27.604750475048,0,0
-144.71962230585,-112.1597869499,22.409180918092,1367585.4669665,-2391.0368347856,2793846.6678315,27.609180918092,0,0
-144.71962219911,-112.17414105273,22.413611361136,1367585.4669665,-2391.0368347856,2793846.6678315,27.613611361136,0,0
-144.71962209238,-112.18849515556,22.41804180418,1367585.4669665,-2391.0368347856,2793846.6678315,27.61804180418,0,0
-144.71962198564,-112.20284925839,22.422472247225,1367585.4669665,-2391.0368347856,2793846.6678315,27.622472247225,0,0
-144.7196218789,-112.21720336121,22.426902690269,1367585.4669665,-2391.0368347856,2793846.6678315,27.626902690269,0,0
-144.71962177216,-112.23155746404,22.431333133313,1367585.4669665,-2391.0368347856,2793846.6678315,27.631333133313,0,0
-144.71962166542,-112.24591156687,22.435763576358,1367585.4669665,-2391.0368347856,2793846.6678315,27.635763576358,0,0
-144.71962155868,-112.2602656697,22.440194019402,1367585.4669665,-2391.0368347856,2793846.6678315,27.640194019402,0,0
-144.71962145195,-112.27461977253,22.444624462446,1367585.4669665,-2391.0368347856,2793846.6678315,27.644624462446,0,0
-144.71962134521,-112.28897387536,22.449054905491,1367585.4669665,-2391.0368347856,2793846.6678315,27.649054905491,0,0
-144.71962123847,-112.30332797819,22.453485348535,1367585.4669665,-2391.0368347856,2793846.6678315,27.653485348535,0,0
-144.71962113173,-112.31768208102,22.457915791579,1367585.4669665,-2391.0368347856,2793846.6678315,27.657915791579,0,0
-144.71962102499,-112.33203618385,22.462346234623,1367585.4669665,-2391.0368347856,2793846.6678315,27.662346234623,0,0
-144.71962091825,-112.34639028668,22.466776677668,1367585.4669665,-2391.0368347856,2793846.6678315,27.666776677668,0,0
-144.71962081152,-112.36074438951,22.471207120712,1367585.4669665,-2391.0368347856,2793846.6678315,27.671207120712,0,0
-144.71962070478,-112.37509849234,22.475637563756,1367585.4669665,-2391.0368347856,2793846.6678315,27.675637563756,0,0
-144.71962059804,-112.38945259517,22.480068006801,1367585.4669665,-2391.0368347856,2793846.6678315,27.680068006801,0,0
-144.7196204913,-112.403806698,22.484498449845,1367585.4669665,-2391.0368347856,2793846.6678315,27.684498449845,0,0
-144.71962038456,-112.41816080083,22.488928892889,1367585.4669665,-2391.0368347856,2793846.6678315,27.688928892889,0,0
-144.71962027783,-112.43251490366,22.493359335934,1367585.4669665,-2391.0368347856,2793846.6678315,27.693359335934,0,0
-144.71962017109,-112.44686900649,22.497789778978,1367585.4669665,-2391.0368347856,2793846.6678315,27.697789778978,0,0
-144.71962006435,-112.46122310931,22.502220222022,1367585.4669665,-2391.0368347856,2793846.6678315,27.702220222022,0,0
-144.71961995761,-112.47557721214,22.506650665067,1367585.4669665,-2391.0368347856,2793846.6678315,27.706650665067,0,0
-144.71961985087,-112.48993131497,22.511081108111,1367585.4669665,-2391.0368347856,2793846.6678315,27.711081108111,0,0
-144.71961974413,-112.5042854178,22.515511551155,1367585.4669665,-2391.0368347856,2793846.6678315,27.715511551155,0,0
-144.7196196374,-112.51863952063,22.519941994199,1367585.4669665,-2391.0368347856,2793846.6678315,27.719941994199,0,0
-144.71961953066,-112.53299362346,22.524372437244,1367585.4669665,-2391.0368347856,2793846.6678315,27.724372437244,0,0
-144.71961942392,-112.54734772629,22.528802880288,1367585.4669665,-2391.0368347856,2793846.6678315,27.728802880288,0,0
-144.71961931718,-112.56170182912,22.533233323332,1367585.4669665,-2391.0368347856,2793846.6678315,27.733233323332,0,0
-144.71961921044,-112.57605593195,22.537663766377,1367585.4669665,-2391.0368347856,2793846.6678315,27.737663766377,0,0
-144.7196191037,-112.59041003478,22.542094209421,1367585.4669665,-2391.0368347856,2793846.6678315,27.742094209421,0,0
-144.71961899697,-112.60476413761,22.546524652465,1367585.4669665,-2391.0368347856,2793846.6678315,27.746524652465,0,0
-144.71961889023,-112.61911824044,22.55095509551,1367585.4669665,-2391.0368347856,2793846.6678315,27.75095509551,0,0
-144.71961878349,-112.63347234327,22.555385538554,1367585.4669665,-2391.0368347856,2793846.6678315,27.755385538554,0,0
-144.71961867675,-112.6478264461,22.559815981598,1367585.4669665,-2391.0368347856,2793846.6678315,27.759815981598,0,0
-144.71961857001,-112.66218054893,22.564246424642,1367585.4669665,-2391.0368347856,2793846.6678315,27.764246424642,0,0
-144.71961846329,-112.67653465137,22.568676867687,1365596.9548971,964.17578779439,2788920.6507915,27.768676867687,0,0
-144.71961835658,-112.6908887535,22.573107310731,1365596.9548971,964.17578779439,2788920.6507915,27.773107310731,0,0
-144.71961824987,-112.70524285563,22.577537753775,1365596.9548971,964.17578779439,2788920.6507915,27.777537753775,0,0
-144.71961814316,-112.71959695776,22.58196819682,1365596.9548971,964.17578779439,2788920.6507915,27.78196819682,0,0
-144.71961803645,-112.73395105988,22.586398639864,1365596.9548971,964.17578779439,2788920.6507915,27.786398639864,0,0
-144.71961792974,-112.74830516201,22.590829082908,1365596.9548971,964.17578779439,2788920.6507915,27.790829082908,0,0
-144.71961782303,-112.76265926414,22.595259525953,1365596.9548971,964.17578779439,2788920.6507915,27.795259525953,0,0
-144.71961771632,-112.77701336627,22.599689968997,1365596.9548971,964.17578779439,2788920.6507915,27.799689968997,0,0
-144.71961760961,-112.7913674684,22.604120412041,1365596.9548971,964.17578779439,2788920.6507915,27.804120412041,0,0
-144.71961750289,-112.80572157052,22.608550855086,1365596.9548971,964.17578779439,2788920.6507915,27.808550855086,0,0
-144.71961739618,-112.82007567265,22.61298129813,1365596.9548971,964.17578779439,2788920.6507915,27.81298129813,0,0
-144.71961728947,-112.83442977478,22.617411741174,1365596.9548971,964.17578779439,2788920.6507915,27.817411741174,0,0
-144.71961718276,-112.84878387691,22.621842184218,1365596.9548971,964.17578779439,2788920.6507915,27.821842184218,0,0
-144.71961707605,-112.86313797904,22.626272627263,1365596.9548971,964.17578779439,2788920.6507915,27.826272627263,0,0
-144.71961696934,-112.87749208117,22.630703070307,1365596.9548971,964.17578779439,2788920.6507915,27.830703070307,0,0
-144.71961686263,-112.89184618329,22.635133513351,1365596.9548971,964.17578779439,2788920.6507915,27.835133513351,0,0
-144.71961675592,-112.90620028542,22.639563956396,1365596.9548971,964.17578779439,2788920.6507915,27.839563956396,0,0
-144.71961664921,-112.92055438755,22.64399439944,1365596.9548971,964.17578779439,2788920.6507915,27.84399439944,0,0
-144.7196165425,-112.93490848968,22.648424842484,1365596.9548971,964.17578779439,2788920.6507915,27.848424842484,0,0
-144.71961643579,-112.94926259181,22.652855285529,1365596.9548971,964.17578779439,2788920.6507915,27.852855285529,0,0
-144.71961632908,-112.96361669393,22.657285728573,1365596.9548971,964.17578779439,2788920.6507915,27.857285728573,0,0
-144.71961622237,-112.97797079606,22.661716171617,1365596.9548971,964.17578779439,2788920.6507915,27.861716171617,0,0
-144.71961611566,-112.99232489819,22.666146614661,1365596.9548971,964.17578779439,2788920.6507915,27.866146614661,0,0
-144.71961600895,-113.00667900032,22.670577057706,1365596.9548971,964.17578779439,2788920.6507915,27.870577057706,0,0
-144.71961590224,-113.02103310245,22.67500750075,1365596.9548971,964.17578779439,2788920.6507915,27.87500750075,0,0
-144.71961579553,-113.03538720458,22.679437943794,1365596.9548971,964.17578779439,2788920.6507915,27.879437943794,0,0
-144.71961568881,-113.0497413067,22.683868386839,1365596.9548971,964.17578779439,2788920.6507915,27.883868386839,0,0
-144.7196155821,-113.06409540883,22.688298829883,1365596.9548971,964.17578779439,2788920.6507915,27.888298829883,0,0
-144.71961547539,-113.07844951096,22.692729272927,1365596.9548971,964.17578779439,2788920.6507915,27.892729272927,0,0
-144.71961536868,-113.09280361309,22.697159715972,1365596.9548971,964.17578779439,2788920.6507915,27.897159715972,0,0
-144.71961526197,-113.10715771522,22.701590159016,1365596.9548971,964.17578779439,2788920.6507915,27.901590159016,0,0
-144.71961515526,-113.12151181734,22.70602060206,1365596.9548971,964.17578779439,2788920.6507915,27.90602060206,0,0
-144.71961504855,-113.13586591947,22.710451045105,1365596.9548971,964.17578779439,2788920.6507915,27.910451045105,0,0
-144.71961494184,-113.1502200216,22.714881488149,1365596.9548971,964.17578779439,2788920.6507915,27.914881488149,0,0
-144.71961483513,-113.16457412373,22.719311931193,1365596.9548971,964.17578779439,2788920.6507915,27.919311931193,0,0
-144.71961472842,-113.17892822586,22.723742374237,1365596.9548971,964.17578779439,2788920.6507915,27.923742374237,0,0
-144.71961462171,-113.19328232799,22.728172817282,1365596.9548971,964.17578779439,2788920.6507915,27.928172817282,0,0
-144.719614515,-113.20763643011,22.732603260326,1365596.9548971,964.17578779439,2788920.6507915,27.932603260326,0,0
-144.71961440829,-113.22199053224,22.73703370337,1365596.9548971,964.17578779439,2788920.6507915,27.93703370337,0,0
-144.71961430158,-113.23634463437,22.741464146415,1365596.9548971,964.17578779439,2788920.6507915,27.941464146415,0,0
-144.71961419487,-113.2506987365,22.745894589459,1365596.9548971,964.17578779439,2788920.6507915,27.945894589459,0,0
-144.71961408816,-113.26505283863,22.750325032503,1365596.9548971,964.17578779439,2788920.6507915,27.950325032503,0,0
-144.71961398145,-113.27940694075,22.754755475548,1365596.9548971,964.17578779439,2788920.6507915,27.954755475548,0,0
-144.71961387474,-113.29376104288,22.759185918592,1365596.9548971,964.17578779439,2788920.6507915,27.959185918592,0,0
-144.71961376802,-113.30811514501,22.763616361636,1365596.9548971,964.17578779439,2788920.6507915,27.963616361636,0,0
-144.71961366131,-113.32246924714,22.76804680468,1365596.9548971,964.17578779439,2788920.6507915,27.96804680468,0,0
-144.7196135546,-113.33682334927,22.772477247725,1365596.9548971,964.17578779439,2788920.6507915,27.972477247725,0,0
-144.71961344789,-113.3511774514,22.776907690769,1365596.9548971,964.17578779439,2788920.6507915,27.976907690769,0,0
-144.71961334118,-113.36553155352,22.781338133813,1365596.9548971,964.17578779439,2788920.6507915,27.981338133813,0,0
-144.71961323447,-113.37988565565,22.785768576858,1365596.9548971,964.17578779439,2788920.6507915,27.985768576858,0,0
-144.71961312776,-113.39423975778,22.790199019902,1365596.9548971,964.17578779439,2788920.6507915,27.990199019902,0,0
-144.71961302105,-113.40859385991,22.794629462946,1365596.9548971,964.17578779439,2788920.6507915,27.994629462946,0,0
-144.71961291434,-113.42294796204,22.799059905991,1365596.9548971,964.17578779439,2788920.6507915,27.999059905991,0,0
-144.71961280763,-113.43730206416,22.803490349035,1365596.9548971,964.17578779439,2788920.6507915,28.003490349035,0,0
-144.71961270092,-113.45165616629,22.807920792079,1365596.9548971,964.17578779439,2788920.6507915,28.007920792079,0,0
-144.71961259421,-113.46601026842,22.812351235124,1365596.9548971,964.17578779439,2788920.6507915,28.012351235124,0,0
-144.7196124875,-113.48036437055,22.816781678168,1365596.9548971,964.17578779439,2788920.6507915,28.016781678168,0,0
-144.71961238079,-113.49471847268,22.821212121212,1365596.9548971,964.17578779439,2788920.6507915,28.021212121212,0,0
-144.71961227408,-113.50907257481,22.825642564256,1365596.9548971,964.17578779439,2788920.6507915,28.025642564256,0,0
-144.71961216728,-113.52342667734,22.830073007301,1365383.9859352,-2135.7228639317,2782559.8062372,28.030073007301,0,0
-144.71961206042,-113.53778078023,22.834503450345,1365383.9859352,-2135.7228639317,2782559.8062372,28.034503450345,0,0
-144.71961195356,-113.55213488312,22.838933893389,1365383.9859352,-2135.7228639317,2782559.8062372,28.038933893389,0,0
-144.7196118467,-113.566488986,22.843364336434,1365383.9859352,-2135.7228639317,2782559.8062372,28.043364336434,0,0
-144.71961173983,-113.58084308889,22.847794779478,1365383.9859352,-2135.7228639317,2782559.8062372,28.047794779478,0,0
-144.71961163297,-113.59519719178,22.852225222522,1365383.9859352,-2135.7228639317,2782559.8062372,28.052225222522,0,0
-144.71961152611,-113.60955129467,22.856655665567,1365383.9859352,-2135.7228639317,2782559.8062372,28.056655665567,0,0
-144.71961141924,-113.62390539756,22.861086108611,1365383.9859352,-2135.7228639317,2782559.8062372,28.061086108611,0,0
-144.71961131238,-113.63825950045,22.865516551655,1365383.9859352,-2135.7228639317,2782559.8062372,28.065516551655,0,0
-144.71961120552,-113.65261360334,22.869946994699,1365383.9859352,-2135.7228639317,2782559.8062372,28.069946994699,0,0
-144.71961109866,-113.66696770623,22.874377437744,1365383.9859352,-2135.7228639317,2782559.8062372,28.074377437744,0,0
-144.71961099179,-113.68132180912,22.878807880788,1365383.9859352,-2135.7228639317,2782559.8062372,28.078807880788,0,0
-144.71961088493,-113.69567591201,22.883238323832,1365383.9859352,-2135.7228639317,2782559.8062372,28.083238323832,0,0
-144.71961077807,-113.7100300149,22.887668766877,1365383.9859352,-2135.7228639317,2782559.8062372,28.087668766877,0,0
-144.7196106712,-113.72438411778,22.892099209921,1365383.9859352,-2135.7228639317,2782559.8062372,28.092099209921,0,0
-144.71961056434,-113.73873822067,22.896529652965,1365383.9859352,-2135.7228639317,2782559.8062372,28.096529652965,0,0
-144.71961045748,-113.75309232356,22.90096009601,1365383.9859352,-2135.7228639317,2782559.8062372,28.10096009601,0,0
-144.71961035062,-113.76744642645,22.905390539054,1365383.9859352,-2135.7228639317,2782559.8062372,28.105390539054,0,0
-144.71961024375,-113.78180052934,22.909820982098,1365383.9859352,-2135.7228639317,2782559.8062372,28.109820982098,0,0
-144.71961013689,-113.79615463223,22.914251425143,1365383.9859352,-2135.7228639317,2782559.8062372,28.114251425143,0,0
-144.71961003003,-113.81050873512,22.918681868187,1365383.9859352,-2135.7228639317,2782559.8062372,28.118681868187,0,0
-144.71960992316,-113.82486283801,22.923112311231,1365383.9859352,-2135.7228639317,2782559.8062372,28.123112311231,0,0
-144.7196098163,-113.8392169409,22.927542754275,1365383.9859352,-2135.7228639317,2782559.8062372,28.127542754275,0,0
-144.71960970944,-113.85357104379,22.93197319732,1365383.9859352,-2135.7228639317,2782559.8062372,28.13197319732,0,0
-144.71960960257,-113.86792514668,22.936403640364,1365383.9859352,-2135.7228639317,2782559.8062372,28.136403640364,0,0
-144.71960949571,-113.88227924956,22.940834083408,1365383.9859352,-2135.7228639317,2782559.8062372,28.140834083408,0,0
-144.71960938885,-113.89663335245,22.945264526453,1365383.9859352,-2135.7228639317,2782559.8062372,28.145264526453,0,0
-144.71960928199,-113.91098745534,22.949694969497,1365383.9859352,-2135.7228639317,2782559.8062372,28.149694969497,0,0
-144.71960917512,-113.92534155823,22.954125412541,1365383.9859352,-2135.7228639317,2782559.8062372,28.154125412541,0,0
-144.71960906826,-113.93969566112,22.958555855586,1365383.9859352,-2135.7228639317,2782559.8062372,28.158555855586,0,0
-144.7196089614,-113.95404976401,22.96298629863,1365383.9859352,-2135.7228639317,2782559.8062372,28.16298629863,0,0
-144.71960885453,-113.9684038669,22.967416741674,1365383.9859352,-2135.7228639317,2782559.8062372,28.167416741674,0,0
-144.71960874767,-113.98275796979,22.971847184718,1365383.9859352,-2135.7228639317,2782559.8062372,28.171847184718,0,0
-144.71960864081,-113.99711207268,22.976277627763,1365383.9859352,-2135.7228639317,2782559.8062372,28.176277627763,0,0
-144.71960853395,-114.01146617557,22.980708070807,1365383.9859352,-2135.7228639317,2782559.8062372,28.180708070807,0,0
-144.71960842708,-114.02582027846,22.985138513851,1365383.9859352,-2135.7228639317,2782559.8062372,28.185138513851,0,0
-144.71960832022,-114.04017438134,22.989568956896,1365383.9859352,-2135.7228639317,2782559.8062372,28.189568956896,0,0
-144.71960821336,-114.05452848423,22.99399939994,1365383.9859352,-2135.7228639317,2782559.8062372,28.19399939994,0,0
-144.71960810649,-114.06888258712,22.998429842984,1365383.9859352,-2135.7228639317,2782559.8062372,28.198429842984,0,0
-144.71960799963,-114.08323669001,23.002860286029,1365383.9859352,-2135.7228639317,2782559.8062372,28.202860286029,0,0
-144.71960789277,-114.0975907929,23.007290729073,1365383.9859352,-2135.7228639317,2782559.8062372,28.207290729073,0,0
-144.7196077859,-114.11194489579,23.011721172117,1365383.9859352,-2135.7228639317,2782559.8062372,28.211721172117,0,0
-144.71960767904,-114.12629899868,23.016151615162,1365383.9859352,-2135.7228639317,2782559.8062372,28.216151615162,0,0
-144.71960757218,-114.14065310157,23.020582058206,1365383.9859352,-2135.7228639317,2782559.8062372,28.220582058206,0,0
-144.71960746532,-114.15500720446,23.02501250125,1365383.9859352,-2135.7228639317,2782559.8062372,28.22501250125,0,0
-144.71960735845,-114.16936130735,23.029442944294,1365383.9859352,-2135.7228639317,2782559.8062372,28.229442944294,0,0
-144.71960725159,-114.18371541023,23.033873387339,1365383.9859352,-2135.7228639317,2782559.8062372,28.233873387339,0,0
-144.71960714473,-114.19806951312,23.038303830383,1365383.9859352,-2135.7228639317,2782559.8062372,28.238303830383,0,0
-144.71960703786,-114.21242361601,23.042734273427,1365383.9859352,-2135.7228639317,2782559.8062372,28.242734273427,0,0
-144.719606931,-114.2267777189,23.047164716472,1365383.9859352,-2135.7228639317,2782559.8062372,28.247164716472,0,0
-144.71960682414,-114.24113182179,23.051595159516,1365383.9859352,-2135.7228639317,2782559.8062372,28.251595159516,0,0
-144.71960671728,-114.25548592468,23.05602560256,1365383.9859352,-2135.7228639317,2782559.8062372,28.25602560256,0,0
-144.71960661041,-114.26984002757,23.060456045605,1365383.9859352,-2135.7228639317,2782559.8062372,28.260456045605,0,0
-144.71960650355,-114.28419413046,23.064886488649,1365383.9859352,-2135.7228639317,2782559.8062372,28.264886488649,0,0
-144.71960639669,-114.29854823335,23.069316931693,1365383.9859352,-2135.7228639317,2782559.8062372,28.269316931693,0,0
-144.71960628982,-114.31290233624,23.073747374737,1365383.9859352,-2135.7228639317,2782559.8062372,28.273747374737,0,0
-144.71960618296,-114.32725643913,23.078177817782,1365383.9859352,-2135.7228639317,2782559.8062372,28.278177817782,0,0
-144.7196060761,-114.34161054201,23.082608260826,1365383.9859352,-2135.7228639317,2782559.8062372,28.282608260826,0,0
-144.71960596923,-114.3559646449,23.08703870387,1365383.9859352,-2135.7228639317,2782559.8062372,28.28703870387,0,0
-144.71960586237,-114.37031874779,23.091469146915,1365383.9859352,-2135.7228639317,2782559.8062372,28.291469146915,0,0
-144.71960575551,-114.38467285068,23.095899589959,1365383.9859352,-2135.7228639317,2782559.8062372,28.295899589959,0,0
-144.71960564865,-114.39902695357,23.100330033003,1365383.9859352,-2135.7228639317,2782559.8062372,28.300330033003,0,0
-144.71960554178,-114.41338105646,23.104760476048,1365383.9859352,-2135.7228639317,2782559.8062372,28.304760476048,0,0
-144.71960543492,-114.42773515935,23.109190919092,1365383.9859352,-2135.7228639317,2782559.8062372,28.309190919092,0,0
-144.71960532806,-114.44208926224,23.113621362136,1365383.9859352,-2135.7228639317,2782559.8062372,28.313621362136,0,0
-144.71960522119,-114.45644336513,23.118051805181,1365383.9859352,-2135.7228639317,2782559.8062372,28.318051805181,0,0
-144.71960511433,-114.47079746802,23.122482248225,1365383.9859352,-2135.7228639317,2782559.8062372,28.322482248225,0,0
-144.71960500747,-114.48515157091,23.126912691269,1365383.9859352,-2135.7228639317,2782559.8062372,28.326912691269,0,0
-144.71960490061,-114.49950567379,23.131343134313,1365383.9859352,-2135.7228639317,2782559.8062372,28.331343134313,0,0
-144.71960479374,-114.51385977668,23.135773577358,1365383.9859352,-2135.7228639317,2782559.8062372,28.335773577358,0,0
-144.71960468688,-114.52821387957,23.140204020402,1365383.9859352,-2135.7228639317,2782559.8062372,28.340204020402,0,0
-144.71960458002,-114.54256798246,23.144634463446,1365383.9859352,-2135.7228639317,2782559.8062372,28.344634463446,0,0
-144.71960447315,-114.55692208535,23.149064906491,1365383.9859352,-2135.7228639317,2782559.8062372,28.349064906491,0,0
-144.71960436629,-114.57127618824,23.153495349535,1365383.9859352,-2135.7228639317,2782559.8062372,28.353495349535,0,0
-144.71960425943,-114.58563029113,23.157925792579,1365383.9859352,-2135.7228639317,2782559.8062372,28.357925792579,0,0
-144.71960415257,-114.59998439402,23.162356235624,1365383.9859352,-2135.7228639317,2782559.8062372,28.362356235624,0,0
-144.7196040457,-114.61433849691,23.166786678668,1365383.9859352,-2135.7228639317,2782559.8062372,28.366786678668,0,0
-144.71960393884,-114.6286925998,23.171217121712,1365383.9859352,-2135.7228639317,2782559.8062372,28.371217121712,0,0
-144.71960383198,-114.64304670268,23.175647564756,1365383.9859352,-2135.7228639317,2782559.8062372,28.375647564756,0,0
-144.71960372511,-114.65740080557,23.180078007801,1365383.9859352,-2135.7228639317,2782559.8062372,28.380078007801,0,0
-144.71960361825,-114.67175490846,23.184508450845,1365383.9859352,-2135.7228639317,2782559.8062372,28.384508450845,0,0
-144.71960351139,-114.68610901135,23.188938893889,1365383.9859352,-2135.7228639317,2782559.8062372,28.388938893889,0,0
-144.71960340452,-114.70046311424,23.193369336934,1365383.9859352,-2135.7228639317,2782559.8062372,28.393369336934,0,0
-144.71960329766,-114.71481721713,23.197799779978,1365383.9859352,-2135.7228639317,2782559.8062372,28.397799779978,0,0
-144.7196031908,-114.72917132002,23.202230223022,1365383.9859352,-2135.7228639317,2782559.8062372,28.402230223022,0,0
-144.71960308394,-114.74352542291,23.206660666067,1365383.9859352,-2135.7228639317,2782559.8062372,28.406660666067,0,0
-144.71960297707,-114.7578795258,23.211091109111,1365383.9859352,-2135.7228639317,2782559.8062372,28.411091109111,0,0
-144.71960287021,-114.77223362869,23.215521552155,1365383.9859352,-2135.7228639317,2782559.8062372,28.415521552155,0,0
-144.71960276335,-114.78658773158,23.2199519952,1365383.9859352,-2135.7228639317,2782559.8062372,28.4199519952,0,0
-144.71960265648,-114.80094183446,23.224382438244,1365383.9859352,-2135.7228639317,2782559.8062372,28.424382438244,0,0
-144.71960254962,-114.81529593735,23.228812881288,1365383.9859352,-2135.7228639317,2782559.8062372,28.428812881288,0,0
-144.71960244276,-114.82965004024,23.233243324332,1365383.9859352,-2135.7228639317,2782559.8062372,28.433243324332,0,0
-144.7196023359,-114.84400414313,23.237673767377,1365383.9859352,-2135.7228639317,2782559.8062372,28.437673767377,0,0
-144.71960222903,-114.85835824602,23.242104210421,1365383.9859352,-2135.7228639317,2782559.8062372,28.442104210421,0,0
-144.71960212217,-114.87271234891,23.246534653465,1365383.9859352,-2135.7228639317,2782559.8062372,28.446534653465,0,0
-144.71960201531,-114.8870664518,23.25096509651,1365383.9859352,-2135.7228639317,2782559.8062372,28.45096509651,0,0
-144.71960190844,-114.90142055469,23.255395539554,1365383.9859352,-2135.7228639317,2782559.8062372,28.455395539554,0,0
-144.71960180158,-114.91577465758,23.259825982598,1365383.9859352,-2135.7228639317,2782559.8062372,28.459825982598,0,0
-144.71960169472,-114.93012876047,23.264256425643,1365383.9859352,-2135.7228639317,2782559.8062372,28.464256425643,0,0
-144.71960158785,-114.94448286336,23.268686868687,1365383.9859352,-2135.7228639317,2782559.8062372,28.468686868687,0,0
-144.71960148099,-114.95883696624,23.273117311731,1365383.9859352,-2135.7228639317,2782559.8062372,28.473117311731,0,0
-144.71960137413,-114.97319106913,23.277547754775,1365383.9859352,-2135.7228639317,2782559.8062372,28.477547754775,0,0
-144.71960126727,-114.98754517202,23.28197819782,1365383.9859352,-2135.7228639317,2782559.8062372,28.48197819782,0,0
-144.7196011604,-115.00189927491,23.286408640864,1365383.9859352,-2135.7228639317,2782559.8062372,28.486408640864,0,0
-144.71960105354,-115.0162533778,23.290839083908,1365383.9859352,-2135.7228639317,2782559.8062372,28.490839083908,0,0
-144.71960094668,-115.03060748069,23.295269526953,1365383.9859352,-2135.7228639317,2782559.8062372,28.495269526953,0,0
-144.71960083981,-115.04496158358,23.299699969997,1365383.9859352,-2135.7228639317,2782559.8062372,28.499699969997,0,0
-144.71960073295,-115.05931568647,23.304130413041,1365383.9859352,-2135.7228639317,2782559.8062372,28.504130413041,0,0
-144.71960062609,-115.07366978936,23.308560856086,1365383.9859352,-2135.7228639317,2782559.8062372,28.508560856086,0,0
-144.71960051923,-115.08802389225,23.31299129913,1365383.9859352,-2135.7228639317,2782559.8062372,28.51299129913,0,0
-144.71960041236,-115.10237799513,23.317421742174,1365383.9859352,-2135.7228639317,2782559.8062372,28.517421742174,0,0
-144.7196003055,-115.11673209802,23.321852185219,1365383.9859352,-2135.7228639317,2782559.8062372,28.521852185219,0,0
-144.71960019864,-115.13108620091,23.326282628263,1365383.9859352,-2135.7228639317,2782559.8062372,28.526282628263,0,0
-144.71960009177,-115.1454403038,23.330713071307,1365383.9859352,-2135.7228639317,2782559.8062372,28.530713071307,0,0
-144.71959998491,-115.15979440669,23.335143514351,1365383.9859352,-2135.7228639317,2782559.8062372,28.535143514351,0,0
-144.71959987805,-115.17414850958,23.339573957396,1365383.9859352,-2135.7228639317,2782559.8062372,28.539573957396,0,0
-144.71959977119,-115.18850261247,23.34400440044,1365383.9859352,-2135.7228639317,2782559.8062372,28.54400440044,0,0
-144.71959966432,-115.20285671536,23.348434843484,1365383.9859352,-2135.7228639317,2782559.8062372,28.548434843484,0,0
-144.71959955746,-115.21721081825,23.352865286529,1365383.9859352,-2135.7228639317,2782559.8062372,28.552865286529,0,0
-144.7195994506,-115.23156492114,23.357295729573,1365383.9859352,-2135.7228639317,2782559.8062372,28.557295729573,0,0
-144.71959934373,-115.24591902403,23.361726172617,1365383.9859352,-2135.7228639317,2782559.8062372,28.561726172617,0,0
-144.71959923687,-115.26027312691,23.366156615662,1365383.9859352,-2135.7228639317,2782559.8062372,28.566156615662,0,0
-144.71959913001,-115.2746272298,23.370587058706,1365383.9859352,-2135.7228639317,2782559.8062372,28.570587058706,0,0
-144.71959902314,-115.28898133269,23.37501750175,1365383.9859352,-2135.7228639317,2782559.8062372,28.57501750175,0,0
-144.71959891628,-115.30333543558,23.379447944794,1365383.9859352,-2135.7228639317,2782559.8062372,28.579447944794,0,0
-144.71959880942,-115.31768953847,23.383878387839,1365383.9859352,-2135.7228639317,2782559.8062372,28.583878387839,0,0
-144.71959870256,-115.33204364136,23.388308830883,1365383.9859352,-2135.7228639317,2782559.8062372,28.588308830883,0,0
-144.71959859569,-115.34639774425,23.392739273927,1365383.9859352,-2135.7228639317,2782559.8062372,28.592739273927,0,0
-144.71959848883,-115.36075184714,23.397169716972,1365383.9859352,-2135.7228639317,2782559.8062372,28.597169716972,0,0
-144.71959838197,-115.37510595003,23.401600160016,1365383.9859352,-2135.7228639317,2782559.8062372,28.601600160016,0,0
-144.7195982751,-115.38946005292,23.40603060306,1365383.9859352,-2135.7228639317,2782559.8062372,28.60603060306,0,0
-144.71959816824,-115.40381415581,23.410461046105,1365383.9859352,-2135.7228639317,2782559.8062372,28.610461046105,0,0
-144.71959806138,-115.41816825869,23.414891489149,1365383.9859352,-2135.7228639317,2782559.8062372,28.614891489149,0,0
-144.71959795452,-115.43252236158,23.419321932193,1365383.9859352,-2135.7228639317,2782559.8062372,28.619321932193,0,0
-144.71959784765,-115.44687646447,23.423752375238,1365383.9859352,-2135.7228639317,2782559.8062372,28.623752375238,0,0
-144.71959774079,-115.46123056736,23.428182818282,1365383.9859352,-2135.7228639317,2782559.8062372,28.628182818282,0,0
-144.71959763393,-115.47558467025,23.432613261326,1365383.9859352,-2135.7228639317,2782559.8062372,28.632613261326,0,0
-144.71959752706,-115.48993877314,23.43704370437,1365383.9859352,-2135.7228639317,2782559.8062372,28.63704370437,0,0
-144.7195974202,-115.50429287603,23.441474147415,1365383.9859352,-2135.7228639317,2782559.8062372,28.641474147415,0,0
-144.71959731334,-115.51864697892,23.445904590459,1365383.9859352,-2135.7228639317,2782559.8062372,28.645904590459,0,0
-144.71959720647,-115.53300108181,23.450335033503,1365383.9859352,-2135.7228639317,2782559.8062372,28.650335033503,0,0
-144.71959709961,-115.5473551847,23.454765476548,1365383.9859352,-2135.7228639317,2782559.8062372,28.654765476548,0,0
-144.71959699275,-115.56170928759,23.459195919592,1365383.9859352,-2135.7228639317,2782559.8062372,28.659195919592,0,0
-144.71959688589,-115.57606339047,23.463626362636,1365383.9859352,-2135.7228639317,2782559.8062372,28.663626362636,0,0
-144.71959677902,-115.59041749336,23.468056805681,1365383.9859352,-2135.7228639317,2782559.8062372,28.668056805681,0,0
-144.71959667216,-115.60477159625,23.472487248725,1365383.9859352,-2135.7228639317,2782559.8062372,28.672487248725,0,0
-144.7195965653,-115.61912569914,23.476917691769,1365383.9859352,-2135.7228639317,2782559.8062372,28.676917691769,0,0
-144.71959645843,-115.63347980203,23.481348134813,1365383.9859352,-2135.7228639317,2782559.8062372,28.681348134813,0,0
-144.71959635157,-115.64783390492,23.485778577858,1365383.9859352,-2135.7228639317,2782559.8062372,28.685778577858,0,0
-144.71959624471,-115.66218800781,23.490209020902,1365383.9859352,-2135.7228639317,2782559.8062372,28.690209020902,0,0
-144.71959613785,-115.6765421107,23.494639463946,1365383.9859352,-2135.7228639317,2782559.8062372,28.694639463946,0,0
-144.71959603098,-115.69089621359,23.499069906991,1365383.9859352,-2135.7228639317,2782559.8062372,28.699069906991,0,0
-144.71959592412,-115.70525031648,23.503500350035,1365383.9859352,-2135.7228639317,2782559.8062372,28.703500350035,0,0
-144.71959581726,-115.71960441936,23.507930793079,1365383.9859352,-2135.7228639317,2782559.8062372,28.707930793079,0,0
-144.71959571039,-115.73395852225,23.512361236124,1365383.9859352,-2135.7228639317,2782559.8062372,28.712361236124,0,0
-144.71959560353,-115.74831262514,23.516791679168,1365383.9859352,-2135.7228639317,2782559.8062372,28.716791679168,0,0
-144.71959549667,-115.76266672803,23.521222122212,1365383.9859352,-2135.7228639317,2782559.8062372,28.721222122212,0,0
-144.7195953898,-115.77702083092,23.525652565257,1365383.9859352,-2135.7228639317,2782559.8062372,28.725652565257,0,0
-144.71959528294,-115.79137493381,23.530083008301,1365383.9859352,-2135.7228639317,2782559.8062372,28.730083008301,0,0
-144.71959517608,-115.8057290367,23.534513451345,1365383.9859352,-2135.7228639317,2782559.8062372,28.734513451345,0,0
-144.71959506922,-115.82008313959,23.538943894389,1365383.9859352,-2135.7228639317,2782559.8062372,28.738943894389,0,0
-144.71959496235,-115.83443724248,23.543374337434,1365383.9859352,-2135.7228639317,2782559.8062372,28.743374337434,0,0
-144.71959485549,-115.84879134537,23.547804780478,1365383.9859352,-2135.7228639317,2782559.8062372,28.747804780478,0,0
-144.71959474863,-115.86314544826,23.552235223522,1365383.9859352,-2135.7228639317,2782559.8062372,28.752235223522,0,0
-144.71959464176,-115.87749955114,23.556665666567,1365383.9859352,-2135.7228639317,2782559.8062372,28.756665666567,0,0
-144.7195945349,-115.89185365403,23.561096109611,1365383.9859352,-2135.7228639317,2782559.8062372,28.761096109611,0,0
-144.71959442804,-115.90620775692,23.565526552655,1365383.9859352,-2135.7228639317,2782559.8062372,28.765526552655,0,0
-144.71959432118,-115.92056185981,23.5699569957,1365383.9859352,-2135.7228639317,2782559.8062372,28.7699569957,0,0
-144.71959421431,-115.9349159627,23.574387438744,1365383.9859352,-2135.7228639317,2782559.8062372,28.774387438744,0,0
-144.71959410745,-115.94927006559,23.578817881788,1365383.9859352,-2135.7228639317,2782559.8062372,28.778817881788,0,0
-144.71959400059,-115.96362416848,23.583248324832,1365383.9859352,-2135.7228639317,2782559.8062372,28.783248324832,0,0
-144.71959389372,-115.97797827137,23.587678767877,1365383.9859352,-2135.7228639317,2782559.8062372,28.787678767877,0,0
-144.71959378686,-115.99233237426,23.592109210921,1365383.9859352,-2135.7228639317,2782559.8062372,28.792109210921,0,0
-144.71959368,-116.00668647715,23.596539653965,1365383.9859352,-2135.7228639317,2782559.8062372,28.796539653965,0,0
-144.71959357314,-116.02104058004,23.60097009701,1365383.9859352,-2135.7228639317,2782559.8062372,28.80097009701,0,0
-144.71959346627,-116.03539468292,23.605400540054,1365383.9859352,-2135.7228639317,2782559.8062372,28.805400540054,0,0
-144.71959335941,-116.04974878581,23.609830983098,1365383.9859352,-2135.7228639317,2782559.8062372,28.809830983098,0,0
-144.71959325255,-116.0641028887,23.614261426143,1365383.9859352,-2135.7228639317,2782559.8062372,28.814261426143,0,0
-144.71959314568,-116.07845699159,23.618691869187,1365383.9859352,-2135.7228639317,2782559.8062372,28.818691869187,0,0
-144.71959303882,-116.09281109448,23.623122312231,1365383.9859352,-2135.7228639317,2782559.8062372,28.823122312231,0,0
-144.71959293196,-116.10716519737,23.627552755276,1365383.9859352,-2135.7228639317,2782559.8062372,28.827552755276,0,0
-144.71959282509,-116.12151930026,23.63198319832,1365383.9859352,-2135.7228639317,2782559.8062372,28.83198319832,0,0
-144.71959271823,-116.13587340315,23.636413641364,1365383.9859352,-2135.7228639317,2782559.8062372,28.836413641364,0,0
-144.71959261137,-116.15022750604,23.640844084408,1365383.9859352,-2135.7228639317,2782559.8062372,28.840844084408,0,0
-144.71959250451,-116.16458160893,23.645274527453,1365383.9859352,-2135.7228639317,2782559.8062372,28.845274527453,0,0
-144.71959239764,-116.17893571181,23.649704970497,1365383.9859352,-2135.7228639317,2782559.8062372,28.849704970497,0,0
-144.71959229078,-116.1932898147,23.654135413541,1365383.9859352,-2135.7228639317,2782559.8062372,28.854135413541,0,0
-144.71959218392,-116.20764391759,23.658565856586,1365383.9859352,-2135.7228639317,2782559.8062372,28.858565856586,0,0
-144.71959207705,-116.22199802048,23.66299629963,1365383.9859352,-2135.7228639317,2782559.8062372,28.86299629963,0,0
-144.71959197019,-116.23635212337,23.667426742674,1365383.9859352,-2135.7228639317,2782559.8062372,28.867426742674,0,0
-144.71959186333,-116.25070622626,23.671857185719,1365383.9859352,-2135.7228639317,2782559.8062372,28.871857185719,0,0
-144.71959175647,-116.26506032915,23.676287628763,1365383.9859352,-2135.7228639317,2782559.8062372,28.876287628763,0,0
-144.7195916496,-116.27941443204,23.680718071807,1365383.9859352,-2135.7228639317,2782559.8062372,28.880718071807,0,0
-144.71959154274,-116.29376853493,23.685148514851,1365383.9859352,-2135.7228639317,2782559.8062372,28.885148514851,0,0
-144.71959143588,-116.30812263782,23.689578957896,1365383.9859352,-2135.7228639317,2782559.8062372,28.889578957896,0,0
-144.71959132901,-116.32247674071,23.69400940094,1365383.9859352,-2135.7228639317,2782559.8062372,28.89400940094,0,0
-144.71959122215,-116.33683084359,23.698439843984,1365383.9859352,-2135.7228639317,2782559.8062372,28.898439843984,0,0
-144.71959111529,-116.35118494648,23.702870287029,1365383.9859352,-2135.7228639317,2782559.8062372,28.902870287029,0,0
-144.71959100842,-116.36553904937,23.707300730073,1365383.9859352,-2135.7228639317,2782559.8062372,28.907300730073,0,0
-144.71959090156,-116.37989315226,23.711731173117,1365383.9859352,-2135.7228639317,2782559.8062372,28.911731173117,0,0
-144.7195907947,-116.39424725515,23.716161616162,1365383.9859352,-2135.7228639317,2782559.8062372,28.916161616162,0,0
-144.71959068784,-116.40860135804,23.720592059206,1365383.9859352,-2135.7228639317,2782559.8062372,28.920592059206,0,0
-144.71959058097,-116.42295546093,23.72502250225,1365383.9859352,-2135.7228639317,2782559.8062372,28.92502250225,0,0
-144.71959047411,-116.43730956382,23.729452945295,1365383.9859352,-2135.7228639317,2782559.8062372,28.929452945295,0,0
-144.71959036725,-116.45166366671,23.733883388339,1365383.9859352,-2135.7228639317,2782559.8062372,28.933883388339,0,0
-144.71959026038,-116.4660177696,23.738313831383,1365383.9859352,-2135.7228639317,2782559.8062372,28.938313831383,0,0
-144.71959015352,-116.48037187249,23.742744274427,1365383.9859352,-2135.7228639317,2782559.8062372,28.942744274427,0,0
-144.71959004666,-116.49472597537,23.747174717472,1365383.9859352,-2135.7228639317,2782559.8062372,28.947174717472,0,0
-144.7195899398,-116.50908007826,23.751605160516,1365383.9859352,-2135.7228639317,2782559.8062372,28.951605160516,0,0
-144.71958983293,-116.52343418115,23.75603560356,1365383.9859352,-2135.7228639317,2782559.8062372,28.95603560356,0,0
-144.71958972607,-116.53778828404,23.760466046605,1365383.9859352,-2135.7228639317,2782559.8062372,28.960466046605,0,0
-144.71958961921,-116.55214238693,23.764896489649,1365383.9859352,-2135.7228639317,2782559.8062372,28.964896489649,0,0
-144.71958951234,-116.56649648982,23.769326932693,1365383.9859352,-2135.7228639317,2782559.8062372,28.969326932693,0,0
-144.71958940548,-116.58085059271,23.773757375738,1365383.9859352,-2135.7228639317,2782559.8062372,28.973757375738,0,0
-144.71958929862,-116.5952046956,23.778187818782,1365383.9859352,-2135.7228639317,2782559.8062372,28.978187818782,0,0
-144.71958919176,-116.60955879849,23.782618261826,1365383.9859352,-2135.7228639317,2782559.8062372,28.982618261826,0,0
-144.71958908489,-116.62391290138,23.78704870487,1365383.9859352,-2135.7228639317,2782559.8062372,28.98704870487,0,0
-144.71958897803,-116.63826700426,23.791479147915,1365383.9859352,-2135.7228639317,2782559.8062372,28.991479147915,0,0
-144.71958887117,-116.65262110715,23.795909590959,1365383.9859352,-2135.7228639317,2782559.8062372,28.995909590959,0,0
-144.7195887643,-116.66697521004,23.800340034003,1365383.9859352,-2135.7228639317,2782559.8062372,29.000340034003,0,0
-144.71958865744,-116.68132931293,23.804770477048,1365383.9859352,-2135.7228639317,2782559.8062372,29.004770477048,0,0
-144.71958855058,-116.69568341582,23.809200920092,1365383.9859352,-2135.7228639317,2782559.8062372,29.009200920092,0,0
-144.71958844371,-116.71003751871,23.813631363136,1365383.9859352,-2135.7228639317,2782559.8062372,29.013631363136,0,0
-144.71958833685,-116.7243916216,23.818061806181,1365383.9859352,-2135.7228639317,2782559.8062372,29.018061806181,0,0
-144.71958822999,-116.73874572449,23.822492249225,1365383.9859352,-2135.7228639317,2782559.8062372,29.022492249225,0,0
-144.71958812313,-116.75309982738,23.826922692269,1365383.9859352,-2135.7228639317,2782559.8062372,29.026922692269,0,0
-144.71958801626,-116.76745393027,23.831353135314,1365383.9859352,-2135.7228639317,2782559.8062372,29.031353135314,0,0
-144.7195879094,-116.78180803316,23.835783578358,1365383.9859352,-2135.7228639317,2782559.8062372,29.035783578358,0,0
-144.71958780254,-116.79616213604,23.840214021402,1365383.9859352,-2135.7228639317,2782559.8062372,29.040214021402,0,0
-144.71958769567,-116.81051623893,23.844644464446,1365383.9859352,-2135.7228639317,2782559.8062372,29.044644464446,0,0
-144.71958758881,-116.82487034182,23.849074907491,1365383.9859352,-2135.7228639317,2782559.8062372,29.049074907491,0,0
-144.71958748195,-116.83922444471,23.853505350535,1365383.9859352,-2135.7228639317,2782559.8062372,29.053505350535,0,0
-144.71958737509,-116.8535785476,23.857935793579,1365383.9859352,-2135.7228639317,2782559.8062372,29.057935793579,0,0
-144.71958726822,-116.86793265049,23.862366236624,1365383.9859352,-2135.7228639317,2782559.8062372,29.062366236624,0,0
-144.71958716136,-116.88228675338,23.866796679668,1365383.9859352,-2135.7228639317,2782559.8062372,29.066796679668,0,0
-144.7195870545,-116.89664085627,23.871227122712,1365383.9859352,-2135.7228639317,2782559.8062372,29.071227122712,0,0
-144.71958694763,-116.91099495916,23.875657565757,1365383.9859352,-2135.7228639317,2782559.8062372,29.075657565757,0,0
-144.71958684077,-116.92534906205,23.880088008801,1365383.9859352,-2135.7228639317,2782559.8062372,29.080088008801,0,0
-144.71958673391,-116.93970316494,23.884518451845,1365383.9859352,-2135.7228639317,2782559.8062372,29.084518451845,0,0
-144.71958662704,-116.95405726782,23.888948894889,1365383.9859352,-2135.7228639317,2782559.8062372,29.088948894889,0,0
-144.71958652018,-116.96841137071,23.893379337934,1365383.9859352,-2135.7228639317,2782559.8062372,29.093379337934,0,0
-144.71958641332,-116.9827654736,23.897809780978,1365383.9859352,-2135.7228639317,2782559.8062372,29.097809780978,0,0
-144.71958630646,-116.99711957649,23.902240224022,1365383.9859352,-2135.7228639317,2782559.8062372,29.102240224022,0,0
-144.71958619959,-117.01147367938,23.906670667067,1365383.9859352,-2135.7228639317,2782559.8062372,29.106670667067,0,0
-144.71958609273,-117.02582778227,23.911101110111,1365383.9859352,-2135.7228639317,2782559.8062372,29.111101110111,0,0
-144.71958598587,-117.04018188516,23.915531553155,1365383.9859352,-2135.7228639317,2782559.8062372,29.115531553155,0,0
-144.719585879,-117.05453598805,23.9199619962,1365383.9859352,-2135.7228639317,2782559.8062372,29.1199619962,0,0
-144.71958577214,-117.06889009094,23.924392439244,1365383.9859352,-2135.7228639317,2782559.8062372,29.124392439244,0,0
-144.71958566528,-117.08324419383,23.928822882288,1365383.9859352,-2135.7228639317,2782559.8062372,29.128822882288,0,0
-144.71958555842,-117.09759829672,23.933253325333,1365383.9859352,-2135.7228639317,2782559.8062372,29.133253325333,0,0
-144.71958545155,-117.1119523996,23.937683768377,1365383.9859352,-2135.7228639317,2782559.8062372,29.137683768377,0,0
-144.71958534469,-117.12630650249,23.942114211421,1365383.9859352,-2135.7228639317,2782559.8062372,29.142114211421,0,0
-144.71958523783,-117.14066060538,23.946544654465,1365383.9859352,-2135.7228639317,2782559.8062372,29.146544654465,0,0
-144.71958513096,-117.15501470827,23.95097509751,1365383.9859352,-2135.7228639317,2782559.8062372,29.15097509751,0,0
-144.7195850241,-117.16936881116,23.955405540554,1365383.9859352,-2135.7228639317,2782559.8062372,29.155405540554,0,0
-144.71958491724,-117.18372291405,23.959835983598,1365383.9859352,-2135.7228639317,2782559.8062372,29.159835983598,0,0
-144.71958481037,-117.19807701694,23.964266426643,1365383.9859352,-2135.7228639317,2782559.8062372,29.164266426643,0,0
-144.71958470351,-117.21243111983,23.968696869687,1365383.9859352,-2135.7228639317,2782559.8062372,29.168696869687,0,0
-144.71958459665,-117.22678522272,23.973127312731,1365383.9859352,-2135.7228639317,2782559.8062372,29.173127312731,0,0
-144.71958448979,-117.24113932561,23.977557755776,1365383.9859352,-2135.7228639317,2782559.8062372,29.177557755776,0,0
-144.71958438292,-117.25549342849,23.98198819882,1365383.9859352,-2135.7228639317,2782559.8062372,29.18198819882,0,0
-144.71958427606,-117.26984753138,23.986418641864,1365383.9859352,-2135.7228639317,2782559.8062372,29.186418641864,0,0
-144.7195841692,-117.28420163427,23.990849084908,1365383.9859352,-2135.7228639317,2782559.8062372,29.190849084908,0,0
-144.71958406233,-117.29855573716,23.995279527953,1365383.9859352,-2135.7228639317,2782559.8062372,29.195279527953,0,0
-144.71958395547,-117.31290984005,23.999709970997,1365383.9859352,-2135.7228639317,2782559.8062372,29.199709970997,0,0
-144.71958384861,-117.32726394294,24.004140414041,1365383.9859352,-2135.7228639317,2782559.8062372,29.204140414041,0,0
-144.71958374175,-117.34161804583,24.008570857086,1365383.9859352,-2135.7228639317,2782559.8062372,29.208570857086,0,0
-144.71958363488,-117.35597214872,24.01300130013,1365383.9859352,-2135.7228639317,2782559.8062372,29.21300130013,0,0
-144.71958352802,-117.37032625161,24.017431743174,1365383.9859352,-2135.7228639317,2782559.8062372,29.217431743174,0,0
-144.71958342116,-117.3846803545,24.021862186219,1365383.9859352,-2135.7228639317,2782559.8062372,29.221862186219,0,0
-144.71958331429,-117.39903445739,24.026292629263,1365383.9859352,-2135.7228639317,2782559.8062372,29.226292629263,0,0
-144.71958320743,-117.41338856027,24.030723072307,1365383.9859352,-2135.7228639317,2782559.8062372,29.230723072307,0,0
-144.71958310057,-117.42774266316,24.035153515352,1365383.9859352,-2135.7228639317,2782559.8062372,29.235153515352,0,0
-144.71958299371,-117.44209676605,24.039583958396,1365383.9859352,-2135.7228639317,2782559.8062372,29.239583958396,0,0
-144.71958288684,-117.45645086894,24.04401440144,1365383.9859352,-2135.7228639317,2782559.8062372,29.24401440144,0,0
-144.71958277998,-117.47080497183,24.048444844484,1365383.9859352,-2135.7228639317,2782559.8062372,29.248444844484,0,0
-144.71958267312,-117.48515907472,24.052875287529,1365383.9859352,-2135.7228639317,2782559.8062372,29.252875287529,0,0
-144.71958256625,-117.49951317761,24.057305730573,1365383.9859352,-2135.7228639317,2782559.8062372,29.257305730573,0,0
-144.71958245939,-117.5138672805,24.061736173617,1365383.9859352,-2135.7228639317,2782559.8062372,29.261736173617,0,0
-144.71958235253,-117.52822138339,24.066166616662,1365383.9859352,-2135.7228639317,2782559.8062372,29.266166616662,0,0
-144.71958224566,-117.54257548628,24.070597059706,1365383.9859352,-2135.7228639317,2782559.8062372,29.270597059706,0,0
-144.7195821388,-117.55692958917,24.07502750275,1365383.9859352,-2135.7228639317,2782559.8062372,29.27502750275,0,0
-144.71958203194,-117.57128369205,24.079457945795,1365383.9859352,-2135.7228639317,2782559.8062372,29.279457945795,0,0
-144.71958192508,-117.58563779494,24.083888388839,1365383.9859352,-2135.7228639317,2782559.8062372,29.283888388839,0,0
-144.71958181821,-117.59999189783,24.088318831883,1365383.9859352,-2135.7228639317,2782559.8062372,29.288318831883,0,0
-144.71958171135,-117.61434600072,24.092749274927,1365383.9859352,-2135.7228639317,2782559.8062372,29.292749274927,0,0
-144.71958160449,-117.62870010361,24.097179717972,1365383.9859352,-2135.7228639317,2782559.8062372,29.297179717972,0,0
-144.71958149762,-117.6430542065,24.101610161016,1365383.9859352,-2135.7228639317,2782559.8062372,29.301610161016,0,0
-144.71958139076,-117.65740830939,24.10604060406,1365383.9859352,-2135.7228639317,2782559.8062372,29.30604060406,0,0
-144.7195812839,-117.67176241228,24.110471047105,1365383.9859352,-2135.7228639317,2782559.8062372,29.310471047105,0,0
-144.71958117704,-117.68611651517,24.114901490149,1365383.9859352,-2135.7228639317,2782559.8062372,29.314901490149,0,0
-144.71958107017,-117.70047061806,24.119331933193,1365383.9859352,-2135.7228639317,2782559.8062372,29.319331933193,0,0
-144.71958096331,-117.71482472094,24.123762376238,1365383.9859352,-2135.7228639317,2782559.8062372,29.323762376238,0,0
-144.71958085645,-117.72917882383,24.128192819282,1365383.9859352,-2135.7228639317,2782559.8062372,29.328192819282,0,0
-144.71958074958,-117.74353292672,24.132623262326,1365383.9859352,-2135.7228639317,2782559.8062372,29.332623262326,0,0
-144.71958064272,-117.75788702961,24.137053705371,1365383.9859352,-2135.7228639317,2782559.8062372,29.337053705371,0,0
-144.71958053586,-117.7722411325,24.141484148415,1365383.9859352,-2135.7228639317,2782559.8062372,29.341484148415,0,0
-144.71958042899,-117.78659523539,24.145914591459,1365383.9859352,-2135.7228639317,2782559.8062372,29.345914591459,0,0
-144.71958032213,-117.80094933828,24.150345034503,1365383.9859352,-2135.7228639317,2782559.8062372,29.350345034503,0,0
-144.71958021527,-117.81530344117,24.154775477548,1365383.9859352,-2135.7228639317,2782559.8062372,29.354775477548,0,0
-144.71958010841,-117.82965754406,24.159205920592,1365383.9859352,-2135.7228639317,2782559.8062372,29.359205920592,0,0
-144.71958000154,-117.84401164695,24.163636363636,1365383.9859352,-2135.7228639317,2782559.8062372,29.363636363636,0,0
-144.71957989468,-117.85836574984,24.168066806681,1365383.9859352,-2135.7228639317,2782559.8062372,29.368066806681,0,0
-144.71957978782,-117.87271985272,24.172497249725,1365383.9859352,-2135.7228639317,2782559.8062372,29.372497249725,0,0
-144.71957968095,-117.88707395561,24.176927692769,1365383.9859352,-2135.7228639317,2782559.8062372,29.376927692769,0,0
-144.71957957409,-117.9014280585,24.181358135814,1365383.9859352,-2135.7228639317,2782559.8062372,29.381358135814,0,0
-144.71957946723,-117.91578216139,24.185788578858,1365383.9859352,-2135.7228639317,2782559.8062372,29.385788578858,0,0
-144.71957936037,-117.93013626428,24.190219021902,1365383.9859352,-2135.7228639317,2782559.8062372,29.390219021902,0,0
-144.7195792535,-117.94449036717,24.194649464946,1365383.9859352,-2135.7228639317,2782559.8062372,29.394649464946,0,0
-144.71957914664,-117.95884447006,24.199079907991,1365383.9859352,-2135.7228639317,2782559.8062372,29.399079907991,0,0
-144.71957903978,-117.97319857295,24.203510351035,1365383.9859352,-2135.7228639317,2782559.8062372,29.403510351035,0,0
-144.71957893291,-117.98755267584,24.207940794079,1365383.9859352,-2135.7228639317,2782559.8062372,29.407940794079,0,0
-144.71957882605,-118.00190677873,24.212371237124,1365383.9859352,-2135.7228639317,2782559.8062372,29.412371237124,0,0
-144.71957871919,-118.01626088162,24.216801680168,1365383.9859352,-2135.7228639317,2782559.8062372,29.416801680168,0,0
-144.71957861233,-118.0306149845,24.221232123212,1365383.9859352,-2135.7228639317,2782559.8062372,29.421232123212,0,0
-144.71957850546,-118.04496908739,24.225662566257,1365383.9859352,-2135.7228639317,2782559.8062372,29.425662566257,0,0
-144.7195783986,-118.05932319028,24.230093009301,1365383.9859352,-2135.7228639317,2782559.8062372,29.430093009301,0,0
-144.71957829174,-118.07367729317,24.234523452345,1365383.9859352,-2135.7228639317,2782559.8062372,29.434523452345,0,0
-144.71957818487,-118.08803139606,24.23895389539,1365383.9859352,-2135.7228639317,2782559.8062372,29.43895389539,0,0
-144.71957807801,-118.10238549895,24.243384338434,1365383.9859352,-2135.7228639317,2782559.8062372,29.443384338434,0,0
-144.71957797115,-118.11673960184,24.247814781478,1365383.9859352,-2135.7228639317,2782559.8062372,29.447814781478,0,0
-144.71957786428,-118.13109370473,24.252245224522,1365383.9859352,-2135.7228639317,2782559.8062372,29.452245224522,0,0
-144.71957775742,-118.14544780762,24.256675667567,1365383.9859352,-2135.7228639317,2782559.8062372,29.456675667567,0,0
-144.71957765056,-118.15980191051,24.261106110611,1365383.9859352,-2135.7228639317,2782559.8062372,29.461106110611,0,0
-144.7195775437,-118.1741560134,24.265536553655,1365383.9859352,-2135.7228639317,2782559.8062372,29.465536553655,0,0
-144.71957743683,-118.18851011628,24.2699669967,1365383.9859352,-2135.7228639317,2782559.8062372,29.4699669967,0,0
-144.71957732997,-118.20286421917,24.274397439744,1365383.9859352,-2135.7228639317,2782559.8062372,29.474397439744,0,0
-144.71957722311,-118.21721832206,24.278827882788,1365383.9859352,-2135.7228639317,2782559.8062372,29.478827882788,0,0
-144.71957711624,-118.23157242495,24.283258325833,1365383.9859352,-2135.7228639317,2782559.8062372,29.483258325833,0,0
-144.71957700938,-118.24592652784,24.287688768877,1365383.9859352,-2135.7228639317,2782559.8062372,29.487688768877,0,0
-144.71957690252,-118.26028063073,24.292119211921,1365383.9859352,-2135.7228639317,2782559.8062372,29.492119211921,0,0
-144.71957679566,-118.27463473362,24.296549654965,1365383.9859352,-2135.7228639317,2782559.8062372,29.496549654965,0,0
-144.71957668879,-118.28898883651,24.30098009801,1365383.9859352,-2135.7228639317,2782559.8062372,29.50098009801,0,0
-144.71957658193,-118.3033429394,24.305410541054,1365383.9859352,-2135.7228639317,2782559.8062372,29.505410541054,0,0
-144.71957647507,-118.31769704229,24.309840984098,1365383.9859352,-2135.7228639317,2782559.8062372,29.509840984098,0,0
-144.7195763682,-118.33205114517,24.314271427143,1365383.9859352,-2135.7228639317,2782559.8062372,29.514271427143,0,0
-144.71957626134,-118.34640524806,24.318701870187,1365383.9859352,-2135.7228639317,2782559.8062372,29.518701870187,0,0
-144.71957615448,-118.36075935078,24.323132313231,1363450.2754507,874.69443533338,2777550.3480847,29.523132313231,0,0
-144.71957604764,-118.37511345304,24.327562756276,1363450.2754507,874.69443533338,2777550.3480847,29.527562756276,0,0
-144.7195759408,-118.3894675553,24.33199319932,1363450.2754507,874.69443533338,2777550.3480847,29.53199319932,0,0
-144.71957583396,-118.40382165756,24.336423642364,1363450.2754507,874.69443533338,2777550.3480847,29.536423642364,0,0
-144.71957572712,-118.41817575982,24.340854085409,1363450.2754507,874.69443533338,2777550.3480847,29.540854085409,0,0
-144.71957562027,-118.43252986208,24.345284528453,1363450.2754507,874.69443533338,2777550.3480847,29.545284528453,0,0
-144.71957551343,-118.44688396434,24.349714971497,1363450.2754507,874.69443533338,2777550.3480847,29.549714971497,0,0
-144.71957540659,-118.4612380666,24.354145414541,1363450.2754507,874.69443533338,2777550.3480847,29.554145414541,0,0
-144.71957529975,-118.47559216886,24.358575857586,1363450.2754507,874.69443533338,2777550.3480847,29.558575857586,0,0
-144.71957519291,-118.48994627112,24.36300630063,1363450.2754507,874.69443533338,2777550.3480847,29.56300630063,0,0
-144.71957508606,-118.50430037338,24.367436743674,1363450.2754507,874.69443533338,2777550.3480847,29.567436743674,0,0
-144.71957497922,-118.51865447564,24.371867186719,1363450.2754507,874.69443533338,2777550.3480847,29.571867186719,0,0
-144.71957487238,-118.53300857789,24.376297629763,1363450.2754507,874.69443533338,2777550.3480847,29.576297629763,0,0
-144.71957476554,-118.54736268015,24.380728072807,1363450.2754507,874.69443533338,2777550.3480847,29.580728072807,0,0
-144.7195746587,-118.56171678241,24.385158515852,1363450.2754507,874.69443533338,2777550.3480847,29.585158515852,0,0
-144.71957455186,-118.57607088467,24.389588958896,1363450.2754507,874.69443533338,2777550.3480847,29.589588958896,0,0
-144.71957444501,-118.59042498693,24.39401940194,1363450.2754507,874.69443533338,2777550.3480847,29.59401940194,0,0
-144.71957433817,-118.60477908919,24.398449844984,1363450.2754507,874.69443533338,2777550.3480847,29.598449844984,0,0
-144.71957423133,-118.61913319145,24.402880288029,1363450.2754507,874.69443533338,2777550.3480847,29.602880288029,0,0
-144.71957412449,-118.63348729371,24.407310731073,1363450.2754507,874.69443533338,2777550.3480847,29.607310731073,0,0
-144.71957401765,-118.64784139597,24.411741174117,1363450.2754507,874.69443533338,2777550.3480847,29.611741174117,0,0
-144.7195739108,-118.66219549823,24.416171617162,1363450.2754507,874.69443533338,2777550.3480847,29.616171617162,0,0
-144.71957380396,-118.67654960049,24.420602060206,1363450.2754507,874.69443533338,2777550.3480847,29.620602060206,0,0
-144.71957369712,-118.69090370275,24.42503250325,1363450.2754507,874.69443533338,2777550.3480847,29.62503250325,0,0
-144.71957359028,-118.70525780501,24.429462946295,1363450.2754507,874.69443533338,2777550.3480847,29.629462946295,0,0
-144.71957348344,-118.71961190727,24.433893389339,1363450.2754507,874.69443533338,2777550.3480847,29.633893389339,0,0
-144.7195733766,-118.73396600953,24.438323832383,1363450.2754507,874.69443533338,2777550.3480847,29.638323832383,0,0
-144.71957326975,-118.74832011179,24.442754275428,1363450.2754507,874.69443533338,2777550.3480847,29.642754275428,0,0
-144.71957316291,-118.76267421405,24.447184718472,1363450.2754507,874.69443533338,2777550.3480847,29.647184718472,0,0
-144.71957305607,-118.77702831631,24.451615161516,1363450.2754507,874.69443533338,2777550.3480847,29.651615161516,0,0
-144.71957294923,-118.79138241857,24.45604560456,1363450.2754507,874.69443533338,2777550.3480847,29.65604560456,0,0
-144.71957284239,-118.80573652083,24.460476047605,1363450.2754507,874.69443533338,2777550.3480847,29.660476047605,0,0
-144.71957273554,-118.82009062309,24.464906490649,1363450.2754507,874.69443533338,2777550.3480847,29.664906490649,0,0
-144.7195726287,-118.83444472534,24.469336933693,1363450.2754507,874.69443533338,2777550.3480847,29.669336933693,0,0
-144.71957252186,-118.8487988276,24.473767376738,1363450.2754507,874.69443533338,2777550.3480847,29.673767376738,0,0
-144.71957241502,-118.86315292986,24.478197819782,1363450.2754507,874.69443533338,2777550.3480847,29.678197819782,0,0
-144.71957230818,-118.87750703212,24.482628262826,1363450.2754507,874.69443533338,2777550.3480847,29.682628262826,0,0
-144.71957220134,-118.89186113438,24.487058705871,1363450.2754507,874.69443533338,2777550.3480847,29.687058705871,0,0
-144.71957209449,-118.90621523664,24.491489148915,1363450.2754507,874.69443533338,2777550.3480847,29.691489148915,0,0
-144.71957198765,-118.9205693389,24.495919591959,1363450.2754507,874.69443533338,2777550.3480847,29.695919591959,0,0
-144.71957188081,-118.93492344116,24.500350035003,1363450.2754507,874.69443533338,2777550.3480847,29.700350035003,0,0
-144.71957177397,-118.94927754342,24.504780478048,1363450.2754507,874.69443533338,2777550.3480847,29.704780478048,0,0
-144.71957166713,-118.96363164568,24.509210921092,1363450.2754507,874.69443533338,2777550.3480847,29.709210921092,0,0
-144.71957156028,-118.97798574794,24.513641364136,1363450.2754507,874.69443533338,2777550.3480847,29.713641364136,0,0
-144.71957145344,-118.9923398502,24.518071807181,1363450.2754507,874.69443533338,2777550.3480847,29.718071807181,0,0
-144.7195713466,-119.00669395246,24.522502250225,1363450.2754507,874.69443533338,2777550.3480847,29.722502250225,0,0
-144.71957123976,-119.02104805472,24.526932693269,1363450.2754507,874.69443533338,2777550.3480847,29.726932693269,0,0
-144.71957113292,-119.03540215698,24.531363136314,1363450.2754507,874.69443533338,2777550.3480847,29.731363136314,0,0
-144.71957102607,-119.04975625924,24.535793579358,1363450.2754507,874.69443533338,2777550.3480847,29.735793579358,0,0
-144.71957091923,-119.0641103615,24.540224022402,1363450.2754507,874.69443533338,2777550.3480847,29.740224022402,0,0
-144.71957081239,-119.07846446376,24.544654465447,1363450.2754507,874.69443533338,2777550.3480847,29.744654465447,0,0
-144.71957070555,-119.09281856602,24.549084908491,1363450.2754507,874.69443533338,2777550.3480847,29.749084908491,0,0
-144.71957059871,-119.10717266828,24.553515351535,1363450.2754507,874.69443533338,2777550.3480847,29.753515351535,0,0
-144.71957049187,-119.12152677053,24.557945794579,1363450.2754507,874.69443533338,2777550.3480847,29.757945794579,0,0
-144.71957038502,-119.13588087279,24.562376237624,1363450.2754507,874.69443533338,2777550.3480847,29.762376237624,0,0
-144.71957027818,-119.15023497505,24.566806680668,1363450.2754507,874.69443533338,2777550.3480847,29.766806680668,0,0
-144.71957017134,-119.16458907731,24.571237123712,1363450.2754507,874.69443533338,2777550.3480847,29.771237123712,0,0
-144.7195700645,-119.17894317957,24.575667566757,1363450.2754507,874.69443533338,2777550.3480847,29.775667566757,0,0
-144.71956995766,-119.19329728183,24.580098009801,1363450.2754507,874.69443533338,2777550.3480847,29.780098009801,0,0
-144.71956985081,-119.20765138409,24.584528452845,1363450.2754507,874.69443533338,2777550.3480847,29.784528452845,0,0
-144.71956974397,-119.22200548635,24.58895889589,1363450.2754507,874.69443533338,2777550.3480847,29.78895889589,0,0
-144.71956963713,-119.23635958861,24.593389338934,1363450.2754507,874.69443533338,2777550.3480847,29.793389338934,0,0
-144.71956953029,-119.25071369087,24.597819781978,1363450.2754507,874.69443533338,2777550.3480847,29.797819781978,0,0
-144.71956942345,-119.26506779313,24.602250225022,1363450.2754507,874.69443533338,2777550.3480847,29.802250225022,0,0
-144.71956931661,-119.27942189539,24.606680668067,1363450.2754507,874.69443533338,2777550.3480847,29.806680668067,0,0
-144.71956920976,-119.29377599765,24.611111111111,1363450.2754507,874.69443533338,2777550.3480847,29.811111111111,0,0
-144.71956910292,-119.30813009991,24.615541554155,1363450.2754507,874.69443533338,2777550.3480847,29.815541554155,0,0
-144.71956899608,-119.32248420217,24.6199719972,1363450.2754507,874.69443533338,2777550.3480847,29.8199719972,0,0
-144.71956888924,-119.33683830443,24.624402440244,1363450.2754507,874.69443533338,2777550.3480847,29.824402440244,0,0
-144.7195687824,-119.35119240669,24.628832883288,1363450.2754507,874.69443533338,2777550.3480847,29.828832883288,0,0
-144.71956867555,-119.36554650895,24.633263326333,1363450.2754507,874.69443533338,2777550.3480847,29.833263326333,0,0
-144.71956856871,-119.37990061121,24.637693769377,1363450.2754507,874.69443533338,2777550.3480847,29.837693769377,0,0
-144.71956846187,-119.39425471347,24.642124212421,1363450.2754507,874.69443533338,2777550.3480847,29.842124212421,0,0
-144.71956835503,-119.40860881573,24.646554655466,1363450.2754507,874.69443533338,2777550.3480847,29.846554655466,0,0
-144.71956824819,-119.42296291798,24.65098509851,1363450.2754507,874.69443533338,2777550.3480847,29.85098509851,0,0
-144.71956814134,-119.43731702024,24.655415541554,1363450.2754507,874.69443533338,2777550.3480847,29.855415541554,0,0
-144.7195680345,-119.4516711225,24.659845984598,1363450.2754507,874.69443533338,2777550.3480847,29.859845984598,0,0
-144.71956792766,-119.46602522476,24.664276427643,1363450.2754507,874.69443533338,2777550.3480847,29.864276427643,0,0
-144.71956782082,-119.48037932702,24.668706870687,1363450.2754507,874.69443533338,2777550.3480847,29.868706870687,0,0
-144.71956771398,-119.49473342928,24.673137313731,1363450.2754507,874.69443533338,2777550.3480847,29.873137313731,0,0
-144.71956760714,-119.50908753154,24.677567756776,1363450.2754507,874.69443533338,2777550.3480847,29.877567756776,0,0
-144.71956750029,-119.5234416338,24.68199819982,1363450.2754507,874.69443533338,2777550.3480847,29.88199819982,0,0
-144.71956739345,-119.53779573606,24.686428642864,1363450.2754507,874.69443533338,2777550.3480847,29.886428642864,0,0
-144.71956728661,-119.55214983832,24.690859085909,1363450.2754507,874.69443533338,2777550.3480847,29.890859085909,0,0
-144.71956717977,-119.56650394058,24.695289528953,1363450.2754507,874.69443533338,2777550.3480847,29.895289528953,0,0
-144.71956707293,-119.58085804284,24.699719971997,1363450.2754507,874.69443533338,2777550.3480847,29.899719971997,0,0
-144.71956696608,-119.5952121451,24.704150415042,1363450.2754507,874.69443533338,2777550.3480847,29.904150415041,0,0
-144.71956685924,-119.60956624736,24.708580858086,1363450.2754507,874.69443533338,2777550.3480847,29.908580858086,0,0
-144.7195667524,-119.62392034962,24.71301130113,1363450.2754507,874.69443533338,2777550.3480847,29.91301130113,0,0
-144.71956664556,-119.63827445188,24.717441744174,1363450.2754507,874.69443533338,2777550.3480847,29.917441744174,0,0
-144.71956653872,-119.65262855414,24.721872187219,1363450.2754507,874.69443533338,2777550.3480847,29.921872187219,0,0
-144.71956643188,-119.6669826564,24.726302630263,1363450.2754507,874.69443533338,2777550.3480847,29.926302630263,0,0
-144.71956632503,-119.68133675866,24.730733073307,1363450.2754507,874.69443533338,2777550.3480847,29.930733073307,0,0
-144.71956621819,-119.69569086092,24.735163516352,1363450.2754507,874.69443533338,2777550.3480847,29.935163516352,0,0
-144.71956611135,-119.71004496318,24.739593959396,1363450.2754507,874.69443533338,2777550.3480847,29.939593959396,0,0
-144.71956600451,-119.72439906543,24.74402440244,1363450.2754507,874.69443533338,2777550.3480847,29.94402440244,0,0
-144.71956589767,-119.73875316769,24.748454845485,1363450.2754507,874.69443533338,2777550.3480847,29.948454845485,0,0
-144.71956579082,-119.75310726995,24.752885288529,1363450.2754507,874.69443533338,2777550.3480847,29.952885288529,0,0
-144.71956568398,-119.76746137221,24.757315731573,1363450.2754507,874.69443533338,2777550.3480847,29.957315731573,0,0
-144.71956557714,-119.78181547447,24.761746174617,1363450.2754507,874.69443533338,2777550.3480847,29.961746174617,0,0
-144.7195654703,-119.79616957673,24.766176617662,1363450.2754507,874.69443533338,2777550.3480847,29.966176617662,0,0
-144.71956536346,-119.81052367899,24.770607060706,1363450.2754507,874.69443533338,2777550.3480847,29.970607060706,0,0
-144.71956525661,-119.82487778125,24.77503750375,1363450.2754507,874.69443533338,2777550.3480847,29.97503750375,0,0
-144.71956514977,-119.83923188351,24.779467946795,1363450.2754507,874.69443533338,2777550.3480847,29.979467946795,0,0
-144.71956504293,-119.85358598577,24.783898389839,1363450.2754507,874.69443533338,2777550.3480847,29.983898389839,0,0
-144.71956493609,-119.86794008803,24.788328832883,1363450.2754507,874.69443533338,2777550.3480847,29.988328832883,0,0
-144.71956482925,-119.88229419029,24.792759275928,1363450.2754507,874.69443533338,2777550.3480847,29.992759275928,0,0
-144.71956472241,-119.89664829255,24.797189718972,1363450.2754507,874.69443533338,2777550.3480847,29.997189718972,0,0
-144.71956461556,-119.91100239481,24.801620162016,1363450.2754507,874.69443533338,2777550.3480847,30.001620162016,0,0
-144.71956450867,-119.92535649758,24.806050605061,1362717.9501576,-1801.8135029706,2773140.3049324,30.006050605061,0,0
-144.71956440177,-119.93971060044,24.810481048105,1362717.9501576,-1801.8135029706,2773140.3049324,30.010481048105,0,0
-144.71956429487,-119.9540647033,24.814911491149,1362717.9501576,-1801.8135029706,2773140.3049324,30.014911491149,0,0
-144.71956418797,-119.96841880616,24.819341934193,1362717.9501576,-1801.8135029706,2773140.3049324,30.019341934193,0,0
-144.71956408107,-119.98277290903,24.823772377238,1362717.9501576,-1801.8135029706,2773140.3049324,30.023772377238,0,0
-144.71956397417,-119.99712701189,24.828202820282,1362717.9501576,-1801.8135029706,2773140.3049324,30.028202820282,0,0
-144.71956386727,-120.01148111475,24.832633263326,1362717.9501576,-1801.8135029706,2773140.3049324,30.032633263326,0,0
-144.71956376037,-120.02583521761,24.837063706371,1362717.9501576,-1801.8135029706,2773140.3049324,30.037063706371,0,0
-144.71956365347,-120.04018932047,24.841494149415,1362717.9501576,-1801.8135029706,2773140.3049324,30.041494149415,0,0
-144.71956354657,-120.05454342334,24.845924592459,1362717.9501576,-1801.8135029706,2773140.3049324,30.045924592459,0,0
-144.71956343966,-120.0688975262,24.850355035504,1362717.9501576,-1801.8135029706,2773140.3049324,30.050355035504,0,0
-144.71956333276,-120.08325162906,24.854785478548,1362717.9501576,-1801.8135029706,2773140.3049324,30.054785478548,0,0
-144.71956322586,-120.09760573192,24.859215921592,1362717.9501576,-1801.8135029706,2773140.3049324,30.059215921592,0,0
-144.71956311896,-120.11195983478,24.863646364636,1362717.9501576,-1801.8135029706,2773140.3049324,30.063646364636,0,0
-144.71956301206,-120.12631393765,24.868076807681,1362717.9501576,-1801.8135029706,2773140.3049324,30.068076807681,0,0
-144.71956290516,-120.14066804051,24.872507250725,1362717.9501576,-1801.8135029706,2773140.3049324,30.072507250725,0,0
-144.71956279826,-120.15502214337,24.876937693769,1362717.9501576,-1801.8135029706,2773140.3049324,30.076937693769,0,0
-144.71956269136,-120.16937624623,24.881368136814,1362717.9501576,-1801.8135029706,2773140.3049324,30.081368136814,0,0
-144.71956258446,-120.1837303491,24.885798579858,1362717.9501576,-1801.8135029706,2773140.3049324,30.085798579858,0,0
-144.71956247756,-120.19808445196,24.890229022902,1362717.9501576,-1801.8135029706,2773140.3049324,30.090229022902,0,0
-144.71956237066,-120.21243855482,24.894659465947,1362717.9501576,-1801.8135029706,2773140.3049324,30.094659465947,0,0
-144.71956226376,-120.22679265768,24.899089908991,1362717.9501576,-1801.8135029706,2773140.3049324,30.099089908991,0,0
-144.71956215685,-120.24114676054,24.903520352035,1362717.9501576,-1801.8135029706,2773140.3049324,30.103520352035,0,0
-144.71956204995,-120.25550086341,24.90795079508,1362717.9501576,-1801.8135029706,2773140.3049324,30.10795079508,0,0
-144.71956194305,-120.26985496627,24.912381238124,1362717.9501576,-1801.8135029706,2773140.3049324,30.112381238124,0,0
-144.71956183615,-120.28420906913,24.916811681168,1362717.9501576,-1801.8135029706,2773140.3049324,30.116811681168,0,0
-144.71956172925,-120.29856317199,24.921242124212,1362717.9501576,-1801.8135029706,2773140.3049324,30.121242124212,0,0
-144.71956162235,-120.31291727485,24.925672567257,1362717.9501576,-1801.8135029706,2773140.3049324,30.125672567257,0,0
-144.71956151545,-120.32727137772,24.930103010301,1362717.9501576,-1801.8135029706,2773140.3049324,30.130103010301,0,0
-144.71956140855,-120.34162548058,24.934533453345,1362717.9501576,-1801.8135029706,2773140.3049324,30.134533453345,0,0
-144.71956130165,-120.35597958344,24.93896389639,1362717.9501576,-1801.8135029706,2773140.3049324,30.13896389639,0,0
-144.71956119475,-120.3703336863,24.943394339434,1362717.9501576,-1801.8135029706,2773140.3049324,30.143394339434,0,0
-144.71956108785,-120.38468778917,24.947824782478,1362717.9501576,-1801.8135029706,2773140.3049324,30.147824782478,0,0
-144.71956098095,-120.39904189203,24.952255225523,1362717.9501576,-1801.8135029706,2773140.3049324,30.152255225523,0,0
-144.71956087405,-120.41339599489,24.956685668567,1362717.9501576,-1801.8135029706,2773140.3049324,30.156685668567,0,0
-144.71956076714,-120.42775009775,24.961116111611,1362717.9501576,-1801.8135029706,2773140.3049324,30.161116111611,0,0
-144.71956066024,-120.44210420061,24.965546554655,1362717.9501576,-1801.8135029706,2773140.3049324,30.165546554655,0,0
-144.71956055334,-120.45645830348,24.9699769977,1362717.9501576,-1801.8135029706,2773140.3049324,30.1699769977,0,0
-144.71956044644,-120.47081240634,24.974407440744,1362717.9501576,-1801.8135029706,2773140.3049324,30.174407440744,0,0
-144.71956033954,-120.4851665092,24.978837883788,1362717.9501576,-1801.8135029706,2773140.3049324,30.178837883788,0,0
-144.71956023264,-120.49952061206,24.983268326833,1362717.9501576,-1801.8135029706,2773140.3049324,30.183268326833,0,0
-144.71956012574,-120.51387471493,24.987698769877,1362717.9501576,-1801.8135029706,2773140.3049324,30.187698769877,0,0
-144.71956001884,-120.52822881779,24.992129212921,1362717.9501576,-1801.8135029706,2773140.3049324,30.192129212921,0,0
-144.71955991194,-120.54258292065,24.996559655966,1362717.9501576,-1801.8135029706,2773140.3049324,30.196559655966,0,0
-144.71955980504,-120.55693702351,25.00099009901,1362717.9501576,-1801.8135029706,2773140.3049324,30.20099009901,0,0
-144.71955969814,-120.57129112637,25.005420542054,1362717.9501576,-1801.8135029706,2773140.3049324,30.205420542054,0,0
-144.71955959124,-120.58564522924,25.009850985099,1362717.9501576,-1801.8135029706,2773140.3049324,30.209850985099,0,0
-144.71955948434,-120.5999993321,25.014281428143,1362717.9501576,-1801.8135029706,2773140.3049324,30.214281428143,0,0
-144.71955937743,-120.61435343496,25.018711871187,1362717.9501576,-1801.8135029706,2773140.3049324,30.218711871187,0,0
-144.71955927053,-120.62870753782,25.023142314231,1362717.9501576,-1801.8135029706,2773140.3049324,30.223142314231,0,0
-144.71955916363,-120.64306164068,25.027572757276,1362717.9501576,-1801.8135029706,2773140.3049324,30.227572757276,0,0
-144.71955905673,-120.65741574355,25.03200320032,1362717.9501576,-1801.8135029706,2773140.3049324,30.23200320032,0,0
-144.71955894983,-120.67176984641,25.036433643364,1362717.9501576,-1801.8135029706,2773140.3049324,30.236433643364,0,0
-144.71955884293,-120.68612394927,25.040864086409,1362717.9501576,-1801.8135029706,2773140.3049324,30.240864086409,0,0
-144.71955873603,-120.70047805213,25.045294529453,1362717.9501576,-1801.8135029706,2773140.3049324,30.245294529453,0,0
-144.71955862913,-120.714832155,25.049724972497,1362717.9501576,-1801.8135029706,2773140.3049324,30.249724972497,0,0
-144.71955852223,-120.72918625786,25.054155415542,1362717.9501576,-1801.8135029706,2773140.3049324,30.254155415542,0,0
-144.71955841533,-120.74354036072,25.058585858586,1362717.9501576,-1801.8135029706,2773140.3049324,30.258585858586,0,0
-144.71955830843,-120.75789446358,25.06301630163,1362717.9501576,-1801.8135029706,2773140.3049324,30.26301630163,0,0
-144.71955820153,-120.77224856644,25.067446744674,1362717.9501576,-1801.8135029706,2773140.3049324,30.267446744674,0,0
-144.71955809463,-120.78660266931,25.071877187719,1362717.9501576,-1801.8135029706,2773140.3049324,30.271877187719,0,0
-144.71955798772,-120.80095677217,25.076307630763,1362717.9501576,-1801.8135029706,2773140.3049324,30.276307630763,0,0
-144.71955788082,-120.81531087503,25.080738073807,1362717.9501576,-1801.8135029706,2773140.3049324,30.280738073807,0,0
-144.71955777392,-120.82966497789,25.085168516852,1362717.9501576,-1801.8135029706,2773140.3049324,30.285168516852,0,0
-144.71955766702,-120.84401908075,25.089598959896,1362717.9501576,-1801.8135029706,2773140.3049324,30.289598959896,0,0
-144.71955756012,-120.85837318362,25.09402940294,1362717.9501576,-1801.8135029706,2773140.3049324,30.29402940294,0,0
-144.71955745322,-120.87272728648,25.098459845985,1362717.9501576,-1801.8135029706,2773140.3049324,30.298459845985,0,0
-144.71955734632,-120.88708138934,25.102890289029,1362717.9501576,-1801.8135029706,2773140.3049324,30.302890289029,0,0
-144.71955723942,-120.9014354922,25.107320732073,1362717.9501576,-1801.8135029706,2773140.3049324,30.307320732073,0,0
-144.71955713252,-120.91578959507,25.111751175118,1362717.9501576,-1801.8135029706,2773140.3049324,30.311751175118,0,0
-144.71955702562,-120.93014369793,25.116181618162,1362717.9501576,-1801.8135029706,2773140.3049324,30.316181618162,0,0
-144.71955691872,-120.94449780079,25.120612061206,1362717.9501576,-1801.8135029706,2773140.3049324,30.320612061206,0,0
-144.71955681182,-120.95885190365,25.12504250425,1362717.9501576,-1801.8135029706,2773140.3049324,30.32504250425,0,0
-144.71955670492,-120.97320600651,25.129472947295,1362717.9501576,-1801.8135029706,2773140.3049324,30.329472947295,0,0
-144.71955659801,-120.98756010938,25.133903390339,1362717.9501576,-1801.8135029706,2773140.3049324,30.333903390339,0,0
-144.71955649111,-121.00191421224,25.138333833383,1362717.9501576,-1801.8135029706,2773140.3049324,30.338333833383,0,0
-144.71955638421,-121.0162683151,25.142764276428,1362717.9501576,-1801.8135029706,2773140.3049324,30.342764276428,0,0
-144.71955627731,-121.03062241796,25.147194719472,1362717.9501576,-1801.8135029706,2773140.3049324,30.347194719472,0,0
-144.71955617041,-121.04497652082,25.151625162516,1362717.9501576,-1801.8135029706,2773140.3049324,30.351625162516,0,0
-144.71955606351,-121.05933062369,25.156055605561,1362717.9501576,-1801.8135029706,2773140.3049324,30.356055605561,0,0
-144.71955595661,-121.07368472655,25.160486048605,1362717.9501576,-1801.8135029706,2773140.3049324,30.360486048605,0,0
-144.71955584971,-121.08803882941,25.164916491649,1362717.9501576,-1801.8135029706,2773140.3049324,30.364916491649,0,0
-144.71955574281,-121.10239293227,25.169346934693,1362717.9501576,-1801.8135029706,2773140.3049324,30.369346934693,0,0
-144.71955563591,-121.11674703514,25.173777377738,1362717.9501576,-1801.8135029706,2773140.3049324,30.373777377738,0,0
-144.71955552901,-121.131101138,25.178207820782,1362717.9501576,-1801.8135029706,2773140.3049324,30.378207820782,0,0
-144.71955542211,-121.14545524086,25.182638263826,1362717.9501576,-1801.8135029706,2773140.3049324,30.382638263826,0,0
-144.71955531521,-121.15980934372,25.187068706871,1362717.9501576,-1801.8135029706,2773140.3049324,30.387068706871,0,0
-144.7195552083,-121.17416344658,25.191499149915,1362717.9501576,-1801.8135029706,2773140.3049324,30.391499149915,0,0
-144.7195551014,-121.18851754945,25.195929592959,1362717.9501576,-1801.8135029706,2773140.3049324,30.395929592959,0,0
-144.7195549945,-121.20287165231,25.200360036004,1362717.9501576,-1801.8135029706,2773140.3049324,30.400360036004,0,0
-144.7195548876,-121.21722575517,25.204790479048,1362717.9501576,-1801.8135029706,2773140.3049324,30.404790479048,0,0
-144.7195547807,-121.23157985803,25.209220922092,1362717.9501576,-1801.8135029706,2773140.3049324,30.409220922092,0,0
-144.7195546738,-121.24593396089,25.213651365137,1362717.9501576,-1801.8135029706,2773140.3049323,30.413651365137,0,0
-144.7195545669,-121.26028806376,25.218081808181,1362717.9501576,-1801.8135029706,2773140.3049323,30.418081808181,0,0
-144.71955446,-121.27464216662,25.222512251225,1362717.9501576,-1801.8135029706,2773140.3049323,30.422512251225,0,0
-144.7195543531,-121.28899626948,25.226942694269,1362717.9501576,-1801.8135029706,2773140.3049323,30.426942694269,0,0
-144.7195542462,-121.30335037234,25.231373137314,1362717.9501576,-1801.8135029706,2773140.3049323,30.431373137314,0,0
-144.7195541393,-121.31770447521,25.235803580358,1362717.9501576,-1801.8135029706,2773140.3049323,30.435803580358,0,0
-144.7195540324,-121.33205857807,25.240234023402,1362717.9501576,-1801.8135029706,2773140.3049323,30.440234023402,0,0
-144.7195539255,-121.34641268093,25.244664466447,1362717.9501576,-1801.8135029706,2773140.3049323,30.444664466447,0,0
-144.71955381859,-121.36076678379,25.249094909491,1362717.9501576,-1801.8135029706,2773140.3049323,30.449094909491,0,0
-144.71955371169,-121.37512088665,25.253525352535,1362717.9501576,-1801.8135029706,2773140.3049323,30.453525352535,0,0
-144.71955360479,-121.38947498952,25.25795579558,1362717.9501576,-1801.8135029706,2773140.3049323,30.45795579558,0,0
-144.71955349789,-121.40382909238,25.262386238624,1362717.9501576,-1801.8135029706,2773140.3049323,30.462386238624,0,0
-144.71955339099,-121.41818319524,25.266816681668,1362717.9501576,-1801.8135029706,2773140.3049323,30.466816681668,0,0
-144.71955328409,-121.4325372981,25.271247124712,1362717.9501576,-1801.8135029706,2773140.3049323,30.471247124712,0,0
-144.71955317719,-121.44689140096,25.275677567757,1362717.9501576,-1801.8135029706,2773140.3049323,30.475677567757,0,0
-144.71955307029,-121.46124550383,25.280108010801,1362717.9501576,-1801.8135029706,2773140.3049323,30.480108010801,0,0
-144.71955296339,-121.47559960669,25.284538453845,1362717.9501576,-1801.8135029706,2773140.3049323,30.484538453845,0,0
-144.71955285649,-121.48995370955,25.28896889689,1362717.9501576,-1801.8135029706,2773140.3049323,30.48896889689,0,0
-144.71955274959,-121.50430781241,25.293399339934,1362717.9501576,-1801.8135029706,2773140.3049323,30.493399339934,0,0
-144.71955264269,-121.51866191528,25.297829782978,1362717.9501576,-1801.8135029706,2773140.3049323,30.497829782978,0,0
-144.71955253579,-121.53301601814,25.302260226023,1362717.9501576,-1801.8135029706,2773140.3049323,30.502260226023,0,0
-144.71955242888,-121.547370121,25.306690669067,1362717.9501576,-1801.8135029706,2773140.3049323,30.506690669067,0,0
-144.71955232198,-121.56172422386,25.311121112111,1362717.9501576,-1801.8135029706,2773140.3049323,30.511121112111,0,0
-144.71955221508,-121.57607832672,25.315551555156,1362717.9501576,-1801.8135029706,2773140.3049323,30.515551555156,0,0
-144.71955210818,-121.59043242959,25.3199819982,1362717.9501576,-1801.8135029706,2773140.3049323,30.5199819982,0,0
-144.71955200128,-121.60478653245,25.324412441244,1362717.9501576,-1801.8135029706,2773140.3049323,30.524412441244,0,0
-144.71955189438,-121.61914063531,25.328842884288,1362717.9501576,-1801.8135029706,2773140.3049323,30.528842884288,0,0
-144.71955178748,-121.63349473817,25.333273327333,1362717.9501576,-1801.8135029706,2773140.3049323,30.533273327333,0,0
-144.71955168058,-121.64784884104,25.337703770377,1362717.9501576,-1801.8135029706,2773140.3049323,30.537703770377,0,0
-144.71955157368,-121.6622029439,25.342134213421,1362717.9501576,-1801.8135029706,2773140.3049323,30.542134213421,0,0
-144.71955146678,-121.67655704676,25.346564656466,1362717.9501576,-1801.8135029706,2773140.3049323,30.546564656466,0,0
-144.71955135988,-121.69091114962,25.35099509951,1362717.9501576,-1801.8135029706,2773140.3049323,30.55099509951,0,0
-144.71955125298,-121.70526525248,25.355425542554,1362717.9501576,-1801.8135029706,2773140.3049323,30.555425542554,0,0
-144.71955114608,-121.71961935535,25.359855985599,1362717.9501576,-1801.8135029706,2773140.3049323,30.559855985599,0,0
-144.71955103917,-121.73397345821,25.364286428643,1362717.9501576,-1801.8135029706,2773140.3049323,30.564286428643,0,0
-144.71955093227,-121.74832756107,25.368716871687,1362717.9501576,-1801.8135029706,2773140.3049323,30.568716871687,0,0
-144.71955082537,-121.76268166393,25.373147314731,1362717.9501576,-1801.8135029706,2773140.3049323,30.573147314731,0,0
-144.71955071847,-121.77703576679,25.377577757776,1362717.9501576,-1801.8135029706,2773140.3049323,30.577577757776,0,0
-144.71955061157,-121.79138986966,25.38200820082,1362717.9501576,-1801.8135029706,2773140.3049323,30.58200820082,0,0
-144.71955050467,-121.80574397252,25.386438643864,1362717.9501576,-1801.8135029706,2773140.3049323,30.586438643864,0,0
-144.71955039777,-121.82009807538,25.390869086909,1362717.9501576,-1801.8135029706,2773140.3049323,30.590869086909,0,0
-144.71955029087,-121.83445217824,25.395299529953,1362717.9501576,-1801.8135029706,2773140.3049323,30.595299529953,0,0
-144.71955018397,-121.84880628111,25.399729972997,1362717.9501576,-1801.8135029706,2773140.3049323,30.599729972997,0,0
-144.71955007707,-121.86316038397,25.404160416042,1362717.9501576,-1801.8135029706,2773140.3049323,30.604160416042,0,0
-144.71954997017,-121.87751448683,25.408590859086,1362717.9501576,-1801.8135029706,2773140.3049323,30.608590859086,0,0
-144.71954986327,-121.89186858969,25.41302130213,1362717.9501576,-1801.8135029706,2773140.3049323,30.61302130213,0,0
-144.71954975637,-121.90622269255,25.417451745175,1362717.9501576,-1801.8135029706,2773140.3049323,30.617451745175,0,0
-144.71954964946,-121.92057679542,25.421882188219,1362717.9501576,-1801.8135029706,2773140.3049323,30.621882188219,0,0
-144.71954954256,-121.93493089828,25.426312631263,1362717.9501576,-1801.8135029706,2773140.3049323,30.626312631263,0,0
-144.71954943566,-121.94928500114,25.430743074307,1362717.9501576,-1801.8135029706,2773140.3049323,30.630743074307,0,0
-144.71954932876,-121.963639104,25.435173517352,1362717.9501576,-1801.8135029706,2773140.3049323,30.635173517352,0,0
-144.71954922186,-121.97799320686,25.439603960396,1362717.9501576,-1801.8135029706,2773140.3049323,30.639603960396,0,0
-144.71954911496,-121.99234730973,25.44403440344,1362717.9501576,-1801.8135029706,2773140.3049323,30.64403440344,0,0
-144.71954900806,-122.00670141259,25.448464846485,1362717.9501576,-1801.8135029706,2773140.3049323,30.648464846485,0,0
-144.71954890116,-122.02105551545,25.452895289529,1362717.9501576,-1801.8135029706,2773140.3049323,30.652895289529,0,0
-144.71954879426,-122.03540961831,25.457325732573,1362717.9501576,-1801.8135029706,2773140.3049323,30.657325732573,0,0
-144.71954868736,-122.04976372118,25.461756175618,1362717.9501576,-1801.8135029706,2773140.3049323,30.661756175618,0,0
-144.71954858046,-122.06411782404,25.466186618662,1362717.9501576,-1801.8135029706,2773140.3049323,30.666186618662,0,0
-144.71954847356,-122.0784719269,25.470617061706,1362717.9501576,-1801.8135029706,2773140.3049323,30.670617061706,0,0
-144.71954836666,-122.09282602976,25.47504750475,1362717.9501576,-1801.8135029706,2773140.3049323,30.67504750475,0,0
-144.71954825975,-122.10718013262,25.479477947795,1362717.9501576,-1801.8135029706,2773140.3049323,30.679477947795,0,0
-144.71954815285,-122.12153423549,25.483908390839,1362717.9501576,-1801.8135029706,2773140.3049323,30.683908390839,0,0
-144.71954804595,-122.13588833835,25.488338833883,1362717.9501576,-1801.8135029706,2773140.3049323,30.688338833883,0,0
-144.71954793905,-122.15024244121,25.492769276928,1362717.9501576,-1801.8135029706,2773140.3049323,30.692769276928,0,0
-144.71954783215,-122.16459654407,25.497199719972,1362717.9501576,-1801.8135029706,2773140.3049323,30.697199719972,0,0
-144.71954772525,-122.17895064693,25.501630163016,1362717.9501576,-1801.8135029706,2773140.3049323,30.701630163016,0,0
-144.71954761835,-122.1933047498,25.506060606061,1362717.9501576,-1801.8135029706,2773140.3049323,30.706060606061,0,0
-144.71954751145,-122.20765885266,25.510491049105,1362717.9501576,-1801.8135029706,2773140.3049323,30.710491049105,0,0
-144.71954740455,-122.22201295552,25.514921492149,1362717.9501576,-1801.8135029706,2773140.3049323,30.714921492149,0,0
-144.71954729765,-122.23636705838,25.519351935194,1362717.9501576,-1801.8135029706,2773140.3049323,30.719351935194,0,0
-144.71954719075,-122.25072116125,25.523782378238,1362717.9501576,-1801.8135029706,2773140.3049323,30.723782378238,0,0
-144.71954708385,-122.26507526411,25.528212821282,1362717.9501576,-1801.8135029706,2773140.3049323,30.728212821282,0,0
-144.71954697694,-122.27942936697,25.532643264326,1362717.9501576,-1801.8135029706,2773140.3049323,30.732643264326,0,0
-144.71954687004,-122.29378346983,25.537073707371,1362717.9501576,-1801.8135029706,2773140.3049323,30.737073707371,0,0
-144.71954676314,-122.30813757269,25.541504150415,1362717.9501576,-1801.8135029706,2773140.3049323,30.741504150415,0,0
-144.71954665624,-122.32249167556,25.545934593459,1362717.9501576,-1801.8135029706,2773140.3049323,30.745934593459,0,0
-144.71954654934,-122.33684577842,25.550365036504,1362717.9501576,-1801.8135029706,2773140.3049323,30.750365036504,0,0
-144.71954644244,-122.35119988128,25.554795479548,1362717.9501576,-1801.8135029706,2773140.3049323,30.754795479548,0,0
-144.71954633554,-122.36555398414,25.559225922592,1362717.9501576,-1801.8135029706,2773140.3049323,30.759225922592,0,0
-144.71954622864,-122.379908087,25.563656365637,1362717.9501576,-1801.8135029706,2773140.3049323,30.763656365637,0,0
-144.71954612174,-122.39426218987,25.568086808681,1362717.9501576,-1801.8135029706,2773140.3049323,30.768086808681,0,0
-144.71954601484,-122.40861629273,25.572517251725,1362717.9501576,-1801.8135029706,2773140.3049323,30.772517251725,0,0
-144.71954590794,-122.42297039559,25.576947694769,1362717.9501576,-1801.8135029706,2773140.3049323,30.776947694769,0,0
-144.71954580104,-122.43732449845,25.581378137814,1362717.9501576,-1801.8135029706,2773140.3049323,30.781378137814,0,0
-144.71954569414,-122.45167860132,25.585808580858,1362717.9501576,-1801.8135029706,2773140.3049323,30.785808580858,0,0
-144.71954558723,-122.46603270418,25.590239023902,1362717.9501576,-1801.8135029706,2773140.3049323,30.790239023902,0,0
-144.71954548033,-122.48038680704,25.594669466947,1362717.9501576,-1801.8135029706,2773140.3049323,30.794669466947,0,0
-144.71954537343,-122.4947409099,25.599099909991,1362717.9501576,-1801.8135029706,2773140.3049323,30.799099909991,0,0
-144.71954526653,-122.50909501276,25.603530353035,1362717.9501576,-1801.8135029706,2773140.3049323,30.803530353035,0,0
-144.71954515963,-122.52344911563,25.60796079608,1362717.9501576,-1801.8135029706,2773140.3049323,30.80796079608,0,0
-144.71954505273,-122.53780321849,25.612391239124,1362717.9501576,-1801.8135029706,2773140.3049323,30.812391239124,0,0
-144.71954494583,-122.55215732135,25.616821682168,1362717.9501576,-1801.8135029706,2773140.3049323,30.816821682168,0,0
-144.71954483893,-122.56651142421,25.621252125213,1362717.9501576,-1801.8135029706,2773140.3049323,30.821252125213,0,0
-144.71954473203,-122.58086552707,25.625682568257,1362717.9501576,-1801.8135029706,2773140.3049323,30.825682568257,0,0
-144.71954462513,-122.59521962994,25.630113011301,1362717.9501576,-1801.8135029706,2773140.3049323,30.830113011301,0,0
-144.71954451823,-122.6095737328,25.634543454345,1362717.9501576,-1801.8135029706,2773140.3049323,30.834543454345,0,0
-144.71954441133,-122.62392783566,25.63897389739,1362717.9501576,-1801.8135029706,2773140.3049323,30.83897389739,0,0
-144.71954430443,-122.63828193852,25.643404340434,1362717.9501576,-1801.8135029706,2773140.3049323,30.843404340434,0,0
-144.71954419752,-122.65263604139,25.647834783478,1362717.9501576,-1801.8135029706,2773140.3049323,30.847834783478,0,0
-144.71954409062,-122.66699014425,25.652265226523,1362717.9501576,-1801.8135029706,2773140.3049323,30.852265226523,0,0
-144.71954398372,-122.68134424711,25.656695669567,1362717.9501576,-1801.8135029706,2773140.3049323,30.856695669567,0,0
-144.71954387682,-122.69569834997,25.661126112611,1362717.9501576,-1801.8135029706,2773140.3049323,30.861126112611,0,0
-144.71954376992,-122.71005245283,25.665556555656,1362717.9501576,-1801.8135029706,2773140.3049323,30.865556555656,0,0
-144.71954366302,-122.7244065557,25.6699869987,1362717.9501576,-1801.8135029706,2773140.3049323,30.8699869987,0,0
-144.71954355612,-122.73876065856,25.674417441744,1362717.9501576,-1801.8135029706,2773140.3049323,30.874417441744,0,0
-144.71954344922,-122.75311476142,25.678847884788,1362717.9501576,-1801.8135029706,2773140.3049323,30.878847884788,0,0
-144.71954334232,-122.76746886428,25.683278327833,1362717.9501576,-1801.8135029706,2773140.3049323,30.883278327833,0,0
-144.71954323542,-122.78182296715,25.687708770877,1362717.9501576,-1801.8135029706,2773140.3049323,30.887708770877,0,0
-144.71954312852,-122.79617707001,25.692139213921,1362717.9501576,-1801.8135029706,2773140.3049323,30.892139213921,0,0
-144.71954302162,-122.81053117287,25.696569656966,1362717.9501576,-1801.8135029706,2773140.3049323,30.896569656966,0,0
-144.71954291472,-122.82488527573,25.70100010001,1362717.9501576,-1801.8135029706,2773140.3049323,30.90100010001,0,0
-144.71954280781,-122.83923937859,25.705430543054,1362717.9501576,-1801.8135029706,2773140.3049323,30.905430543054,0,0
-144.71954270091,-122.85359348146,25.709860986099,1362717.9501576,-1801.8135029706,2773140.3049323,30.909860986099,0,0
-144.71954259401,-122.86794758432,25.714291429143,1362717.9501576,-1801.8135029706,2773140.3049323,30.914291429143,0,0
-144.71954248711,-122.88230168718,25.718721872187,1362717.9501576,-1801.8135029706,2773140.3049323,30.918721872187,0,0
-144.71954238021,-122.89665579004,25.723152315232,1362717.9501576,-1801.8135029706,2773140.3049323,30.923152315232,0,0
-144.71954227331,-122.9110098929,25.727582758276,1362717.9501576,-1801.8135029706,2773140.3049323,30.927582758276,0,0
-144.71954216641,-122.92536399577,25.73201320132,1362717.9501576,-1801.8135029706,2773140.3049323,30.93201320132,0,0
-144.71954205951,-122.93971809863,25.736443644364,1362717.9501576,-1801.8135029706,2773140.3049323,30.936443644364,0,0
-144.71954195261,-122.95407220149,25.740874087409,1362717.9501576,-1801.8135029706,2773140.3049323,30.940874087409,0,0
-144.71954184571,-122.96842630435,25.745304530453,1362717.9501576,-1801.8135029706,2773140.3049323,30.945304530453,0,0
-144.71954173881,-122.98278040722,25.749734973497,1362717.9501576,-1801.8135029706,2773140.3049323,30.949734973497,0,0
-144.71954163191,-122.99713451008,25.754165416542,1362717.9501576,-1801.8135029706,2773140.3049323,30.954165416542,0,0
-144.71954152501,-123.01148861294,25.758595859586,1362717.9501576,-1801.8135029706,2773140.3049323,30.958595859586,0,0
-144.7195414181,-123.0258427158,25.76302630263,1362717.9501576,-1801.8135029706,2773140.3049323,30.96302630263,0,0
-144.7195413112,-123.04019681866,25.767456745675,1362717.9501576,-1801.8135029706,2773140.3049323,30.967456745675,0,0
-144.7195412043,-123.05455092153,25.771887188719,1362717.9501576,-1801.8135029706,2773140.3049323,30.971887188719,0,0
-144.7195410974,-123.06890502439,25.776317631763,1362717.9501576,-1801.8135029706,2773140.3049323,30.976317631763,0,0
-144.7195409905,-123.08325912725,25.780748074807,1362717.9501576,-1801.8135029706,2773140.3049323,30.980748074807,0,0
-144.7195408836,-123.09761323011,25.785178517852,1362717.9501576,-1801.8135029706,2773140.3049323,30.985178517852,0,0
-144.7195407767,-123.11196733297,25.789608960896,1362717.9501576,-1801.8135029706,2773140.3049323,30.989608960896,0,0
-144.7195406698,-123.12632143584,25.79403940394,1362717.9501576,-1801.8135029706,2773140.3049323,30.99403940394,0,0
-144.7195405629,-123.1406755387,25.798469846985,1362717.9501576,-1801.8135029706,2773140.3049323,30.998469846985,0,0
-144.719540456,-123.15502964156,25.802900290029,1362717.9501576,-1801.8135029706,2773140.3049323,31.002900290029,0,0
-144.7195403491,-123.16938374442,25.807330733073,1362717.9501576,-1801.8135029706,2773140.3049323,31.007330733073,0,0
-144.7195402422,-123.18373784729,25.811761176118,1362717.9501576,-1801.8135029706,2773140.3049323,31.011761176118,0,0
-144.7195401353,-123.19809195015,25.816191619162,1362717.9501576,-1801.8135029706,2773140.3049323,31.016191619162,0,0
-144.71954002839,-123.21244605301,25.820622062206,1362717.9501576,-1801.8135029706,2773140.3049323,31.020622062206,0,0
-144.71953992149,-123.22680015587,25.825052505251,1362717.9501576,-1801.8135029706,2773140.3049323,31.025052505251,0,0
-144.71953981459,-123.24115425873,25.829482948295,1362717.9501576,-1801.8135029706,2773140.3049323,31.029482948295,0,0
-144.71953970769,-123.2555083616,25.833913391339,1362717.9501576,-1801.8135029706,2773140.3049323,31.033913391339,0,0
-144.71953960079,-123.26986246446,25.838343834383,1362717.9501576,-1801.8135029706,2773140.3049323,31.038343834383,0,0
-144.71953949389,-123.28421656732,25.842774277428,1362717.9501576,-1801.8135029706,2773140.3049323,31.042774277428,0,0
-144.71953938699,-123.29857067018,25.847204720472,1362717.9501576,-1801.8135029706,2773140.3049323,31.047204720472,0,0
-144.71953928009,-123.31292477304,25.851635163516,1362717.9501576,-1801.8135029706,2773140.3049323,31.051635163516,0,0
-144.71953917319,-123.32727887591,25.856065606561,1362717.9501576,-1801.8135029706,2773140.3049323,31.056065606561,0,0
-144.71953906629,-123.34163297877,25.860496049605,1362717.9501576,-1801.8135029706,2773140.3049323,31.060496049605,0,0
-144.71953895939,-123.35598708163,25.864926492649,1362717.9501576,-1801.8135029706,2773140.3049323,31.064926492649,0,0
-144.71953885249,-123.37034118449,25.869356935694,1362717.9501576,-1801.8135029706,2773140.3049323,31.069356935694,0,0
-144.71953874559,-123.38469528736,25.873787378738,1362717.9501576,-1801.8135029706,2773140.3049323,31.073787378738,0,0
-144.71953863868,-123.39904939022,25.878217821782,1362717.9501576,-1801.8135029706,2773140.3049323,31.078217821782,0,0
-144.71953853178,-123.41340349308,25.882648264826,1362717.9501576,-1801.8135029706,2773140.3049323,31.082648264826,0,0
-144.71953842488,-123.42775759594,25.887078707871,1362717.9501576,-1801.8135029706,2773140.3049323,31.087078707871,0,0
-144.71953831798,-123.4421116988,25.891509150915,1362717.9501576,-1801.8135029706,2773140.3049323,31.091509150915,0,0
-144.71953821108,-123.45646580167,25.895939593959,1362717.9501576,-1801.8135029706,2773140.3049323,31.095939593959,0,0
-144.71953810418,-123.47081990453,25.900370037004,1362717.9501576,-1801.8135029706,2773140.3049323,31.100370037004,0,0
-144.71953799728,-123.48517400739,25.904800480048,1362717.9501576,-1801.8135029706,2773140.3049323,31.104800480048,0,0
-144.71953789038,-123.49952811025,25.909230923092,1362717.9501576,-1801.8135029706,2773140.3049323,31.109230923092,0,0
-144.71953778348,-123.51388221311,25.913661366137,1362717.9501576,-1801.8135029706,2773140.3049323,31.113661366137,0,0
-144.71953767658,-123.52823631598,25.918091809181,1362717.9501576,-1801.8135029706,2773140.3049323,31.118091809181,0,0
-144.71953756968,-123.54259041884,25.922522252225,1362717.9501576,-1801.8135029706,2773140.3049323,31.122522252225,0,0
-144.71953746278,-123.5569445217,25.92695269527,1362717.9501576,-1801.8135029706,2773140.3049323,31.12695269527,0,0
-144.71953735588,-123.57129862456,25.931383138314,1362717.9501576,-1801.8135029706,2773140.3049323,31.131383138314,0,0
-144.71953724897,-123.58565272743,25.935813581358,1362717.9501576,-1801.8135029706,2773140.3049323,31.135813581358,0,0
-144.71953714207,-123.60000683029,25.940244024402,1362717.9501576,-1801.8135029706,2773140.3049323,31.140244024402,0,0
-144.71953703517,-123.61436093315,25.944674467447,1362717.9501576,-1801.8135029706,2773140.3049323,31.144674467447,0,0
-144.71953692827,-123.62871503601,25.949104910491,1362717.9501576,-1801.8135029706,2773140.3049323,31.149104910491,0,0
-144.71953682137,-123.64306913887,25.953535353535,1362717.9501576,-1801.8135029706,2773140.3049323,31.153535353535,0,0
-144.71953671447,-123.65742324174,25.95796579658,1362717.9501576,-1801.8135029706,2773140.3049323,31.15796579658,0,0
-144.71953660757,-123.6717773446,25.962396239624,1362717.9501576,-1801.8135029706,2773140.3049323,31.162396239624,0,0
-144.71953650067,-123.68613144746,25.966826682668,1362717.9501576,-1801.8135029706,2773140.3049323,31.166826682668,0,0
-144.71953639377,-123.70048555032,25.971257125713,1362717.9501576,-1801.8135029706,2773140.3049323,31.171257125713,0,0
-144.71953628687,-123.71483965318,25.975687568757,1362717.9501576,-1801.8135029706,2773140.3049323,31.175687568757,0,0
-144.71953617997,-123.72919375605,25.980118011801,1362717.9501576,-1801.8135029706,2773140.3049323,31.180118011801,0,0
-144.71953607307,-123.74354785891,25.984548454845,1362717.9501576,-1801.8135029706,2773140.3049323,31.184548454845,0,0
-144.71953596617,-123.75790196177,25.98897889789,1362717.9501576,-1801.8135029706,2773140.3049323,31.18897889789,0,0
-144.71953585926,-123.77225606463,25.993409340934,1362717.9501576,-1801.8135029706,2773140.3049323,31.193409340934,0,0
-144.71953575236,-123.7866101675,25.997839783978,1362717.9501576,-1801.8135029706,2773140.3049323,31.197839783978,0,0
-144.71953564546,-123.80096427036,26.002270227023,1362717.9501576,-1801.8135029706,2773140.3049323,31.202270227023,0,0
-144.71953553856,-123.81531837322,26.006700670067,1362717.9501576,-1801.8135029706,2773140.3049323,31.206700670067,0,0
-144.71953543166,-123.82967247608,26.011131113111,1362717.9501576,-1801.8135029706,2773140.3049323,31.211131113111,0,0
-144.71953532476,-123.84402657894,26.015561556156,1362717.9501576,-1801.8135029706,2773140.3049323,31.215561556156,0,0
-144.71953521786,-123.85838068181,26.0199919992,1362717.9501576,-1801.8135029706,2773140.3049323,31.2199919992,0,0
-144.71953511096,-123.87273478467,26.024422442244,1362717.9501576,-1801.8135029706,2773140.3049323,31.224422442244,0,0
-144.71953500407,-123.88708888719,26.028852885289,1361292.3239145,515.33362400279,2769552.5850355,31.228852885289,0,0
-144.71953489719,-123.90144298957,26.033283328333,1361292.3239145,515.33362400279,2769552.5850355,31.233283328333,0,0
-144.71953479031,-123.91579709194,26.037713771377,1361292.3239145,515.33362400279,2769552.5850355,31.237713771377,0,0
-144.71953468342,-123.93015119432,26.042144214421,1361292.3239145,515.33362400279,2769552.5850355,31.242144214421,0,0
-144.71953457654,-123.9445052967,26.046574657466,1361292.3239145,515.33362400279,2769552.5850355,31.246574657466,0,0
-144.71953446966,-123.95885939908,26.05100510051,1361292.3239145,515.33362400279,2769552.5850355,31.25100510051,0,0
-144.71953436278,-123.97321350146,26.055435543554,1361292.3239145,515.33362400279,2769552.5850355,31.255435543554,0,0
-144.71953425589,-123.98756760383,26.059865986599,1361292.3239145,515.33362400279,2769552.5850355,31.259865986599,0,0
-144.71953414901,-124.00192170621,26.064296429643,1361292.3239145,515.33362400279,2769552.5850355,31.264296429643,0,0
-144.71953404213,-124.01627580859,26.068726872687,1361292.3239145,515.33362400279,2769552.5850355,31.268726872687,0,0
-144.71953393525,-124.03062991097,26.073157315732,1361292.3239145,515.33362400279,2769552.5850355,31.273157315732,0,0
-144.71953382836,-124.04498401335,26.077587758776,1361292.3239145,515.33362400279,2769552.5850355,31.277587758776,0,0
-144.71953372148,-124.05933811572,26.08201820182,1361292.3239145,515.33362400279,2769552.5850355,31.28201820182,0,0
-144.7195336146,-124.0736922181,26.086448644864,1361292.3239145,515.33362400279,2769552.5850355,31.286448644864,0,0
-144.71953350772,-124.08804632048,26.090879087909,1361292.3239145,515.33362400279,2769552.5850355,31.290879087909,0,0
-144.71953340083,-124.10240042286,26.095309530953,1361292.3239145,515.33362400279,2769552.5850355,31.295309530953,0,0
-144.71953329395,-124.11675452524,26.099739973997,1361292.3239145,515.33362400279,2769552.5850355,31.299739973997,0,0
-144.71953318707,-124.13110862761,26.104170417042,1361292.3239145,515.33362400279,2769552.5850355,31.304170417042,0,0
-144.71953308019,-124.14546272999,26.108600860086,1361292.3239145,515.33362400279,2769552.5850355,31.308600860086,0,0
-144.71953297331,-124.15981683237,26.11303130313,1361292.3239145,515.33362400279,2769552.5850355,31.31303130313,0,0
-144.71953286642,-124.17417093475,26.117461746175,1361292.3239145,515.33362400279,2769552.5850355,31.317461746175,0,0
-144.71953275954,-124.18852503713,26.121892189219,1361292.3239145,515.33362400279,2769552.5850355,31.321892189219,0,0
-144.71953265266,-124.2028791395,26.126322632263,1361292.3239145,515.33362400279,2769552.5850355,31.326322632263,0,0
-144.71953254578,-124.21723324188,26.130753075308,1361292.3239145,515.33362400279,2769552.5850355,31.330753075308,0,0
-144.71953243889,-124.23158734426,26.135183518352,1361292.3239145,515.33362400279,2769552.5850355,31.335183518352,0,0
-144.71953233201,-124.24594144664,26.139613961396,1361292.3239145,515.33362400279,2769552.5850355,31.339613961396,0,0
-144.71953222513,-124.26029554902,26.14404440444,1361292.3239145,515.33362400279,2769552.5850355,31.34404440444,0,0
-144.71953211825,-124.27464965139,26.148474847485,1361292.3239145,515.33362400279,2769552.5850355,31.348474847485,0,0
-144.71953201136,-124.28900375377,26.152905290529,1361292.3239145,515.33362400279,2769552.5850355,31.352905290529,0,0
-144.71953190448,-124.30335785615,26.157335733573,1361292.3239145,515.33362400279,2769552.5850355,31.357335733573,0,0
-144.7195317976,-124.31771195853,26.161766176618,1361292.3239145,515.33362400279,2769552.5850355,31.361766176618,0,0
-144.71953169072,-124.33206606091,26.166196619662,1361292.3239145,515.33362400279,2769552.5850355,31.366196619662,0,0
-144.71953158383,-124.34642016328,26.170627062706,1361292.3239145,515.33362400279,2769552.5850355,31.370627062706,0,0
-144.71953147695,-124.36077426566,26.175057505751,1361292.3239145,515.33362400279,2769552.5850355,31.375057505751,0,0
-144.71953137007,-124.37512836804,26.179487948795,1361292.3239145,515.33362400279,2769552.5850355,31.379487948795,0,0
-144.71953126319,-124.38948247042,26.183918391839,1361292.3239145,515.33362400279,2769552.5850355,31.383918391839,0,0
-144.7195311563,-124.4038365728,26.188348834883,1361292.3239145,515.33362400279,2769552.5850355,31.388348834883,0,0
-144.71953104942,-124.41819067517,26.192779277928,1361292.3239145,515.33362400279,2769552.5850355,31.392779277928,0,0
-144.71953094254,-124.43254477755,26.197209720972,1361292.3239145,515.33362400279,2769552.5850355,31.397209720972,0,0
-144.71953083566,-124.44689887993,26.201640164016,1361292.3239145,515.33362400279,2769552.5850355,31.401640164016,0,0
-144.71953072877,-124.46125298231,26.206070607061,1361292.3239145,515.33362400279,2769552.5850355,31.406070607061,0,0
-144.71953062189,-124.47560708469,26.210501050105,1361292.3239145,515.33362400279,2769552.5850355,31.410501050105,0,0
-144.71953051501,-124.48996118707,26.214931493149,1361292.3239145,515.33362400279,2769552.5850355,31.414931493149,0,0
-144.71953040813,-124.50431528944,26.219361936194,1361292.3239145,515.33362400279,2769552.5850355,31.419361936194,0,0
-144.71953030124,-124.51866939182,26.223792379238,1361292.3239145,515.33362400279,2769552.5850355,31.423792379238,0,0
-144.71953019436,-124.5330234942,26.228222822282,1361292.3239145,515.33362400279,2769552.5850355,31.428222822282,0,0
-144.71953008748,-124.54737759658,26.232653265327,1361292.3239145,515.33362400279,2769552.5850355,31.432653265327,0,0
-144.7195299806,-124.56173169896,26.237083708371,1361292.3239145,515.33362400279,2769552.5850355,31.437083708371,0,0
-144.71952987371,-124.57608580133,26.241514151415,1361292.3239145,515.33362400279,2769552.5850355,31.441514151415,0,0
-144.71952976683,-124.59043990371,26.245944594459,1361292.3239145,515.33362400279,2769552.5850355,31.445944594459,0,0
-144.71952965988,-124.60479400623,26.250375037504,1361944.286898,-567.51476117823,2762458.1440954,31.450375037504,0,0
-144.71952955276,-124.61914810911,26.254805480548,1361944.286898,-567.51476117823,2762458.1440954,31.454805480548,0,0
-144.71952944564,-124.633502212,26.259235923592,1361944.286898,-567.51476117823,2762458.1440954,31.459235923592,0,0
-144.71952933851,-124.64785631488,26.263666366637,1361944.286898,-567.51476117823,2762458.1440954,31.463666366637,0,0
-144.71952923139,-124.66221041777,26.268096809681,1361944.286898,-567.51476117823,2762458.1440954,31.468096809681,0,0
-144.71952912427,-124.67656452066,26.272527252725,1361944.286898,-567.51476117823,2762458.1440954,31.472527252725,0,0
-144.71952901714,-124.69091862354,26.27695769577,1361944.286898,-567.51476117823,2762458.1440954,31.47695769577,0,0
-144.71952891002,-124.70527272643,26.281388138814,1361944.286898,-567.51476117823,2762458.1440954,31.481388138814,0,0
-144.7195288029,-124.71962682931,26.285818581858,1361944.286898,-567.51476117823,2762458.1440954,31.485818581858,0,0
-144.71952869577,-124.7339809322,26.290249024902,1361944.286898,-567.51476117823,2762458.1440954,31.490249024902,0,0
-144.71952858865,-124.74833503508,26.294679467947,1361944.286898,-567.51476117823,2762458.1440954,31.494679467947,0,0
-144.71952848153,-124.76268913797,26.299109910991,1361944.286898,-567.51476117823,2762458.1440954,31.499109910991,0,0
-144.7195283744,-124.77704324086,26.303540354035,1361944.286898,-567.51476117823,2762458.1440954,31.503540354035,0,0
-144.71952826728,-124.79139734374,26.30797079708,1361944.286898,-567.51476117823,2762458.1440954,31.50797079708,0,0
-144.71952816016,-124.80575144663,26.312401240124,1361944.286898,-567.51476117823,2762458.1440954,31.512401240124,0,0
-144.71952805303,-124.82010554951,26.316831683168,1361944.286898,-567.51476117823,2762458.1440954,31.516831683168,0,0
-144.71952794591,-124.8344596524,26.321262126213,1361944.286898,-567.51476117823,2762458.1440954,31.521262126213,0,0
-144.71952783879,-124.84881375529,26.325692569257,1361944.286898,-567.51476117823,2762458.1440954,31.525692569257,0,0
-144.71952773166,-124.86316785817,26.330123012301,1361944.286898,-567.51476117823,2762458.1440954,31.530123012301,0,0
-144.71952762454,-124.87752196106,26.334553455346,1361944.286898,-567.51476117823,2762458.1440954,31.534553455346,0,0
-144.71952751742,-124.89187606394,26.33898389839,1361944.286898,-567.51476117823,2762458.1440954,31.53898389839,0,0
-144.71952741029,-124.90623016683,26.343414341434,1361944.286898,-567.51476117823,2762458.1440954,31.543414341434,0,0
-144.71952730317,-124.92058426971,26.347844784478,1361944.286898,-567.51476117823,2762458.1440954,31.547844784478,0,0
-144.71952719605,-124.9349383726,26.352275227523,1361944.286898,-567.51476117823,2762458.1440954,31.552275227523,0,0
-144.71952708892,-124.94929247549,26.356705670567,1361944.286898,-567.51476117823,2762458.1440954,31.556705670567,0,0
-144.7195269818,-124.96364657837,26.361136113611,1361944.286898,-567.51476117823,2762458.1440954,31.561136113611,0,0
-144.71952687468,-124.97800068126,26.365566556656,1361944.286898,-567.51476117823,2762458.1440954,31.565566556656,0,0
-144.71952676755,-124.99235478414,26.3699969997,1361944.286898,-567.51476117823,2762458.1440954,31.5699969997,0,0
-144.71952666043,-125.00670888703,26.374427442744,1361944.286898,-567.51476117823,2762458.1440954,31.574427442744,0,0
-144.71952655331,-125.02106298992,26.378857885789,1361944.286898,-567.51476117823,2762458.1440954,31.578857885789,0,0
-144.71952644618,-125.0354170928,26.383288328833,1361944.286898,-567.51476117823,2762458.1440954,31.583288328833,0,0
-144.71952633906,-125.04977119569,26.387718771877,1361944.286898,-567.51476117823,2762458.1440954,31.587718771877,0,0
-144.71952623194,-125.06412529857,26.392149214921,1361944.286898,-567.51476117823,2762458.1440954,31.592149214921,0,0
-144.71952612481,-125.07847940146,26.396579657966,1361944.286898,-567.51476117823,2762458.1440954,31.596579657966,0,0
-144.71952601769,-125.09283350434,26.40101010101,1361944.286898,-567.51476117823,2762458.1440954,31.60101010101,0,0
-144.71952591057,-125.10718760723,26.405440544054,1361944.286898,-567.51476117823,2762458.1440954,31.605440544054,0,0
-144.71952580344,-125.12154171012,26.409870987099,1361944.286898,-567.51476117823,2762458.1440954,31.609870987099,0,0
-144.71952569632,-125.135895813,26.414301430143,1361944.286898,-567.51476117823,2762458.1440954,31.614301430143,0,0
-144.7195255892,-125.15024991589,26.418731873187,1361944.286898,-567.51476117823,2762458.1440954,31.618731873187,0,0
-144.71952548207,-125.16460401877,26.423162316232,1361944.286898,-567.51476117823,2762458.1440954,31.623162316232,0,0
-144.71952537495,-125.17895812166,26.427592759276,1361944.286898,-567.51476117823,2762458.1440954,31.627592759276,0,0
-144.71952526783,-125.19331222454,26.43202320232,1361944.286898,-567.51476117823,2762458.1440954,31.63202320232,0,0
-144.7195251607,-125.20766632743,26.436453645365,1361944.286898,-567.51476117823,2762458.1440954,31.636453645365,0,0
-144.71952505358,-125.22202043032,26.440884088409,1361944.286898,-567.51476117823,2762458.1440954,31.640884088409,0,0
-144.71952494646,-125.2363745332,26.445314531453,1361944.286898,-567.51476117823,2762458.1440954,31.645314531453,0,0
-144.71952483933,-125.25072863609,26.449744974497,1361944.286898,-567.51476117823,2762458.1440954,31.649744974497,0,0
-144.71952473221,-125.26508273897,26.454175417542,1361944.286898,-567.51476117823,2762458.1440954,31.654175417542,0,0
-144.71952462509,-125.27943684186,26.458605860586,1361944.286898,-567.51476117823,2762458.1440954,31.658605860586,0,0
-144.71952451796,-125.29379094475,26.46303630363,1361944.286898,-567.51476117823,2762458.1440954,31.66303630363,0,0
-144.71952441084,-125.30814504763,26.467466746675,1361944.286898,-567.51476117823,2762458.1440954,31.667466746675,0,0
-144.71952430372,-125.32249915052,26.471897189719,1361944.286898,-567.51476117823,2762458.1440954,31.671897189719,0,0
-144.71952419659,-125.3368532534,26.476327632763,1361944.286898,-567.51476117823,2762458.1440954,31.676327632763,0,0
-144.71952408947,-125.35120735629,26.480758075808,1361944.286898,-567.51476117823,2762458.1440954,31.680758075808,0,0
-144.71952398235,-125.36556145917,26.485188518852,1361944.286898,-567.51476117823,2762458.1440954,31.685188518852,0,0
-144.71952387522,-125.37991556206,26.489618961896,1361944.286898,-567.51476117823,2762458.1440954,31.689618961896,0,0
-144.7195237681,-125.39426966495,26.49404940494,1361944.286898,-567.51476117823,2762458.1440954,31.69404940494,0,0
-144.71952366097,-125.40862376783,26.498479847985,1361944.286898,-567.51476117823,2762458.1440954,31.698479847985,0,0
-144.71952355385,-125.42297787072,26.502910291029,1361944.286898,-567.51476117823,2762458.1440954,31.702910291029,0,0
-144.71952344673,-125.4373319736,26.507340734073,1361944.286898,-567.51476117823,2762458.1440954,31.707340734073,0,0
-144.7195233396,-125.45168607649,26.511771177118,1361944.286898,-567.51476117823,2762458.1440954,31.711771177118,0,0
-144.71952323248,-125.46604017938,26.516201620162,1361944.286898,-567.51476117823,2762458.1440954,31.716201620162,0,0
-144.71952312536,-125.48039428226,26.520632063206,1361944.286898,-567.51476117823,2762458.1440954,31.720632063206,0,0
-144.71952301823,-125.49474838515,26.525062506251,1361944.286898,-567.51476117823,2762458.1440954,31.725062506251,0,0
-144.71952291111,-125.50910248803,26.529492949295,1361944.286898,-567.51476117823,2762458.1440954,31.729492949295,0,0
-144.71952280399,-125.52345659092,26.533923392339,1361944.286898,-567.51476117823,2762458.1440954,31.733923392339,0,0
-144.71952269686,-125.5378106938,26.538353835384,1361944.286898,-567.51476117823,2762458.1440954,31.738353835384,0,0
-144.71952258974,-125.55216479669,26.542784278428,1361944.286898,-567.51476117823,2762458.1440954,31.742784278428,0,0
-144.71952248262,-125.56651889958,26.547214721472,1361944.286898,-567.51476117823,2762458.1440954,31.747214721472,0,0
-144.71952237549,-125.58087300246,26.551645164516,1361944.286898,-567.51476117823,2762458.1440954,31.751645164516,0,0
-144.71952226837,-125.59522710535,26.556075607561,1361944.286898,-567.51476117823,2762458.1440954,31.756075607561,0,0
-144.71952216125,-125.60958120823,26.560506050605,1361944.286898,-567.51476117823,2762458.1440954,31.760506050605,0,0
-144.71952205412,-125.62393531112,26.564936493649,1361944.286898,-567.51476117823,2762458.1440954,31.764936493649,0,0
-144.719521947,-125.638289414,26.569366936694,1361944.286898,-567.51476117823,2762458.1440954,31.769366936694,0,0
-144.71952183988,-125.65264351689,26.573797379738,1361944.286898,-567.51476117823,2762458.1440954,31.773797379738,0,0
-144.71952173275,-125.66699761978,26.578227822782,1361944.286898,-567.51476117823,2762458.1440954,31.778227822782,0,0
-144.71952162563,-125.68135172266,26.582658265827,1361944.286898,-567.51476117823,2762458.1440954,31.782658265827,0,0
-144.71952151851,-125.69570582555,26.587088708871,1361944.286898,-567.51476117823,2762458.1440954,31.787088708871,0,0
-144.71952141138,-125.71005992843,26.591519151915,1361944.286898,-567.51476117823,2762458.1440954,31.791519151915,0,0
-144.71952130426,-125.72441403132,26.595949594959,1361944.286898,-567.51476117823,2762458.1440954,31.795949594959,0,0
-144.71952119714,-125.73876813421,26.600380038004,1361944.286898,-567.51476117823,2762458.1440954,31.800380038004,0,0
-144.71952109001,-125.75312223709,26.604810481048,1361944.286898,-567.51476117823,2762458.1440954,31.804810481048,0,0
-144.71952098289,-125.76747633998,26.609240924092,1361944.286898,-567.51476117823,2762458.1440954,31.809240924092,0,0
-144.71952087577,-125.78183044286,26.613671367137,1361944.286898,-567.51476117823,2762458.1440954,31.813671367137,0,0
-144.71952076864,-125.79618454575,26.618101810181,1361944.286898,-567.51476117823,2762458.1440954,31.818101810181,0,0
-144.71952066152,-125.81053864863,26.622532253225,1361944.286898,-567.51476117823,2762458.1440954,31.822532253225,0,0
-144.7195205544,-125.82489275152,26.62696269627,1361944.286898,-567.51476117823,2762458.1440954,31.82696269627,0,0
-144.71952044727,-125.83924685441,26.631393139314,1361944.286898,-567.51476117823,2762458.1440954,31.831393139314,0,0
-144.71952034015,-125.85360095729,26.635823582358,1361944.286898,-567.51476117823,2762458.1440954,31.835823582358,0,0
-144.71952023303,-125.86795506018,26.640254025403,1361944.286898,-567.51476117823,2762458.1440954,31.840254025403,0,0
-144.7195201259,-125.88230916306,26.644684468447,1361944.286898,-567.51476117823,2762458.1440954,31.844684468447,0,0
-144.71952001878,-125.89666326595,26.649114911491,1361944.286898,-567.51476117823,2762458.1440954,31.849114911491,0,0
-144.71951991166,-125.91101736884,26.653545354535,1361944.286898,-567.51476117823,2762458.1440954,31.853545354535,0,0
-144.71951980453,-125.92537147172,26.65797579758,1361944.286898,-567.51476117823,2762458.1440954,31.85797579758,0,0
-144.71951969741,-125.93972557461,26.662406240624,1361944.286898,-567.51476117823,2762458.1440954,31.862406240624,0,0
-144.71951959029,-125.95407967749,26.666836683668,1361944.286898,-567.51476117823,2762458.1440954,31.866836683668,0,0
-144.71951948316,-125.96843378038,26.671267126713,1361944.286898,-567.51476117823,2762458.1440954,31.871267126713,0,0
-144.71951937604,-125.98278788326,26.675697569757,1361944.286898,-567.51476117823,2762458.1440954,31.875697569757,0,0
-144.71951926892,-125.99714198615,26.680128012801,1361944.286898,-567.51476117823,2762458.1440954,31.880128012801,0,0
-144.71951916179,-126.01149608904,26.684558455846,1361944.286898,-567.51476117823,2762458.1440954,31.884558455846,0,0
-144.71951905467,-126.02585019192,26.68898889889,1361944.286898,-567.51476117823,2762458.1440954,31.88898889889,0,0
-144.71951894755,-126.04020429481,26.693419341934,1361944.286898,-567.51476117823,2762458.1440954,31.893419341934,0,0
-144.71951884042,-126.05455839769,26.697849784978,1361944.286898,-567.51476117823,2762458.1440954,31.897849784978,0,0
-144.7195187333,-126.06891250058,26.702280228023,1361944.286898,-567.51476117823,2762458.1440954,31.902280228023,0,0
-144.71951862618,-126.08326660347,26.706710671067,1361944.286898,-567.51476117823,2762458.1440954,31.906710671067,0,0
-144.71951851905,-126.09762070635,26.711141114111,1361944.286898,-567.51476117823,2762458.1440954,31.911141114111,0,0
-144.71951841193,-126.11197480924,26.715571557156,1361944.286898,-567.51476117823,2762458.1440954,31.915571557156,0,0
-144.71951830481,-126.12632891212,26.7200020002,1361944.286898,-567.51476117823,2762458.1440954,31.9200020002,0,0
-144.71951819768,-126.14068301501,26.724432443244,1361944.286898,-567.51476117823,2762458.1440954,31.924432443244,0,0
-144.71951809056,-126.15503711789,26.728862886289,1361944.286898,-567.51476117823,2762458.1440954,31.928862886289,0,0
-144.71951798344,-126.16939122078,26.733293329333,1361944.286898,-567.51476117823,2762458.1440954,31.933293329333,0,0
-144.71951787631,-126.18374532367,26.737723772377,1361944.286898,-567.51476117823,2762458.1440954,31.937723772377,0,0
-144.71951776919,-126.19809942655,26.742154215422,1361944.286898,-567.51476117823,2762458.1440954,31.942154215422,0,0
-144.71951766206,-126.21245352944,26.746584658466,1361944.286898,-567.51476117823,2762458.1440954,31.946584658466,0,0
-144.71951755494,-126.22680763232,26.75101510151,1361944.286898,-567.51476117823,2762458.1440954,31.95101510151,0,0
-144.71951744782,-126.24116173521,26.755445544554,1361944.286898,-567.51476117823,2762458.1440954,31.955445544554,0,0
-144.71951734069,-126.25551583809,26.759875987599,1361944.286898,-567.51476117823,2762458.1440954,31.959875987599,0,0
-144.71951723357,-126.26986994098,26.764306430643,1361944.286898,-567.51476117823,2762458.1440954,31.964306430643,0,0
-144.71951712645,-126.28422404387,26.768736873687,1361944.286898,-567.51476117823,2762458.1440954,31.968736873687,0,0
-144.71951701932,-126.29857814675,26.773167316732,1361944.286898,-567.51476117823,2762458.1440954,31.973167316732,0,0
-144.7195169122,-126.31293224964,26.777597759776,1361944.286898,-567.51476117823,2762458.1440954,31.977597759776,0,0
-144.71951680508,-126.32728635252,26.78202820282,1361944.286898,-567.51476117823,2762458.1440954,31.98202820282,0,0
-144.71951669795,-126.34164045541,26.786458645865,1361944.286898,-567.51476117823,2762458.1440954,31.986458645865,0,0
-144.71951659083,-126.3559945583,26.790889088909,1361944.286898,-567.51476117823,2762458.1440954,31.990889088909,0,0
-144.71951648371,-126.37034866118,26.795319531953,1361944.286898,-567.51476117823,2762458.1440954,31.995319531953,0,0
-144.71951637658,-126.38470276407,26.799749974997,1361944.286898,-567.51476117823,2762458.1440954,31.999749974997,0,0
-144.71951626946,-126.39905686695,26.804180418042,1361944.286898,-567.51476117823,2762458.1440954,32.004180418042,0,0
-144.71951616234,-126.41341096984,26.808610861086,1361944.286898,-567.51476117823,2762458.1440954,32.008610861086,0,0
-144.71951605521,-126.42776507272,26.81304130413,1361944.286898,-567.51476117823,2762458.1440954,32.01304130413,0,0
-144.71951594809,-126.44211917561,26.817471747175,1361944.286898,-567.51476117823,2762458.1440954,32.017471747175,0,0
-144.71951584097,-126.4564732785,26.821902190219,1361944.286898,-567.51476117823,2762458.1440954,32.021902190219,0,0
-144.71951573384,-126.47082738138,26.826332633263,1361944.286898,-567.51476117823,2762458.1440954,32.026332633263,0,0
-144.71951562672,-126.48518148427,26.830763076308,1361944.286898,-567.51476117823,2762458.1440954,32.030763076308,0,0
-144.7195155196,-126.49953558715,26.835193519352,1361944.286898,-567.51476117823,2762458.1440954,32.035193519352,0,0
-144.71951541247,-126.51388969004,26.839623962396,1361944.286898,-567.51476117823,2762458.1440954,32.039623962396,0,0
-144.71951530535,-126.52824379293,26.844054405441,1361944.286898,-567.51476117823,2762458.1440954,32.044054405441,0,0
-144.71951519823,-126.54259789581,26.848484848485,1361944.286898,-567.51476117823,2762458.1440954,32.048484848485,0,0
-144.7195150911,-126.5569519987,26.852915291529,1361944.286898,-567.51476117823,2762458.1440954,32.052915291529,0,0
-144.71951498398,-126.57130610158,26.857345734573,1361944.286898,-567.51476117823,2762458.1440954,32.057345734573,0,0
-144.71951487686,-126.58566020447,26.861776177618,1361944.286898,-567.51476117823,2762458.1440954,32.061776177618,0,0
-144.71951476973,-126.60001430735,26.866206620662,1361944.286898,-567.51476117823,2762458.1440954,32.066206620662,0,0
-144.71951466261,-126.61436841024,26.870637063706,1361944.286898,-567.51476117823,2762458.1440954,32.070637063706,0,0
-144.71951455549,-126.62872251313,26.875067506751,1361944.286898,-567.51476117823,2762458.1440954,32.075067506751,0,0
-144.71951444836,-126.64307661601,26.879497949795,1361944.286898,-567.51476117823,2762458.1440954,32.079497949795,0,0
-144.71951434124,-126.6574307189,26.883928392839,1361944.286898,-567.51476117823,2762458.1440954,32.083928392839,0,0
-144.71951423412,-126.67178482178,26.888358835884,1361944.286898,-567.51476117823,2762458.1440954,32.088358835884,0,0
-144.71951412699,-126.68613892467,26.892789278928,1361944.286898,-567.51476117823,2762458.1440954,32.092789278928,0,0
-144.71951401987,-126.70049302755,26.897219721972,1361944.286898,-567.51476117823,2762458.1440954,32.097219721972,0,0
-144.71951391275,-126.71484713044,26.901650165017,1361944.286898,-567.51476117823,2762458.1440954,32.101650165017,0,0
-144.71951380562,-126.72920123333,26.906080608061,1361944.286898,-567.51476117823,2762458.1440954,32.106080608061,0,0
-144.7195136985,-126.74355533621,26.910511051105,1361944.286898,-567.51476117823,2762458.1440954,32.110511051105,0,0
-144.71951359138,-126.7579094391,26.914941494149,1361944.286898,-567.51476117823,2762458.1440954,32.114941494149,0,0
-144.71951348425,-126.77226354198,26.919371937194,1361944.286898,-567.51476117823,2762458.1440954,32.119371937194,0,0
-144.71951337713,-126.78661764487,26.923802380238,1361944.286898,-567.51476117823,2762458.1440954,32.123802380238,0,0
-144.71951327001,-126.80097174776,26.928232823282,1361944.286898,-567.51476117823,2762458.1440954,32.128232823282,0,0
-144.71951316288,-126.81532585064,26.932663266327,1361944.286898,-567.51476117823,2762458.1440954,32.132663266327,0,0
-144.71951305576,-126.82967995353,26.937093709371,1361944.286898,-567.51476117823,2762458.1440954,32.137093709371,0,0
-144.71951294864,-126.84403405641,26.941524152415,1361944.286898,-567.51476117823,2762458.1440954,32.141524152415,0,0
-144.71951284151,-126.8583881593,26.94595459546,1361944.286898,-567.51476117823,2762458.1440954,32.14595459546,0,0
-144.71951273439,-126.87274226218,26.950385038504,1361944.286898,-567.51476117823,2762458.1440954,32.150385038504,0,0
-144.71951262727,-126.88709636507,26.954815481548,1361944.286898,-567.51476117823,2762458.1440954,32.154815481548,0,0
-144.71951252014,-126.90145046796,26.959245924592,1361944.286898,-567.51476117823,2762458.1440954,32.159245924592,0,0
-144.71951241302,-126.91580457084,26.963676367637,1361944.286898,-567.51476117823,2762458.1440954,32.163676367637,0,0
-144.7195123059,-126.93015867373,26.968106810681,1361944.286898,-567.51476117823,2762458.1440954,32.168106810681,0,0
-144.71951219877,-126.94451277661,26.972537253725,1361944.286898,-567.51476117823,2762458.1440954,32.172537253725,0,0
-144.71951209165,-126.9588668795,26.97696769677,1361944.286898,-567.51476117823,2762458.1440954,32.17696769677,0,0
-144.71951198453,-126.97322098239,26.981398139814,1361944.286898,-567.51476117823,2762458.1440954,32.181398139814,0,0
-144.7195118774,-126.98757508527,26.985828582858,1361944.286898,-567.51476117823,2762458.1440954,32.185828582858,0,0
-144.71951177028,-127.00192918816,26.990259025903,1361944.286898,-567.51476117823,2762458.1440954,32.190259025903,0,0
-144.71951166315,-127.01628329104,26.994689468947,1361944.286898,-567.51476117823,2762458.1440954,32.194689468947,0,0
-144.71951155603,-127.03063739393,26.999119911991,1361944.286898,-567.51476117823,2762458.1440954,32.199119911991,0,0
-144.71951144891,-127.04499149681,27.003550355036,1361944.286898,-567.51476117823,2762458.1440954,32.203550355036,0,0
-144.71951134178,-127.0593455997,27.00798079808,1361944.286898,-567.51476117823,2762458.1440954,32.20798079808,0,0
-144.71951123466,-127.07369970259,27.012411241124,1361944.286898,-567.51476117823,2762458.1440954,32.212411241124,0,0
-144.71951112754,-127.08805380547,27.016841684168,1361944.286898,-567.51476117823,2762458.1440954,32.216841684168,0,0
-144.71951102041,-127.10240790836,27.021272127213,1361944.286898,-567.51476117823,2762458.1440954,32.221272127213,0,0
-144.71951091329,-127.11676201124,27.025702570257,1361944.286898,-567.51476117823,2762458.1440954,32.225702570257,0,0
-144.71951080617,-127.13111611413,27.030133013301,1361944.286898,-567.51476117823,2762458.1440954,32.230133013301,0,0
-144.71951069904,-127.14547021702,27.034563456346,1361944.286898,-567.51476117823,2762458.1440954,32.234563456346,0,0
-144.71951059192,-127.1598243199,27.03899389939,1361944.286898,-567.51476117823,2762458.1440954,32.23899389939,0,0
-144.7195104848,-127.17417842279,27.043424342434,1361944.286898,-567.51476117823,2762458.1440954,32.243424342434,0,0
-144.71951037767,-127.18853252567,27.047854785479,1361944.286898,-567.51476117823,2762458.1440954,32.247854785479,0,0
-144.71951027055,-127.20288662856,27.052285228523,1361944.286898,-567.51476117823,2762458.1440954,32.252285228523,0,0
-144.71951016343,-127.21724073144,27.056715671567,1361944.286898,-567.51476117823,2762458.1440954,32.256715671567,0,0
-144.7195100563,-127.23159483433,27.061146114611,1361944.286898,-567.51476117823,2762458.1440954,32.261146114611,0,0
-144.71950994918,-127.24594893722,27.065576557656,1361944.286898,-567.51476117823,2762458.1440954,32.265576557656,0,0
-144.71950984206,-127.2603030401,27.0700070007,1361944.286898,-567.51476117823,2762458.1440954,32.2700070007,0,0
-144.71950973493,-127.27465714299,27.074437443744,1361944.286898,-567.51476117823,2762458.1440954,32.274437443744,0,0
-144.71950962781,-127.28901124587,27.078867886789,1361944.286898,-567.51476117823,2762458.1440954,32.278867886789,0,0
-144.71950952069,-127.30336534876,27.083298329833,1361944.286898,-567.51476117823,2762458.1440954,32.283298329833,0,0
-144.71950941356,-127.31771945164,27.087728772877,1361944.286898,-567.51476117823,2762458.1440954,32.287728772877,0,0
-144.71950930644,-127.33207355453,27.092159215922,1361944.286898,-567.51476117823,2762458.1440954,32.292159215922,0,0
-144.71950919932,-127.34642765742,27.096589658966,1361944.286898,-567.51476117823,2762458.1440954,32.296589658966,0,0
-144.71950909219,-127.3607817603,27.10102010201,1361944.286898,-567.51476117823,2762458.1440954,32.30102010201,0,0
-144.71950898507,-127.37513586319,27.105450545055,1361944.286898,-567.51476117823,2762458.1440954,32.305450545055,0,0
-144.71950887795,-127.38948996607,27.109880988099,1361944.286898,-567.51476117823,2762458.1440954,32.309880988099,0,0
-144.71950877082,-127.40384406896,27.114311431143,1361944.286898,-567.51476117823,2762458.1440954,32.314311431143,0,0
-144.7195086637,-127.41819817185,27.118741874187,1361944.286898,-567.51476117823,2762458.1440954,32.318741874187,0,0
-144.71950855658,-127.43255227473,27.123172317232,1361944.286898,-567.51476117823,2762458.1440954,32.323172317232,0,0
-144.71950844945,-127.44690637762,27.127602760276,1361944.286898,-567.51476117823,2762458.1440954,32.327602760276,0,0
-144.71950834233,-127.4612604805,27.13203320332,1361944.286898,-567.51476117823,2762458.1440954,32.33203320332,0,0
-144.71950823521,-127.47561458339,27.136463646365,1361944.286898,-567.51476117823,2762458.1440954,32.336463646365,0,0
-144.71950812808,-127.48996868627,27.140894089409,1361944.286898,-567.51476117823,2762458.1440954,32.340894089409,0,0
-144.71950802096,-127.50432278916,27.145324532453,1361944.286898,-567.51476117823,2762458.1440954,32.345324532453,0,0
-144.71950791384,-127.51867689205,27.149754975498,1361944.286898,-567.51476117823,2762458.1440954,32.349754975498,0,0
-144.71950780671,-127.53303099493,27.154185418542,1361944.286898,-567.51476117823,2762458.1440954,32.354185418542,0,0
-144.71950769959,-127.54738509782,27.158615861586,1361944.286898,-567.51476117823,2762458.1440954,32.358615861586,0,0
-144.71950759247,-127.5617392007,27.16304630463,1361944.286898,-567.51476117823,2762458.1440954,32.36304630463,0,0
-144.71950748534,-127.57609330359,27.167476747675,1361944.286898,-567.51476117823,2762458.1440954,32.367476747675,0,0
-144.71950737822,-127.59044740648,27.171907190719,1361944.286898,-567.51476117823,2762458.1440954,32.371907190719,0,0
-144.7195072711,-127.60480150936,27.176337633763,1361944.286898,-567.51476117823,2762458.1440954,32.376337633763,0,0
-144.71950716397,-127.61915561225,27.180768076808,1361944.286898,-567.51476117823,2762458.1440954,32.380768076808,0,0
-144.71950705685,-127.63350971513,27.185198519852,1361944.286898,-567.51476117823,2762458.1440954,32.385198519852,0,0
-144.71950694973,-127.64786381802,27.189628962896,1361944.286898,-567.51476117823,2762458.1440954,32.389628962896,0,0
-144.7195068426,-127.6622179209,27.194059405941,1361944.286898,-567.51476117823,2762458.1440954,32.394059405941,0,0
-144.71950673548,-127.67657202379,27.198489848985,1361944.286898,-567.51476117823,2762458.1440954,32.398489848985,0,0
-144.71950662836,-127.69092612668,27.202920292029,1361944.286898,-567.51476117823,2762458.1440954,32.402920292029,0,0
-144.71950652123,-127.70528022956,27.207350735074,1361944.286898,-567.51476117823,2762458.1440954,32.407350735074,0,0
-144.71950641411,-127.71963433245,27.211781178118,1361944.286898,-567.51476117823,2762458.1440954,32.411781178118,0,0
-144.71950630699,-127.73398843533,27.216211621162,1361944.286898,-567.51476117823,2762458.1440954,32.416211621162,0,0
-144.71950619986,-127.74834253822,27.220642064206,1361944.286898,-567.51476117823,2762458.1440954,32.420642064206,0,0
-144.71950609274,-127.7626966411,27.225072507251,1361944.286898,-567.51476117823,2762458.1440954,32.425072507251,0,0
-144.71950598562,-127.77705074399,27.229502950295,1361944.286898,-567.51476117823,2762458.1440954,32.429502950295,0,0
-144.71950587849,-127.79140484688,27.233933393339,1361944.286898,-567.51476117823,2762458.1440954,32.433933393339,0,0
-144.71950577137,-127.80575894976,27.238363836384,1361944.286898,-567.51476117823,2762458.1440954,32.438363836384,0,0
-144.71950566424,-127.82011305265,27.242794279428,1361944.286898,-567.51476117823,2762458.1440954,32.442794279428,0,0
-144.71950555712,-127.83446715553,27.247224722472,1361944.286898,-567.51476117823,2762458.1440954,32.447224722472,0,0
-144.71950545,-127.84882125842,27.251655165517,1361944.286898,-567.51476117823,2762458.1440954,32.451655165517,0,0
-144.71950534287,-127.86317536131,27.256085608561,1361944.286898,-567.51476117823,2762458.1440954,32.456085608561,0,0
-144.71950523575,-127.87752946419,27.260516051605,1361944.286898,-567.51476117823,2762458.1440954,32.460516051605,0,0
-144.71950512863,-127.89188356708,27.264946494649,1361944.286898,-567.51476117823,2762458.1440954,32.464946494649,0,0
-144.7195050215,-127.90623766996,27.269376937694,1361944.286898,-567.51476117823,2762458.1440954,32.469376937694,0,0
-144.71950491438,-127.92059177285,27.273807380738,1361944.286898,-567.51476117823,2762458.1440954,32.473807380738,0,0
-144.71950480726,-127.93494587573,27.278237823782,1361944.286898,-567.51476117823,2762458.1440954,32.478237823782,0,0
-144.71950470013,-127.94929997862,27.282668266827,1361944.286898,-567.51476117823,2762458.1440954,32.482668266827,0,0
-144.71950459301,-127.96365408151,27.287098709871,1361944.286898,-567.51476117823,2762458.1440954,32.487098709871,0,0
-144.71950448589,-127.97800818439,27.291529152915,1361944.286898,-567.51476117823,2762458.1440954,32.491529152915,0,0
-144.71950437876,-127.99236228728,27.29595959596,1361944.286898,-567.51476117823,2762458.1440954,32.49595959596,0,0
-144.71950427164,-128.00671639016,27.300390039004,1361944.286898,-567.51476117823,2762458.1440954,32.500390039004,0,0
-144.71950416452,-128.02107049305,27.304820482048,1361944.286898,-567.51476117823,2762458.1440954,32.504820482048,0,0
-144.71950405739,-128.03542459594,27.309250925093,1361944.286898,-567.51476117823,2762458.1440954,32.509250925093,0,0
-144.71950395027,-128.04977869882,27.313681368137,1361944.286898,-567.51476117823,2762458.1440954,32.513681368137,0,0
-144.71950384315,-128.06413280171,27.318111811181,1361944.286898,-567.51476117823,2762458.1440954,32.518111811181,0,0
-144.71950373602,-128.07848690459,27.322542254225,1361944.286898,-567.51476117823,2762458.1440954,32.522542254225,0,0
-144.7195036289,-128.09284100748,27.32697269727,1361944.286898,-567.51476117823,2762458.1440954,32.52697269727,0,0
-144.71950352178,-128.10719511036,27.331403140314,1361944.286898,-567.51476117823,2762458.1440954,32.531403140314,0,0
-144.71950341465,-128.12154921325,27.335833583358,1361944.286898,-567.51476117823,2762458.1440954,32.535833583358,0,0
-144.71950330753,-128.13590331614,27.340264026403,1361944.286898,-567.51476117823,2762458.1440954,32.540264026403,0,0
-144.71950320041,-128.15025741902,27.344694469447,1361944.286898,-567.51476117823,2762458.1440954,32.544694469447,0,0
-144.71950309328,-128.16461152191,27.349124912491,1361944.286898,-567.51476117823,2762458.1440954,32.549124912491,0,0
-144.71950298616,-128.17896562479,27.353555355536,1361944.286898,-567.51476117823,2762458.1440954,32.553555355536,0,0
-144.71950287904,-128.19331972768,27.35798579858,1361944.286898,-567.51476117823,2762458.1440954,32.55798579858,0,0
-144.71950277191,-128.20767383057,27.362416241624,1361944.286898,-567.51476117823,2762458.1440954,32.562416241624,0,0
-144.71950266479,-128.22202793345,27.366846684668,1361944.286898,-567.51476117823,2762458.1440954,32.566846684668,0,0
-144.71950255767,-128.23638203634,27.371277127713,1361944.286898,-567.51476117823,2762458.1440954,32.571277127713,0,0
-144.71950245054,-128.25073613922,27.375707570757,1361944.286898,-567.51476117823,2762458.1440954,32.575707570757,0,0
-144.71950234342,-128.26509024211,27.380138013801,1361944.286898,-567.51476117823,2762458.1440954,32.580138013801,0,0
-144.7195022363,-128.27944434499,27.384568456846,1361944.286898,-567.51476117823,2762458.1440954,32.584568456846,0,0
-144.71950212917,-128.29379844788,27.38899889989,1361944.286898,-567.51476117823,2762458.1440954,32.58899889989,0,0
-144.71950202205,-128.30815255077,27.393429342934,1361944.286898,-567.51476117823,2762458.1440954,32.593429342934,0,0
-144.71950191493,-128.32250665365,27.397859785979,1361944.286898,-567.51476117823,2762458.1440954,32.597859785979,0,0
-144.7195018078,-128.33686075654,27.402290229023,1361944.286898,-567.51476117823,2762458.1440954,32.602290229023,0,0
-144.71950170068,-128.35121485942,27.406720672067,1361944.286898,-567.51476117823,2762458.1440954,32.606720672067,0,0
-144.71950159356,-128.36556896231,27.411151115112,1361944.286898,-567.51476117823,2762458.1440954,32.611151115112,0,0
-144.71950148643,-128.37992306519,27.415581558156,1361944.286898,-567.51476117823,2762458.1440954,32.615581558156,0,0
-144.71950137931,-128.39427716808,27.4200120012,1361944.286898,-567.51476117823,2762458.1440954,32.6200120012,0,0
-144.71950127219,-128.40863127097,27.424442444244,1361944.286898,-567.51476117823,2762458.1440954,32.624442444244,0,0
-144.71950116506,-128.42298537385,27.428872887289,1361944.286898,-567.51476117823,2762458.1440954,32.628872887289,0,0
-144.71950105794,-128.43733947674,27.433303330333,1361944.286898,-567.51476117823,2762458.1440954,32.633303330333,0,0
-144.71950095082,-128.45169357962,27.437733773377,1361944.286898,-567.51476117823,2762458.1440954,32.637733773377,0,0
-144.71950084369,-128.46604768251,27.442164216422,1361944.286898,-567.51476117823,2762458.1440954,32.642164216422,0,0
-144.71950073657,-128.4804017854,27.446594659466,1361944.286898,-567.51476117823,2762458.1440954,32.646594659466,0,0
-144.71950062945,-128.49475588828,27.45102510251,1361944.286898,-567.51476117823,2762458.1440954,32.65102510251,0,0
-144.71950052232,-128.50910999117,27.455455545555,1361944.286898,-567.51476117823,2762458.1440954,32.655455545555,0,0
-144.7195004152,-128.52346409405,27.459885988599,1361944.286898,-567.51476117823,2762458.1440954,32.659885988599,0,0
-144.71950030808,-128.53781819694,27.464316431643,1361944.286898,-567.51476117823,2762458.1440954,32.664316431643,0,0
-144.71950020095,-128.55217229982,27.468746874687,1361944.286898,-567.51476117823,2762458.1440954,32.668746874687,0,0
-144.71950009383,-128.56652640271,27.473177317732,1361944.286898,-567.51476117823,2762458.1440954,32.673177317732,0,0
-144.71949998671,-128.5808805056,27.477607760776,1361944.286898,-567.51476117823,2762458.1440954,32.677607760776,0,0
-144.71949987958,-128.59523460848,27.48203820382,1361944.286898,-567.51476117823,2762458.1440954,32.68203820382,0,0
-144.71949977246,-128.60958871137,27.486468646865,1361944.286898,-567.51476117823,2762458.1440954,32.686468646865,0,0
-144.71949966533,-128.62394281425,27.490899089909,1361944.286898,-567.51476117823,2762458.1440954,32.690899089909,0,0
-144.71949955821,-128.63829691714,27.495329532953,1361944.286898,-567.51476117823,2762458.1440954,32.695329532953,0,0
-144.71949945109,-128.65265102003,27.499759975998,1361944.286898,-567.51476117823,2762458.1440954,32.699759975998,0,0
-144.71949934396,-128.66700512291,27.504190419042,1361944.286898,-567.51476117823,2762458.1440954,32.704190419042,0,0
-144.71949923684,-128.6813592258,27.508620862086,1361944.286898,-567.51476117823,2762458.1440954,32.708620862086,0,0
-144.71949912972,-128.69571332868,27.513051305131,1361944.286898,-567.51476117823,2762458.1440954,32.713051305131,0,0
-144.71949902259,-128.71006743157,27.517481748175,1361944.286898,-567.51476117823,2762458.1440954,32.717481748175,0,0
-144.71949891547,-128.72442153445,27.521912191219,1361944.286898,-567.51476117823,2762458.1440954,32.721912191219,0,0
-144.71949880835,-128.73877563734,27.526342634263,1361944.286898,-567.51476117823,2762458.1440954,32.726342634263,0,0
-144.71949870122,-128.75312974023,27.530773077308,1361944.286898,-567.51476117823,2762458.1440954,32.730773077308,0,0
-144.7194985941,-128.76748384311,27.535203520352,1361944.286898,-567.51476117823,2762458.1440954,32.735203520352,0,0
-144.71949848698,-128.781837946,27.539633963396,1361944.286898,-567.51476117823,2762458.1440954,32.739633963396,0,0
-144.71949837985,-128.79619204888,27.544064406441,1361944.286898,-567.51476117823,2762458.1440954,32.744064406441,0,0
-144.71949827281,-128.8105461516,27.548494849485,1359273.5130282,1241.4061324307,2760213.0178842,32.748494849485,0,0
-144.71949816584,-128.82490025415,27.552925292529,1359273.5130282,1241.4061324307,2760213.0178842,32.752925292529,0,0
-144.71949805887,-128.8392543567,27.557355735574,1359273.5130282,1241.4061324307,2760213.0178842,32.757355735574,0,0
-144.7194979519,-128.85360845925,27.561786178618,1359273.5130282,1241.4061324307,2760213.0178842,32.761786178618,0,0
-144.71949784493,-128.8679625618,27.566216621662,1359273.5130282,1241.4061324307,2760213.0178842,32.766216621662,0,0
-144.71949773796,-128.88231666435,27.570647064706,1359273.5130282,1241.4061324307,2760213.0178842,32.770647064706,0,0
-144.71949763099,-128.8966707669,27.575077507751,1359273.5130282,1241.4061324307,2760213.0178842,32.775077507751,0,0
-144.71949752402,-128.91102486945,27.579507950795,1359273.5130282,1241.4061324307,2760213.0178842,32.779507950795,0,0
-144.71949741705,-128.925378972,27.583938393839,1359273.5130282,1241.4061324307,2760213.0178842,32.783938393839,0,0
-144.71949731008,-128.93973307455,27.588368836884,1359273.5130282,1241.4061324307,2760213.0178842,32.788368836884,0,0
-144.71949720311,-128.9540871771,27.592799279928,1359273.5130282,1241.4061324307,2760213.0178842,32.792799279928,0,0
-144.71949709614,-128.96844127965,27.597229722972,1359273.5130282,1241.4061324307,2760213.0178842,32.797229722972,0,0
-144.71949698917,-128.9827953822,27.601660166017,1359273.5130282,1241.4061324307,2760213.0178842,32.801660166017,0,0
-144.7194968822,-128.99714948475,27.606090609061,1359273.5130282,1241.4061324307,2760213.0178842,32.806090609061,0,0
-144.71949677523,-129.0115035873,27.610521052105,1359273.5130282,1241.4061324307,2760213.0178842,32.810521052105,0,0
-144.71949666826,-129.02585768985,27.61495149515,1359273.5130282,1241.4061324307,2760213.0178842,32.81495149515,0,0
-144.71949656129,-129.0402117924,27.619381938194,1359273.5130282,1241.4061324307,2760213.0178842,32.819381938194,0,0
-144.71949645432,-129.05456589495,27.623812381238,1359273.5130282,1241.4061324307,2760213.0178842,32.823812381238,0,0
-144.71949634735,-129.0689199975,27.628242824282,1359273.5130282,1241.4061324307,2760213.0178842,32.828242824282,0,0
-144.71949624038,-129.08327410005,27.632673267327,1359273.5130282,1241.4061324307,2760213.0178842,32.832673267327,0,0
-144.71949613341,-129.0976282026,27.637103710371,1359273.5130282,1241.4061324307,2760213.0178842,32.837103710371,0,0
-144.71949602644,-129.11198230515,27.641534153415,1359273.5130282,1241.4061324307,2760213.0178842,32.841534153415,0,0
-144.71949591947,-129.1263364077,27.64596459646,1359273.5130282,1241.4061324307,2760213.0178842,32.84596459646,0,0
-144.7194958125,-129.14069051025,27.650395039504,1359273.5130282,1241.4061324307,2760213.0178842,32.850395039504,0,0
-144.71949570553,-129.1550446128,27.654825482548,1359273.5130282,1241.4061324307,2760213.0178842,32.854825482548,0,0
-144.71949559856,-129.16939871535,27.659255925593,1359273.5130282,1241.4061324307,2760213.0178842,32.859255925593,0,0
-144.71949549159,-129.1837528179,27.663686368637,1359273.5130282,1241.4061324307,2760213.0178842,32.863686368637,0,0
-144.71949538462,-129.19810692045,27.668116811681,1359273.5130282,1241.4061324307,2760213.0178842,32.868116811681,0,0
-144.71949527765,-129.212461023,27.672547254725,1359273.5130282,1241.4061324307,2760213.0178842,32.872547254725,0,0
-144.71949517068,-129.22681512555,27.67697769777,1359273.5130282,1241.4061324307,2760213.0178842,32.87697769777,0,0
-144.71949506371,-129.2411692281,27.681408140814,1359273.5130282,1241.4061324307,2760213.0178842,32.881408140814,0,0
-144.71949495674,-129.25552333065,27.685838583858,1359273.5130282,1241.4061324307,2760213.0178842,32.885838583858,0,0
-144.71949484977,-129.2698774332,27.690269026903,1359273.5130282,1241.4061324307,2760213.0178842,32.890269026903,0,0
-144.7194947428,-129.28423153575,27.694699469947,1359273.5130282,1241.4061324307,2760213.0178842,32.894699469947,0,0
-144.71949463583,-129.2985856383,27.699129912991,1359273.5130282,1241.4061324307,2760213.0178842,32.899129912991,0,0
-144.71949452886,-129.31293974085,27.703560356036,1359273.5130282,1241.4061324307,2760213.0178842,32.903560356036,0,0
-144.71949442189,-129.3272938434,27.70799079908,1359273.5130282,1241.4061324307,2760213.0178842,32.90799079908,0,0
-144.71949431492,-129.34164794595,27.712421242124,1359273.5130282,1241.4061324307,2760213.0178842,32.912421242124,0,0
-144.71949420795,-129.3560020485,27.716851685169,1359273.5130282,1241.4061324307,2760213.0178842,32.916851685169,0,0
-144.71949410098,-129.37035615105,27.721282128213,1359273.5130282,1241.4061324307,2760213.0178842,32.921282128213,0,0
-144.71949399401,-129.3847102536,27.725712571257,1359273.5130282,1241.4061324307,2760213.0178842,32.925712571257,0,0
-144.71949388704,-129.39906435615,27.730143014301,1359273.5130282,1241.4061324307,2760213.0178842,32.930143014301,0,0
-144.71949378007,-129.4134184587,27.734573457346,1359273.5130282,1241.4061324307,2760213.0178842,32.934573457346,0,0
-144.7194936731,-129.42777256125,27.73900390039,1359273.5130282,1241.4061324307,2760213.0178842,32.93900390039,0,0
-144.71949356613,-129.4421266638,27.743434343434,1359273.5130282,1241.4061324307,2760213.0178842,32.943434343434,0,0
-144.71949345916,-129.45648076635,27.747864786479,1359273.5130282,1241.4061324307,2760213.0178842,32.947864786479,0,0
-144.71949335219,-129.4708348689,27.752295229523,1359273.5130282,1241.4061324307,2760213.0178842,32.952295229523,0,0
-144.71949324523,-129.48518897145,27.756725672567,1359273.5130282,1241.4061324307,2760213.0178842,32.956725672567,0,0
-144.71949313826,-129.499543074,27.761156115612,1359273.5130282,1241.4061324307,2760213.0178842,32.961156115612,0,0
-144.71949303129,-129.51389717655,27.765586558656,1359273.5130282,1241.4061324307,2760213.0178842,32.965586558656,0,0
-144.71949292432,-129.5282512791,27.7700170017,1359273.5130282,1241.4061324307,2760213.0178842,32.9700170017,0,0
-144.71949281735,-129.54260538165,27.774447444744,1359273.5130282,1241.4061324307,2760213.0178842,32.974447444744,0,0
-144.71949271038,-129.5569594842,27.778877887789,1359273.5130282,1241.4061324307,2760213.0178842,32.978877887789,0,0
-144.71949260341,-129.57131358675,27.783308330833,1359273.5130282,1241.4061324307,2760213.0178842,32.983308330833,0,0
-144.71949249644,-129.5856676893,27.787738773877,1359273.5130282,1241.4061324307,2760213.0178842,32.987738773877,0,0
-144.71949238947,-129.60002179185,27.792169216922,1359273.5130282,1241.4061324307,2760213.0178842,32.992169216922,0,0
-144.7194922825,-129.6143758944,27.796599659966,1359273.5130282,1241.4061324307,2760213.0178842,32.996599659966,0,0
-144.71949217553,-129.62872999695,27.80103010301,1359273.5130282,1241.4061324307,2760213.0178842,33.00103010301,0,0
-144.71949206856,-129.6430840995,27.805460546055,1359273.5130282,1241.4061324307,2760213.0178842,33.005460546055,0,0
-144.71949196159,-129.65743820205,27.809890989099,1359273.5130282,1241.4061324307,2760213.0178842,33.009890989099,0,0
-144.71949185462,-129.6717923046,27.814321432143,1359273.5130282,1241.4061324307,2760213.0178842,33.014321432143,0,0
-144.71949174765,-129.68614640715,27.818751875188,1359273.5130282,1241.4061324307,2760213.0178842,33.018751875188,0,0
-144.71949164068,-129.7005005097,27.823182318232,1359273.5130282,1241.4061324307,2760213.0178842,33.023182318232,0,0
-144.71949153371,-129.71485461225,27.827612761276,1359273.5130282,1241.4061324307,2760213.0178842,33.027612761276,0,0
-144.71949142674,-129.7292087148,27.83204320432,1359273.5130282,1241.4061324307,2760213.0178842,33.03204320432,0,0
-144.71949131977,-129.74356281735,27.836473647365,1359273.5130282,1241.4061324307,2760213.0178842,33.036473647365,0,0
-144.7194912128,-129.7579169199,27.840904090409,1359273.5130282,1241.4061324307,2760213.0178842,33.040904090409,0,0
-144.71949110583,-129.77227102245,27.845334533453,1359273.5130282,1241.4061324307,2760213.0178842,33.045334533453,0,0
-144.71949099886,-129.786625125,27.849764976498,1359273.5130282,1241.4061324307,2760213.0178842,33.049764976498,0,0
-144.71949089189,-129.80097922755,27.854195419542,1359273.5130282,1241.4061324307,2760213.0178842,33.054195419542,0,0
-144.71949078492,-129.8153333301,27.858625862586,1359273.5130282,1241.4061324307,2760213.0178842,33.058625862586,0,0
-144.71949067795,-129.82968743265,27.863056305631,1359273.5130282,1241.4061324307,2760213.0178842,33.063056305631,0,0
-144.71949057098,-129.8440415352,27.867486748675,1359273.5130282,1241.4061324307,2760213.0178842,33.067486748675,0,0
-144.71949046401,-129.85839563775,27.871917191719,1359273.5130282,1241.4061324307,2760213.0178842,33.071917191719,0,0
-144.71949035704,-129.8727497403,27.876347634763,1359273.5130282,1241.4061324307,2760213.0178842,33.076347634763,0,0
-144.71949025007,-129.88710384285,27.880778077808,1359273.5130282,1241.4061324307,2760213.0178842,33.080778077808,0,0
-144.7194901431,-129.9014579454,27.885208520852,1359273.5130282,1241.4061324307,2760213.0178842,33.085208520852,0,0
-144.71949003613,-129.91581204795,27.889638963896,1359273.5130282,1241.4061324307,2760213.0178842,33.089638963896,0,0
-144.71948992916,-129.9301661505,27.894069406941,1359273.5130282,1241.4061324307,2760213.0178842,33.094069406941,0,0
-144.71948982219,-129.94452025305,27.898499849985,1359273.5130282,1241.4061324307,2760213.0178842,33.098499849985,0,0
-144.71948971522,-129.9588743556,27.902930293029,1359273.5130282,1241.4061324307,2760213.0178842,33.102930293029,0,0
-144.71948960825,-129.97322845815,27.907360736074,1359273.5130282,1241.4061324307,2760213.0178842,33.107360736074,0,0
-144.71948950128,-129.9875825607,27.911791179118,1359273.5130282,1241.4061324307,2760213.0178842,33.111791179118,0,0
-144.71948939431,-130.00193666325,27.916221622162,1359273.5130282,1241.4061324307,2760213.0178842,33.116221622162,0,0
-144.71948928734,-130.0162907658,27.920652065207,1359273.5130282,1241.4061324307,2760213.0178842,33.120652065207,0,0
-144.71948918037,-130.03064486835,27.925082508251,1359273.5130282,1241.4061324307,2760213.0178842,33.125082508251,0,0
-144.7194890734,-130.0449989709,27.929512951295,1359273.5130282,1241.4061324307,2760213.0178842,33.129512951295,0,0
-144.71948896643,-130.05935307345,27.933943394339,1359273.5130282,1241.4061324307,2760213.0178842,33.133943394339,0,0
-144.71948885946,-130.073707176,27.938373837384,1359273.5130282,1241.4061324307,2760213.0178842,33.138373837384,0,0
-144.71948875249,-130.08806127855,27.942804280428,1359273.5130282,1241.4061324307,2760213.0178842,33.142804280428,0,0
-144.71948864552,-130.1024153811,27.947234723472,1359273.5130282,1241.4061324307,2760213.0178842,33.147234723472,0,0
-144.71948853855,-130.11676948365,27.951665166517,1359273.5130282,1241.4061324307,2760213.0178842,33.151665166517,0,0
-144.71948843158,-130.1311235862,27.956095609561,1359273.5130282,1241.4061324307,2760213.0178842,33.156095609561,0,0
-144.71948832461,-130.14547768875,27.960526052605,1359273.5130282,1241.4061324307,2760213.0178842,33.160526052605,0,0
-144.71948821764,-130.1598317913,27.96495649565,1359273.5130282,1241.4061324307,2760213.0178842,33.16495649565,0,0
-144.71948811067,-130.17418589385,27.969386938694,1359273.5130282,1241.4061324307,2760213.0178842,33.169386938694,0,0
-144.7194880037,-130.1885399964,27.973817381738,1359273.5130282,1241.4061324307,2760213.0178842,33.173817381738,0,0
-144.71948789673,-130.20289409895,27.978247824782,1359273.5130282,1241.4061324307,2760213.0178842,33.178247824782,0,0
-144.71948778976,-130.2172482015,27.982678267827,1359273.5130282,1241.4061324307,2760213.0178842,33.182678267827,0,0
-144.71948768279,-130.23160230405,27.987108710871,1359273.5130282,1241.4061324307,2760213.0178842,33.187108710871,0,0
-144.71948757582,-130.2459564066,27.991539153915,1359273.5130282,1241.4061324307,2760213.0178842,33.191539153915,0,0
-144.71948746885,-130.26031050915,27.99596959696,1359273.5130282,1241.4061324307,2760213.0178842,33.19596959696,0,0
-144.71948736188,-130.2746646117,28.000400040004,1359273.5130282,1241.4061324307,2760213.0178842,33.200400040004,0,0
-144.71948725491,-130.28901871425,28.004830483048,1359273.5130282,1241.4061324307,2760213.0178842,33.204830483048,0,0
-144.71948714794,-130.3033728168,28.009260926093,1359273.5130282,1241.4061324307,2760213.0178842,33.209260926093,0,0
-144.71948704097,-130.31772691935,28.013691369137,1359273.5130282,1241.4061324307,2760213.0178842,33.213691369137,0,0
-144.719486934,-130.3320810219,28.018121812181,1359273.5130282,1241.4061324307,2760213.0178842,33.218121812181,0,0
-144.71948682703,-130.34643512445,28.022552255226,1359273.5130282,1241.4061324307,2760213.0178842,33.222552255226,0,0
-144.71948672006,-130.360789227,28.02698269827,1359273.5130282,1241.4061324307,2760213.0178842,33.22698269827,0,0
-144.7194866131,-130.37514332955,28.031413141314,1359273.5130282,1241.4061324307,2760213.0178842,33.231413141314,0,0
-144.71948650613,-130.3894974321,28.035843584358,1359273.5130282,1241.4061324307,2760213.0178842,33.235843584358,0,0
-144.71948639916,-130.40385153465,28.040274027403,1359273.5130282,1241.4061324307,2760213.0178842,33.240274027403,0,0
-144.71948629219,-130.4182056372,28.044704470447,1359273.5130282,1241.4061324307,2760213.0178842,33.244704470447,0,0
-144.71948618522,-130.43255973975,28.049134913491,1359273.5130282,1241.4061324307,2760213.0178842,33.249134913491,0,0
-144.71948607825,-130.4469138423,28.053565356536,1359273.5130282,1241.4061324307,2760213.0178842,33.253565356536,0,0
-144.71948597128,-130.46126794485,28.05799579958,1359273.5130282,1241.4061324307,2760213.0178842,33.25799579958,0,0
-144.71948586431,-130.4756220474,28.062426242624,1359273.5130282,1241.4061324307,2760213.0178842,33.262426242624,0,0
-144.71948575734,-130.48997614995,28.066856685669,1359273.5130282,1241.4061324307,2760213.0178842,33.266856685669,0,0
-144.71948565037,-130.5043302525,28.071287128713,1359273.5130282,1241.4061324307,2760213.0178842,33.271287128713,0,0
-144.7194855434,-130.51868435505,28.075717571757,1359273.5130282,1241.4061324307,2760213.0178842,33.275717571757,0,0
-144.71948543643,-130.5330384576,28.080148014801,1359273.5130282,1241.4061324307,2760213.0178842,33.280148014801,0,0
-144.71948532946,-130.54739256015,28.084578457846,1359273.5130282,1241.4061324307,2760213.0178842,33.284578457846,0,0
-144.71948522249,-130.5617466627,28.08900890089,1359273.5130282,1241.4061324307,2760213.0178842,33.28900890089,0,0
-144.71948511552,-130.57610076525,28.093439343934,1359273.5130282,1241.4061324307,2760213.0178842,33.293439343934,0,0
-144.71948500855,-130.5904548678,28.097869786979,1359273.5130282,1241.4061324307,2760213.0178842,33.297869786979,0,0
-144.71948490158,-130.60480897035,28.102300230023,1359273.5130282,1241.4061324307,2760213.0178842,33.302300230023,0,0
-144.71948479461,-130.6191630729,28.106730673067,1359273.5130282,1241.4061324307,2760213.0178842,33.306730673067,0,0
-144.71948468764,-130.63351717545,28.111161116112,1359273.5130282,1241.4061324307,2760213.0178842,33.311161116112,0,0
-144.71948458067,-130.647871278,28.115591559156,1359273.5130282,1241.4061324307,2760213.0178842,33.315591559156,0,0
-144.7194844737,-130.66222538055,28.1200220022,1359273.5130282,1241.4061324307,2760213.0178842,33.3200220022,0,0
-144.71948436673,-130.6765794831,28.124452445245,1359273.5130282,1241.4061324307,2760213.0178842,33.324452445245,0,0
-144.71948425976,-130.69093358565,28.128882888289,1359273.5130282,1241.4061324307,2760213.0178842,33.328882888289,0,0
-144.71948415279,-130.7052876882,28.133313331333,1359273.5130282,1241.4061324307,2760213.0178842,33.333313331333,0,0
-144.71948404582,-130.71964179075,28.137743774377,1359273.5130282,1241.4061324307,2760213.0178842,33.337743774377,0,0
-144.71948393885,-130.7339958933,28.142174217422,1359273.5130282,1241.4061324307,2760213.0178842,33.342174217422,0,0
-144.71948383188,-130.74834999585,28.146604660466,1359273.5130282,1241.4061324307,2760213.0178842,33.346604660466,0,0
-144.71948372491,-130.7627040984,28.15103510351,1359273.5130282,1241.4061324307,2760213.0178842,33.35103510351,0,0
-144.71948361794,-130.77705820095,28.155465546555,1359273.5130282,1241.4061324307,2760213.0178842,33.355465546555,0,0
-144.71948351097,-130.7914123035,28.159895989599,1359273.5130282,1241.4061324307,2760213.0178842,33.359895989599,0,0
-144.719483404,-130.80576640605,28.164326432643,1359273.5130282,1241.4061324307,2760213.0178842,33.364326432643,0,0
-144.71948329703,-130.8201205086,28.168756875688,1359273.5130282,1241.4061324307,2760213.0178842,33.368756875688,0,0
-144.71948319006,-130.83447461115,28.173187318732,1359273.5130282,1241.4061324307,2760213.0178842,33.373187318732,0,0
-144.71948308309,-130.8488287137,28.177617761776,1359273.5130282,1241.4061324307,2760213.0178842,33.377617761776,0,0
-144.71948297612,-130.86318281625,28.18204820482,1359273.5130282,1241.4061324307,2760213.0178842,33.38204820482,0,0
-144.71948286915,-130.8775369188,28.186478647865,1359273.5130282,1241.4061324307,2760213.0178842,33.386478647865,0,0
-144.71948276218,-130.89189102135,28.190909090909,1359273.5130282,1241.4061324307,2760213.0178842,33.390909090909,0,0
-144.71948265521,-130.9062451239,28.195339533953,1359273.5130282,1241.4061324307,2760213.0178842,33.395339533953,0,0
-144.71948254824,-130.92059922645,28.199769976998,1359273.5130282,1241.4061324307,2760213.0178842,33.399769976998,0,0
-144.71948244127,-130.934953329,28.204200420042,1359273.5130282,1241.4061324307,2760213.0178842,33.404200420042,0,0
-144.7194823343,-130.94930743155,28.208630863086,1359273.5130282,1241.4061324307,2760213.0178842,33.408630863086,0,0
-144.71948222733,-130.9636615341,28.213061306131,1359273.5130282,1241.4061324307,2760213.0178842,33.413061306131,0,0
-144.71948212036,-130.97801563665,28.217491749175,1359273.5130282,1241.4061324307,2760213.0178842,33.417491749175,0,0
-144.71948201339,-130.9923697392,28.221922192219,1359273.5130282,1241.4061324307,2760213.0178842,33.421922192219,0,0
-144.71948190642,-131.00672384175,28.226352635264,1359273.5130282,1241.4061324307,2760213.0178842,33.426352635264,0,0
-144.71948179945,-131.0210779443,28.230783078308,1359273.5130282,1241.4061324307,2760213.0178842,33.430783078308,0,0
-144.71948169248,-131.03543204685,28.235213521352,1359273.5130282,1241.4061324307,2760213.0178842,33.435213521352,0,0
-144.71948158551,-131.0497861494,28.239643964396,1359273.5130282,1241.4061324307,2760213.0178842,33.439643964396,0,0
-144.71948147854,-131.06414025195,28.244074407441,1359273.5130282,1241.4061324307,2760213.0178842,33.444074407441,0,0
-144.71948137157,-131.0784943545,28.248504850485,1359273.5130282,1241.4061324307,2760213.0178842,33.448504850485,0,0
-144.7194812646,-131.09284845705,28.252935293529,1359273.5130282,1241.4061324307,2760213.0178842,33.452935293529,0,0
-144.71948115763,-131.1072025596,28.257365736574,1359273.5130282,1241.4061324307,2760213.0178842,33.457365736574,0,0
-144.71948105066,-131.12155666215,28.261796179618,1359273.5130282,1241.4061324307,2760213.0178842,33.461796179618,0,0
-144.71948094369,-131.1359107647,28.266226622662,1359273.5130282,1241.4061324307,2760213.0178842,33.466226622662,0,0
-144.71948083672,-131.15026486725,28.270657065707,1359273.5130282,1241.4061324307,2760213.0178842,33.470657065707,0,0
-144.71948072975,-131.1646189698,28.275087508751,1359273.5130282,1241.4061324307,2760213.0178842,33.475087508751,0,0
-144.71948062278,-131.17897307235,28.279517951795,1359273.5130282,1241.4061324307,2760213.0178842,33.479517951795,0,0
-144.71948051581,-131.1933271749,28.283948394839,1359273.5130282,1241.4061324307,2760213.0178842,33.483948394839,0,0
-144.71948040884,-131.20768127745,28.288378837884,1359273.5130282,1241.4061324307,2760213.0178842,33.488378837884,0,0
-144.71948030187,-131.22203538,28.292809280928,1359273.5130282,1241.4061324307,2760213.0178842,33.492809280928,0,0
-144.7194801949,-131.23638948255,28.297239723972,1359273.5130282,1241.4061324307,2760213.0178842,33.497239723972,0,0
-144.71948008793,-131.2507435851,28.301670167017,1359273.5130282,1241.4061324307,2760213.0178842,33.501670167017,0,0
-144.71947998096,-131.26509768765,28.306100610061,1359273.5130282,1241.4061324307,2760213.0178842,33.506100610061,0,0
-144.719479874,-131.2794517902,28.310531053105,1359273.5130282,1241.4061324307,2760213.0178842,33.510531053105,0,0
-144.71947976703,-131.29380589275,28.31496149615,1359273.5130282,1241.4061324307,2760213.0178842,33.51496149615,0,0
-144.71947966006,-131.3081599953,28.319391939194,1359273.5130282,1241.4061324307,2760213.0178842,33.519391939194,0,0
-144.71947955309,-131.32251409785,28.323822382238,1359273.5130282,1241.4061324307,2760213.0178842,33.523822382238,0,0
-144.71947944612,-131.3368682004,28.328252825283,1359273.5130282,1241.4061324307,2760213.0178842,33.528252825283,0,0
-144.71947933915,-131.35122230295,28.332683268327,1359273.5130282,1241.4061324307,2760213.0178842,33.532683268327,0,0
-144.71947923218,-131.3655764055,28.337113711371,1359273.5130282,1241.4061324307,2760213.0178842,33.537113711371,0,0
-144.71947912521,-131.37993050805,28.341544154415,1359273.5130282,1241.4061324307,2760213.0178842,33.541544154415,0,0
-144.71947901824,-131.3942846106,28.34597459746,1359273.5130282,1241.4061324307,2760213.0178842,33.54597459746,0,0
-144.71947891127,-131.40863871315,28.350405040504,1359273.5130282,1241.4061324307,2760213.0178842,33.550405040504,0,0
-144.7194788043,-131.4229928157,28.354835483548,1359273.5130282,1241.4061324307,2760213.0178842,33.554835483548,0,0
-144.71947869733,-131.43734691825,28.359265926593,1359273.5130282,1241.4061324307,2760213.0178842,33.559265926593,0,0
-144.71947859036,-131.4517010208,28.363696369637,1359273.5130282,1241.4061324307,2760213.0178842,33.563696369637,0,0
-144.71947848339,-131.46605512335,28.368126812681,1359273.5130282,1241.4061324307,2760213.0178842,33.568126812681,0,0
-144.71947837642,-131.4804092259,28.372557255726,1359273.5130282,1241.4061324307,2760213.0178842,33.572557255726,0,0
-144.71947826945,-131.49476332845,28.37698769877,1359273.5130282,1241.4061324307,2760213.0178842,33.57698769877,0,0
-144.71947816248,-131.509117431,28.381418141814,1359273.5130282,1241.4061324307,2760213.0178842,33.581418141814,0,0
-144.71947805551,-131.52347153355,28.385848584858,1359273.5130282,1241.4061324307,2760213.0178842,33.585848584858,0,0
-144.71947794854,-131.5378256361,28.390279027903,1359273.5130282,1241.4061324307,2760213.0178842,33.590279027903,0,0
-144.71947784157,-131.55217973865,28.394709470947,1359273.5130282,1241.4061324307,2760213.0178842,33.594709470947,0,0
-144.7194777346,-131.5665338412,28.399139913991,1359273.5130282,1241.4061324307,2760213.0178842,33.599139913991,0,0
-144.71947762763,-131.58088794375,28.403570357036,1359273.5130282,1241.4061324307,2760213.0178842,33.603570357036,0,0
-144.71947752066,-131.5952420463,28.40800080008,1359273.5130282,1241.4061324307,2760213.0178842,33.60800080008,0,0
-144.71947741369,-131.60959614885,28.412431243124,1359273.5130282,1241.4061324307,2760213.0178842,33.612431243124,0,0
-144.71947730672,-131.6239502514,28.416861686169,1359273.5130282,1241.4061324307,2760213.0178842,33.616861686169,0,0
-144.71947719975,-131.63830435395,28.421292129213,1359273.5130282,1241.4061324307,2760213.0178842,33.621292129213,0,0
-144.71947709278,-131.6526584565,28.425722572257,1359273.5130282,1241.4061324307,2760213.0178842,33.625722572257,0,0
-144.71947698581,-131.66701255905,28.430153015302,1359273.5130282,1241.4061324307,2760213.0178842,33.630153015302,0,0
-144.71947687884,-131.6813666616,28.434583458346,1359273.5130282,1241.4061324307,2760213.0178842,33.634583458346,0,0
-144.71947677187,-131.69572076415,28.43901390139,1359273.5130282,1241.4061324307,2760213.0178842,33.63901390139,0,0
-144.7194766649,-131.7100748667,28.443444344434,1359273.5130282,1241.4061324307,2760213.0178842,33.643444344434,0,0
-144.71947655793,-131.72442896925,28.447874787479,1359273.5130282,1241.4061324307,2760213.0178842,33.647874787479,0,0
-144.71947645096,-131.7387830718,28.452305230523,1359273.5130282,1241.4061324307,2760213.0178842,33.652305230523,0,0
-144.71947634399,-131.75313717435,28.456735673567,1359273.5130282,1241.4061324307,2760213.0178842,33.656735673567,0,0
-144.71947623702,-131.7674912769,28.461166116612,1359273.5130282,1241.4061324307,2760213.0178842,33.661166116612,0,0
-144.71947613005,-131.78184537945,28.465596559656,1359273.5130282,1241.4061324307,2760213.0178842,33.665596559656,0,0
-144.71947602308,-131.796199482,28.4700270027,1359273.5130282,1241.4061324307,2760213.0178842,33.6700270027,0,0
-144.71947591611,-131.81055358455,28.474457445745,1359273.5130282,1241.4061324307,2760213.0178842,33.674457445745,0,0
-144.71947580914,-131.8249076871,28.478887888789,1359273.5130282,1241.4061324307,2760213.0178842,33.678887888789,0,0
-144.71947570217,-131.83926178965,28.483318331833,1359273.5130282,1241.4061324307,2760213.0178842,33.683318331833,0,0
-144.7194755952,-131.8536158922,28.487748774877,1359273.5130282,1241.4061324307,2760213.0178842,33.687748774877,0,0
-144.71947548823,-131.86796999475,28.492179217922,1359273.5130282,1241.4061324307,2760213.0178842,33.692179217922,0,0
-144.71947538126,-131.8823240973,28.496609660966,1359273.5130282,1241.4061324307,2760213.0178842,33.696609660966,0,0
-144.71947527429,-131.89667819985,28.50104010401,1359273.5130282,1241.4061324307,2760213.0178842,33.70104010401,0,0
-144.71947516732,-131.9110323024,28.505470547055,1359273.5130282,1241.4061324307,2760213.0178842,33.705470547055,0,0
-144.71947506035,-131.92538640495,28.509900990099,1359273.5130282,1241.4061324307,2760213.0178842,33.709900990099,0,0
-144.71947495338,-131.9397405075,28.514331433143,1359273.5130282,1241.4061324307,2760213.0178842,33.714331433143,0,0
-144.71947484641,-131.95409461005,28.518761876188,1359273.5130282,1241.4061324307,2760213.0178842,33.718761876188,0,0
-144.71947473944,-131.9684487126,28.523192319232,1359273.5130282,1241.4061324307,2760213.0178842,33.723192319232,0,0
-144.71947463247,-131.98280281515,28.527622762276,1359273.5130282,1241.4061324307,2760213.0178842,33.727622762276,0,0
-144.7194745255,-131.9971569177,28.532053205321,1359273.5130282,1241.4061324307,2760213.0178842,33.732053205321,0,0
-144.71947441853,-132.01151102025,28.536483648365,1359273.5130282,1241.4061324307,2760213.0178842,33.736483648365,0,0
-144.71947431156,-132.0258651228,28.540914091409,1359273.5130282,1241.4061324307,2760213.0178842,33.740914091409,0,0
-144.71947420459,-132.04021922535,28.545344534453,1359273.5130282,1241.4061324307,2760213.0178842,33.745344534453,0,0
-144.71947409762,-132.0545733279,28.549774977498,1359273.5130282,1241.4061324307,2760213.0178842,33.749774977498,0,0
-144.71947399065,-132.06892743045,28.554205420542,1359273.5130282,1241.4061324307,2760213.0178842,33.754205420542,0,0
-144.71947388368,-132.083281533,28.558635863586,1359273.5130282,1241.4061324307,2760213.0178842,33.758635863586,0,0
-144.71947377671,-132.09763563555,28.563066306631,1359273.5130282,1241.4061324307,2760213.0178842,33.763066306631,0,0
-144.71947366974,-132.1119897381,28.567496749675,1359273.5130282,1241.4061324307,2760213.0178842,33.767496749675,0,0
-144.71947356277,-132.12634384065,28.571927192719,1359273.5130282,1241.4061324307,2760213.0178842,33.771927192719,0,0
-144.7194734558,-132.1406979432,28.576357635764,1359273.5130282,1241.4061324307,2760213.0178842,33.776357635764,0,0
-144.71947334883,-132.15505204575,28.580788078808,1359273.5130282,1241.4061324307,2760213.0178842,33.780788078808,0,0
-144.71947324187,-132.1694061483,28.585218521852,1359273.5130282,1241.4061324307,2760213.0178842,33.785218521852,0,0
-144.7194731349,-132.18376025085,28.589648964896,1359273.5130282,1241.4061324307,2760213.0178842,33.789648964896,0,0
-144.71947302793,-132.1981143534,28.594079407941,1359273.5130282,1241.4061324307,2760213.0178842,33.794079407941,0,0
-144.71947292096,-132.21246845595,28.598509850985,1359273.5130282,1241.4061324307,2760213.0178842,33.798509850985,0,0
-144.71947281399,-132.2268225585,28.602940294029,1359273.5130282,1241.4061324307,2760213.0178842,33.802940294029,0,0
-144.71947270702,-132.24117666105,28.607370737074,1359273.5130282,1241.4061324307,2760213.0178842,33.807370737074,0,0
-144.71947260005,-132.2555307636,28.611801180118,1359273.5130282,1241.4061324307,2760213.0178842,33.811801180118,0,0
-144.71947249308,-132.26988486615,28.616231623162,1359273.5130282,1241.4061324307,2760213.0178842,33.816231623162,0,0
-144.71947238611,-132.2842389687,28.620662066207,1359273.5130282,1241.4061324307,2760213.0178842,33.820662066207,0,0
-144.71947227914,-132.29859307125,28.625092509251,1359273.5130282,1241.4061324307,2760213.0178842,33.825092509251,0,0
-144.71947217217,-132.3129471738,28.629522952295,1359273.5130282,1241.4061324307,2760213.0178842,33.829522952295,0,0
-144.7194720652,-132.32730127635,28.63395339534,1359273.5130282,1241.4061324307,2760213.0178842,33.83395339534,0,0
-144.71947195823,-132.3416553789,28.638383838384,1359273.5130282,1241.4061324307,2760213.0178842,33.838383838384,0,0
-144.71947185126,-132.35600948145,28.642814281428,1359273.5130282,1241.4061324307,2760213.0178842,33.842814281428,0,0
-144.71947174429,-132.370363584,28.647244724472,1359273.5130282,1241.4061324307,2760213.0178842,33.847244724472,0,0
-144.71947163732,-132.38471768655,28.651675167517,1359273.5130282,1241.4061324307,2760213.0178842,33.851675167517,0,0
-144.71947153035,-132.3990717891,28.656105610561,1359273.5130282,1241.4061324307,2760213.0178842,33.856105610561,0,0
-144.71947142338,-132.41342589165,28.660536053605,1359273.5130282,1241.4061324307,2760213.0178842,33.860536053605,0,0
-144.71947131641,-132.4277799942,28.66496649665,1359273.5130282,1241.4061324307,2760213.0178842,33.86496649665,0,0
-144.71947120944,-132.44213409675,28.669396939694,1359273.5130282,1241.4061324307,2760213.0178842,33.869396939694,0,0
-144.71947110247,-132.4564881993,28.673827382738,1359273.5130282,1241.4061324307,2760213.0178842,33.873827382738,0,0
-144.7194709955,-132.47084230185,28.678257825783,1359273.5130282,1241.4061324307,2760213.0178842,33.878257825783,0,0
-144.71947088853,-132.4851964044,28.682688268827,1359273.5130282,1241.4061324307,2760213.0178842,33.882688268827,0,0
-144.71947078156,-132.49955050695,28.687118711871,1359273.5130282,1241.4061324307,2760213.0178842,33.887118711871,0,0
-144.71947067459,-132.5139046095,28.691549154915,1359273.5130282,1241.4061324307,2760213.0178842,33.891549154915,0,0
-144.71947056762,-132.52825871205,28.69597959796,1359273.5130282,1241.4061324307,2760213.0178842,33.89597959796,0,0
-144.71947046065,-132.5426128146,28.700410041004,1359273.5130282,1241.4061324307,2760213.0178842,33.900410041004,0,0
-144.71947035368,-132.55696691715,28.704840484048,1359273.5130282,1241.4061324307,2760213.0178842,33.904840484048,0,0
-144.71947024671,-132.5713210197,28.709270927093,1359273.5130282,1241.4061324307,2760213.0178842,33.909270927093,0,0
-144.71947013974,-132.58567512225,28.713701370137,1359273.5130282,1241.4061324307,2760213.0178842,33.913701370137,0,0
-144.71947003277,-132.6000292248,28.718131813181,1359273.5130282,1241.4061324307,2760213.0178842,33.918131813181,0,0
-144.7194699258,-132.61438332735,28.722562256226,1359273.5130282,1241.4061324307,2760213.0178842,33.922562256226,0,0
-144.71946981883,-132.6287374299,28.72699269927,1359273.5130282,1241.4061324307,2760213.0178842,33.92699269927,0,0
-144.71946971186,-132.64309153245,28.731423142314,1359273.5130282,1241.4061324307,2760213.0178842,33.931423142314,0,0
-144.71946960489,-132.657445635,28.735853585359,1359273.5130282,1241.4061324307,2760213.0178842,33.935853585359,0,0
-144.71946949792,-132.67179973755,28.740284028403,1359273.5130282,1241.4061324307,2760213.0178842,33.940284028403,0,0
-144.71946939095,-132.6861538401,28.744714471447,1359273.5130282,1241.4061324307,2760213.0178842,33.944714471447,0,0
-144.71946928398,-132.70050794265,28.749144914491,1359273.5130282,1241.4061324307,2760213.0178842,33.949144914491,0,0
-144.71946917701,-132.7148620452,28.753575357536,1359273.5130282,1241.4061324307,2760213.0178842,33.953575357536,0,0
-144.71946907004,-132.72921614775,28.75800580058,1359273.5130282,1241.4061324307,2760213.0178842,33.95800580058,0,0
-144.71946896307,-132.7435702503,28.762436243624,1359273.5130282,1241.4061324307,2760213.0178842,33.962436243624,0,0
-144.7194688561,-132.75792435285,28.766866686669,1359273.5130282,1241.4061324307,2760213.0178842,33.966866686669,0,0
-144.71946874913,-132.7722784554,28.771297129713,1359273.5130282,1241.4061324307,2760213.0178842,33.971297129713,0,0
-144.71946864216,-132.78663255795,28.775727572757,1359273.5130282,1241.4061324307,2760213.0178842,33.975727572757,0,0
-144.71946853519,-132.8009866605,28.780158015802,1359273.5130282,1241.4061324307,2760213.0178842,33.980158015802,0,0
-144.71946842822,-132.81534076305,28.784588458846,1359273.5130282,1241.4061324307,2760213.0178842,33.984588458846,0,0
-144.71946832125,-132.8296948656,28.78901890189,1359273.5130282,1241.4061324307,2760213.0178842,33.98901890189,0,0
-144.71946821428,-132.84404896815,28.793449344934,1359273.5130282,1241.4061324307,2760213.0178842,33.993449344934,0,0
-144.71946810731,-132.8584030707,28.797879787979,1359273.5130282,1241.4061324307,2760213.0178842,33.997879787979,0,0
-144.71946800034,-132.87275717325,28.802310231023,1359273.5130282,1241.4061324307,2760213.0178842,34.002310231023,0,0
-144.71946789337,-132.8871112758,28.806740674067,1359273.5130282,1241.4061324307,2760213.0178842,34.006740674067,0,0
-144.7194677864,-132.90146537835,28.811171117112,1359273.5130282,1241.4061324307,2760213.0178842,34.011171117112,0,0
-144.71946767943,-132.9158194809,28.815601560156,1359273.5130282,1241.4061324307,2760213.0178842,34.015601560156,0,0
-144.71946757246,-132.93017358345,28.8200320032,1359273.5130282,1241.4061324307,2760213.0178842,34.0200320032,0,0
-144.71946746549,-132.944527686,28.824462446245,1359273.5130282,1241.4061324307,2760213.0178842,34.024462446245,0,0
-144.71946735852,-132.95888178855,28.828892889289,1359273.5130282,1241.4061324307,2760213.0178842,34.028892889289,0,0
-144.71946725155,-132.9732358911,28.833323332333,1359273.5130282,1241.4061324307,2760213.0178842,34.033323332333,0,0
-144.71946714458,-132.98758999365,28.837753775378,1359273.5130282,1241.4061324307,2760213.0178842,34.037753775378,0,0
-144.71946703761,-133.0019440962,28.842184218422,1359273.5130282,1241.4061324307,2760213.0178842,34.042184218422,0,0
-144.71946693064,-133.01629819875,28.846614661466,1359273.5130282,1241.4061324307,2760213.0178842,34.046614661466,0,0
-144.71946682367,-133.0306523013,28.85104510451,1359273.5130282,1241.4061324307,2760213.0178842,34.05104510451,0,0
-144.7194667167,-133.04500640385,28.855475547555,1359273.5130282,1241.4061324307,2760213.0178842,34.055475547555,0,0
-144.71946660974,-133.0593605064,28.859905990599,1359273.5130282,1241.4061324307,2760213.0178842,34.059905990599,0,0
-144.71946650277,-133.07371460895,28.864336433643,1359273.5130282,1241.4061324307,2760213.0178842,34.064336433643,0,0
-144.7194663958,-133.0880687115,28.868766876688,1359273.5130282,1241.4061324307,2760213.0178842,34.068766876688,0,0
-144.71946628883,-133.10242281405,28.873197319732,1359273.5130282,1241.4061324307,2760213.0178842,34.073197319732,0,0
-144.71946618186,-133.1167769166,28.877627762776,1359273.5130282,1241.4061324307,2760213.0178842,34.077627762776,0,0
-144.71946607489,-133.13113101915,28.882058205821,1359273.5130282,1241.4061324307,2760213.0178842,34.082058205821,0,0
-144.71946596792,-133.1454851217,28.886488648865,1359273.5130282,1241.4061324307,2760213.0178842,34.086488648865,0,0
-144.71946586095,-133.15983922425,28.890919091909,1359273.5130282,1241.4061324307,2760213.0178842,34.090919091909,0,0
-144.71946575398,-133.1741933268,28.895349534953,1359273.5130282,1241.4061324307,2760213.0178842,34.095349534953,0,0
-144.71946564701,-133.18854742935,28.899779977998,1359273.5130282,1241.4061324307,2760213.0178842,34.099779977998,0,0
-144.71946554004,-133.2029015319,28.904210421042,1359273.5130282,1241.4061324307,2760213.0178842,34.104210421042,0,0
-144.71946543294,-133.21725563492,28.908640864086,1359179.0428159,-1012.4682169476,2753880.4918884,34.108640864086,0,0
-144.71946532581,-133.23160973809,28.913071307131,1359179.0428159,-1012.4682169476,2753880.4918884,34.113071307131,0,0
-144.71946521868,-133.24596384125,28.917501750175,1359179.0428159,-1012.4682169476,2753880.4918884,34.117501750175,0,0
-144.71946511155,-133.26031794441,28.921932193219,1359179.0428159,-1012.4682169476,2753880.4918884,34.121932193219,0,0
-144.71946500442,-133.27467204757,28.926362636264,1359179.0428159,-1012.4682169476,2753880.4918884,34.126362636264,0,0
-144.71946489729,-133.28902615074,28.930793079308,1359179.0428159,-1012.4682169476,2753880.4918884,34.130793079308,0,0
-144.71946479016,-133.3033802539,28.935223522352,1359179.0428159,-1012.4682169476,2753880.4918884,34.135223522352,0,0
-144.71946468303,-133.31773435706,28.939653965397,1359179.0428159,-1012.4682169476,2753880.4918884,34.139653965397,0,0
-144.71946457589,-133.33208846022,28.944084408441,1359179.0428159,-1012.4682169476,2753880.4918884,34.144084408441,0,0
-144.71946446876,-133.34644256339,28.948514851485,1359179.0428159,-1012.4682169476,2753880.4918884,34.148514851485,0,0
-144.71946436163,-133.36079666655,28.952945294529,1359179.0428159,-1012.4682169476,2753880.4918884,34.152945294529,0,0
-144.7194642545,-133.37515076971,28.957375737574,1359179.0428159,-1012.4682169476,2753880.4918884,34.157375737574,0,0
-144.71946414737,-133.38950487287,28.961806180618,1359179.0428159,-1012.4682169476,2753880.4918884,34.161806180618,0,0
-144.71946404024,-133.40385897603,28.966236623662,1359179.0428159,-1012.4682169476,2753880.4918884,34.166236623662,0,0
-144.71946393311,-133.4182130792,28.970667066707,1359179.0428159,-1012.4682169476,2753880.4918884,34.170667066707,0,0
-144.71946382598,-133.43256718236,28.975097509751,1359179.0428159,-1012.4682169476,2753880.4918884,34.175097509751,0,0
-144.71946371885,-133.44692128552,28.979527952795,1359179.0428159,-1012.4682169476,2753880.4918884,34.179527952795,0,0
-144.71946361172,-133.46127538868,28.98395839584,1359179.0428159,-1012.4682169476,2753880.4918884,34.18395839584,0,0
-144.71946350459,-133.47562949185,28.988388838884,1359179.0428159,-1012.4682169476,2753880.4918884,34.188388838884,0,0
-144.71946339745,-133.48998359501,28.992819281928,1359179.0428159,-1012.4682169476,2753880.4918884,34.192819281928,0,0
-144.71946329032,-133.50433769817,28.997249724972,1359179.0428159,-1012.4682169476,2753880.4918884,34.197249724972,0,0
-144.71946318319,-133.51869180133,29.001680168017,1359179.0428159,-1012.4682169476,2753880.4918884,34.201680168017,0,0
-144.71946307606,-133.5330459045,29.006110611061,1359179.0428159,-1012.4682169476,2753880.4918884,34.206110611061,0,0
-144.71946296893,-133.54740000766,29.010541054105,1359179.0428159,-1012.4682169476,2753880.4918884,34.210541054105,0,0
-144.7194628618,-133.56175411082,29.01497149715,1359179.0428159,-1012.4682169476,2753880.4918884,34.21497149715,0,0
-144.71946275467,-133.57610821398,29.019401940194,1359179.0428159,-1012.4682169476,2753880.4918884,34.219401940194,0,0
-144.71946264754,-133.59046231715,29.023832383238,1359179.0428159,-1012.4682169476,2753880.4918884,34.223832383238,0,0
-144.71946254041,-133.60481642031,29.028262826283,1359179.0428159,-1012.4682169476,2753880.4918884,34.228262826283,0,0
-144.71946243328,-133.61917052347,29.032693269327,1359179.0428159,-1012.4682169476,2753880.4918884,34.232693269327,0,0
-144.71946232615,-133.63352462663,29.037123712371,1359179.0428159,-1012.4682169476,2753880.4918884,34.237123712371,0,0
-144.71946221901,-133.6478787298,29.041554155416,1359179.0428159,-1012.4682169476,2753880.4918884,34.241554155416,0,0
-144.71946211188,-133.66223283296,29.04598459846,1359179.0428159,-1012.4682169476,2753880.4918884,34.24598459846,0,0
-144.71946200475,-133.67658693612,29.050415041504,1359179.0428159,-1012.4682169476,2753880.4918884,34.250415041504,0,0
-144.71946189762,-133.69094103928,29.054845484548,1359179.0428159,-1012.4682169476,2753880.4918884,34.254845484548,0,0
-144.71946179049,-133.70529514245,29.059275927593,1359179.0428159,-1012.4682169476,2753880.4918884,34.259275927593,0,0
-144.71946168336,-133.71964924561,29.063706370637,1359179.0428159,-1012.4682169476,2753880.4918884,34.263706370637,0,0
-144.71946157623,-133.73400334877,29.068136813681,1359179.0428159,-1012.4682169476,2753880.4918884,34.268136813681,0,0
-144.7194614691,-133.74835745193,29.072567256726,1359179.0428159,-1012.4682169476,2753880.4918884,34.272567256726,0,0
-144.71946136197,-133.7627115551,29.07699769977,1359179.0428159,-1012.4682169476,2753880.4918884,34.27699769977,0,0
-144.71946125484,-133.77706565826,29.081428142814,1359179.0428159,-1012.4682169476,2753880.4918884,34.281428142814,0,0
-144.71946114771,-133.79141976142,29.085858585859,1359179.0428159,-1012.4682169476,2753880.4918884,34.285858585859,0,0
-144.71946104058,-133.80577386458,29.090289028903,1359179.0428159,-1012.4682169476,2753880.4918884,34.290289028903,0,0
-144.71946093344,-133.82012796775,29.094719471947,1359179.0428159,-1012.4682169476,2753880.4918884,34.294719471947,0,0
-144.71946082631,-133.83448207091,29.099149914991,1359179.0428159,-1012.4682169476,2753880.4918884,34.299149914991,0,0
-144.71946071918,-133.84883617407,29.103580358036,1359179.0428159,-1012.4682169476,2753880.4918884,34.303580358036,0,0
-144.71946061205,-133.86319027723,29.10801080108,1359179.0428159,-1012.4682169476,2753880.4918884,34.30801080108,0,0
-144.71946050492,-133.8775443804,29.112441244124,1359179.0428159,-1012.4682169476,2753880.4918884,34.312441244124,0,0
-144.71946039779,-133.89189848356,29.116871687169,1359179.0428159,-1012.4682169476,2753880.4918884,34.316871687169,0,0
-144.71946029066,-133.90625258672,29.121302130213,1359179.0428159,-1012.4682169476,2753880.4918884,34.321302130213,0,0
-144.71946018353,-133.92060668988,29.125732573257,1359179.0428159,-1012.4682169476,2753880.4918884,34.325732573257,0,0
-144.7194600764,-133.93496079304,29.130163016302,1359179.0428159,-1012.4682169476,2753880.4918884,34.330163016302,0,0
-144.71945996927,-133.94931489621,29.134593459346,1359179.0428159,-1012.4682169476,2753880.4918884,34.334593459346,0,0
-144.71945986214,-133.96366899937,29.13902390239,1359179.0428159,-1012.4682169476,2753880.4918884,34.33902390239,0,0
-144.719459755,-133.97802310253,29.143454345435,1359179.0428159,-1012.4682169476,2753880.4918884,34.343454345435,0,0
-144.71945964787,-133.99237720569,29.147884788479,1359179.0428159,-1012.4682169476,2753880.4918884,34.347884788479,0,0
-144.71945954074,-134.00673130886,29.152315231523,1359179.0428159,-1012.4682169476,2753880.4918884,34.352315231523,0,0
-144.71945943361,-134.02108541202,29.156745674567,1359179.0428159,-1012.4682169476,2753880.4918884,34.356745674567,0,0
-144.71945932648,-134.03543951518,29.161176117612,1359179.0428159,-1012.4682169476,2753880.4918884,34.361176117612,0,0
-144.71945921935,-134.04979361834,29.165606560656,1359179.0428159,-1012.4682169476,2753880.4918884,34.365606560656,0,0
-144.71945911222,-134.06414772151,29.1700370037,1359179.0428159,-1012.4682169476,2753880.4918884,34.3700370037,0,0
-144.71945900509,-134.07850182467,29.174467446745,1359179.0428159,-1012.4682169476,2753880.4918884,34.374467446745,0,0
-144.71945889796,-134.09285592783,29.178897889789,1359179.0428159,-1012.4682169476,2753880.4918884,34.378897889789,0,0
-144.71945879083,-134.10721003099,29.183328332833,1359179.0428159,-1012.4682169476,2753880.4918884,34.383328332833,0,0
-144.7194586837,-134.12156413416,29.187758775878,1359179.0428159,-1012.4682169476,2753880.4918884,34.387758775878,0,0
-144.71945857656,-134.13591823732,29.192189218922,1359179.0428159,-1012.4682169476,2753880.4918884,34.392189218922,0,0
-144.71945846943,-134.15027234048,29.196619661966,1359179.0428159,-1012.4682169476,2753880.4918884,34.396619661966,0,0
-144.7194583623,-134.16462644364,29.20105010501,1359179.0428159,-1012.4682169476,2753880.4918884,34.40105010501,0,0
-144.71945825517,-134.17898054681,29.205480548055,1359179.0428159,-1012.4682169476,2753880.4918884,34.405480548055,0,0
-144.71945814804,-134.19333464997,29.209910991099,1359179.0428159,-1012.4682169476,2753880.4918884,34.409910991099,0,0
-144.71945804091,-134.20768875313,29.214341434143,1359179.0428159,-1012.4682169476,2753880.4918884,34.414341434143,0,0
-144.71945793378,-134.22204285629,29.218771877188,1359179.0428159,-1012.4682169476,2753880.4918884,34.418771877188,0,0
-144.71945782665,-134.23639695946,29.223202320232,1359179.0428159,-1012.4682169476,2753880.4918884,34.423202320232,0,0
-144.71945771952,-134.25075106262,29.227632763276,1359179.0428159,-1012.4682169476,2753880.4918884,34.427632763276,0,0
-144.71945761239,-134.26510516578,29.232063206321,1359179.0428159,-1012.4682169476,2753880.4918884,34.432063206321,0,0
-144.71945750526,-134.27945926894,29.236493649365,1359179.0428159,-1012.4682169476,2753880.4918884,34.436493649365,0,0
-144.71945739812,-134.29381337211,29.240924092409,1359179.0428159,-1012.4682169476,2753880.4918884,34.440924092409,0,0
-144.71945729099,-134.30816747527,29.245354535454,1359179.0428159,-1012.4682169476,2753880.4918884,34.445354535454,0,0
-144.71945718386,-134.32252157843,29.249784978498,1359179.0428159,-1012.4682169476,2753880.4918884,34.449784978498,0,0
-144.71945707673,-134.33687568159,29.254215421542,1359179.0428159,-1012.4682169476,2753880.4918884,34.454215421542,0,0
-144.7194569696,-134.35122978476,29.258645864586,1359179.0428159,-1012.4682169476,2753880.4918884,34.458645864586,0,0
-144.71945686247,-134.36558388792,29.263076307631,1359179.0428159,-1012.4682169476,2753880.4918884,34.463076307631,0,0
-144.71945675534,-134.37993799108,29.267506750675,1359179.0428159,-1012.4682169476,2753880.4918884,34.467506750675,0,0
-144.71945664821,-134.39429209424,29.271937193719,1359179.0428159,-1012.4682169476,2753880.4918884,34.471937193719,0,0
-144.71945654108,-134.40864619741,29.276367636764,1359179.0428159,-1012.4682169476,2753880.4918884,34.476367636764,0,0
-144.71945643395,-134.42300030057,29.280798079808,1359179.0428159,-1012.4682169476,2753880.4918884,34.480798079808,0,0
-144.71945632682,-134.43735440373,29.285228522852,1359179.0428159,-1012.4682169476,2753880.4918884,34.485228522852,0,0
-144.71945621968,-134.45170850689,29.289658965897,1359179.0428159,-1012.4682169476,2753880.4918884,34.489658965897,0,0
-144.71945611255,-134.46606261005,29.294089408941,1359179.0428159,-1012.4682169476,2753880.4918884,34.494089408941,0,0
-144.71945600542,-134.48041671322,29.298519851985,1359179.0428159,-1012.4682169476,2753880.4918884,34.498519851985,0,0
-144.71945589829,-134.49477081638,29.30295029503,1359179.0428159,-1012.4682169476,2753880.4918884,34.502950295029,0,0
-144.71945579116,-134.50912491954,29.307380738074,1359179.0428159,-1012.4682169476,2753880.4918884,34.507380738074,0,0
-144.71945568403,-134.5234790227,29.311811181118,1359179.0428159,-1012.4682169476,2753880.4918884,34.511811181118,0,0
-144.7194555769,-134.53783312587,29.316241624162,1359179.0428159,-1012.4682169476,2753880.4918884,34.516241624162,0,0
-144.71945546977,-134.55218722903,29.320672067207,1359179.0428159,-1012.4682169476,2753880.4918884,34.520672067207,0,0
-144.71945536264,-134.56654133219,29.325102510251,1359179.0428159,-1012.4682169476,2753880.4918884,34.525102510251,0,0
-144.71945525551,-134.58089543535,29.329532953295,1359179.0428159,-1012.4682169476,2753880.4918884,34.529532953295,0,0
-144.71945514838,-134.59524953852,29.33396339634,1359179.0428159,-1012.4682169476,2753880.4918884,34.53396339634,0,0
-144.71945504124,-134.60960364168,29.338393839384,1359179.0428159,-1012.4682169476,2753880.4918884,34.538393839384,0,0
-144.71945493411,-134.62395774484,29.342824282428,1359179.0428159,-1012.4682169476,2753880.4918884,34.542824282428,0,0
-144.71945482698,-134.638311848,29.347254725473,1359179.0428159,-1012.4682169476,2753880.4918884,34.547254725473,0,0
-144.71945471985,-134.65266595117,29.351685168517,1359179.0428159,-1012.4682169476,2753880.4918884,34.551685168517,0,0
-144.71945461272,-134.66702005433,29.356115611561,1359179.0428159,-1012.4682169476,2753880.4918884,34.556115611561,0,0
-144.71945450559,-134.68137415749,29.360546054605,1359179.0428159,-1012.4682169476,2753880.4918884,34.560546054605,0,0
-144.71945439846,-134.69572826065,29.36497649765,1359179.0428159,-1012.4682169476,2753880.4918884,34.56497649765,0,0
-144.71945429133,-134.71008236382,29.369406940694,1359179.0428159,-1012.4682169476,2753880.4918884,34.569406940694,0,0
-144.7194541842,-134.72443646698,29.373837383738,1359179.0428159,-1012.4682169476,2753880.4918884,34.573837383738,0,0
-144.71945407707,-134.73879057014,29.378267826783,1359179.0428159,-1012.4682169476,2753880.4918884,34.578267826783,0,0
-144.71945396994,-134.7531446733,29.382698269827,1359179.0428159,-1012.4682169476,2753880.4918884,34.582698269827,0,0
-144.7194538628,-134.76749877647,29.387128712871,1359179.0428159,-1012.4682169476,2753880.4918884,34.587128712871,0,0
-144.71945375567,-134.78185287963,29.391559155916,1359179.0428159,-1012.4682169476,2753880.4918884,34.591559155916,0,0
-144.71945364854,-134.79620698279,29.39598959896,1359179.0428159,-1012.4682169476,2753880.4918884,34.59598959896,0,0
-144.71945354141,-134.81056108595,29.400420042004,1359179.0428159,-1012.4682169476,2753880.4918884,34.600420042004,0,0
-144.71945343428,-134.82491518912,29.404850485049,1359179.0428159,-1012.4682169476,2753880.4918884,34.604850485049,0,0
-144.71945332715,-134.83926929228,29.409280928093,1359179.0428159,-1012.4682169476,2753880.4918884,34.609280928093,0,0
-144.71945322002,-134.85362339544,29.413711371137,1359179.0428159,-1012.4682169476,2753880.4918884,34.613711371137,0,0
-144.71945311289,-134.8679774986,29.418141814181,1359179.0428159,-1012.4682169476,2753880.4918884,34.618141814181,0,0
-144.71945300576,-134.88233160177,29.422572257226,1359179.0428159,-1012.4682169476,2753880.4918884,34.622572257226,0,0
-144.71945289863,-134.89668570493,29.42700270027,1359179.0428159,-1012.4682169476,2753880.4918884,34.62700270027,0,0
-144.7194527915,-134.91103980809,29.431433143314,1359179.0428159,-1012.4682169476,2753880.4918884,34.631433143314,0,0
-144.71945268436,-134.92539391125,29.435863586359,1359179.0428159,-1012.4682169476,2753880.4918884,34.635863586359,0,0
-144.71945257723,-134.93974801441,29.440294029403,1359179.0428159,-1012.4682169476,2753880.4918884,34.640294029403,0,0
-144.7194524701,-134.95410211758,29.444724472447,1359179.0428159,-1012.4682169476,2753880.4918884,34.644724472447,0,0
-144.71945236297,-134.96845622074,29.449154915492,1359179.0428159,-1012.4682169476,2753880.4918884,34.649154915492,0,0
-144.71945225584,-134.9828103239,29.453585358536,1359179.0428159,-1012.4682169476,2753880.4918884,34.653585358536,0,0
-144.71945214871,-134.99716442706,29.45801580158,1359179.0428159,-1012.4682169476,2753880.4918884,34.65801580158,0,0
-144.71945204158,-135.01151853023,29.462446244624,1359179.0428159,-1012.4682169476,2753880.4918884,34.662446244624,0,0
-144.71945193445,-135.02587263339,29.466876687669,1359179.0428159,-1012.4682169476,2753880.4918884,34.666876687669,0,0
-144.71945182732,-135.04022673655,29.471307130713,1359179.0428159,-1012.4682169476,2753880.4918884,34.671307130713,0,0
-144.71945172019,-135.05458083971,29.475737573757,1359179.0428159,-1012.4682169476,2753880.4918884,34.675737573757,0,0
-144.71945161306,-135.06893494288,29.480168016802,1359179.0428159,-1012.4682169476,2753880.4918884,34.680168016802,0,0
-144.71945150593,-135.08328904604,29.484598459846,1359179.0428159,-1012.4682169476,2753880.4918884,34.684598459846,0,0
-144.71945139879,-135.0976431492,29.48902890289,1359179.0428159,-1012.4682169476,2753880.4918884,34.68902890289,0,0
-144.71945129166,-135.11199725236,29.493459345935,1359179.0428159,-1012.4682169476,2753880.4918884,34.693459345935,0,0
-144.71945118453,-135.12635135553,29.497889788979,1359179.0428159,-1012.4682169476,2753880.4918884,34.697889788979,0,0
-144.7194510774,-135.14070545869,29.502320232023,1359179.0428159,-1012.4682169476,2753880.4918884,34.702320232023,0,0
-144.71945097027,-135.15505956185,29.506750675068,1359179.0428159,-1012.4682169476,2753880.4918884,34.706750675068,0,0
-144.71945086314,-135.16941366501,29.511181118112,1359179.0428159,-1012.4682169476,2753880.4918884,34.711181118112,0,0
-144.71945075601,-135.18376776818,29.515611561156,1359179.0428159,-1012.4682169476,2753880.4918884,34.715611561156,0,0
-144.71945064888,-135.19812187134,29.5200420042,1359179.0428159,-1012.4682169476,2753880.4918884,34.7200420042,0,0
-144.71945054175,-135.2124759745,29.524472447245,1359179.0428159,-1012.4682169476,2753880.4918884,34.724472447245,0,0
-144.71945043462,-135.22683007766,29.528902890289,1359179.0428159,-1012.4682169476,2753880.4918884,34.728902890289,0,0
-144.71945032749,-135.24118418083,29.533333333333,1359179.0428159,-1012.4682169476,2753880.4918884,34.733333333333,0,0
-144.71945022035,-135.25553828399,29.537763776378,1359179.0428159,-1012.4682169476,2753880.4918884,34.737763776378,0,0
-144.71945011322,-135.26989238715,29.542194219422,1359179.0428159,-1012.4682169476,2753880.4918884,34.742194219422,0,0
-144.71945000609,-135.28424649031,29.546624662466,1359179.0428159,-1012.4682169476,2753880.4918884,34.746624662466,0,0
-144.71944989896,-135.29860059348,29.551055105511,1359179.0428159,-1012.4682169476,2753880.4918884,34.751055105511,0,0
-144.71944979183,-135.31295469664,29.555485548555,1359179.0428159,-1012.4682169476,2753880.4918884,34.755485548555,0,0
-144.7194496847,-135.3273087998,29.559915991599,1359179.0428159,-1012.4682169476,2753880.4918884,34.759915991599,0,0
-144.71944957757,-135.34166290296,29.564346434643,1359179.0428159,-1012.4682169476,2753880.4918884,34.764346434643,0,0
-144.71944947044,-135.35601700613,29.568776877688,1359179.0428159,-1012.4682169476,2753880.4918884,34.768776877688,0,0
-144.71944936331,-135.37037110929,29.573207320732,1359179.0428159,-1012.4682169476,2753880.4918884,34.773207320732,0,0
-144.71944925618,-135.38472521245,29.577637763776,1359179.0428159,-1012.4682169476,2753880.4918884,34.777637763776,0,0
-144.71944914905,-135.39907931561,29.582068206821,1359179.0428159,-1012.4682169476,2753880.4918884,34.782068206821,0,0
-144.71944904191,-135.41343341878,29.586498649865,1359179.0428159,-1012.4682169476,2753880.4918884,34.786498649865,0,0
-144.71944893478,-135.42778752194,29.590929092909,1359179.0428159,-1012.4682169476,2753880.4918884,34.790929092909,0,0
-144.71944882765,-135.4421416251,29.595359535954,1359179.0428159,-1012.4682169476,2753880.4918884,34.795359535954,0,0
-144.71944872052,-135.45649572826,29.599789978998,1359179.0428159,-1012.4682169476,2753880.4918884,34.799789978998,0,0
-144.71944861339,-135.47084983142,29.604220422042,1359179.0428159,-1012.4682169476,2753880.4918884,34.804220422042,0,0
-144.71944850626,-135.48520393459,29.608650865087,1359179.0428159,-1012.4682169476,2753880.4918884,34.808650865087,0,0
-144.71944839913,-135.49955803775,29.613081308131,1359179.0428159,-1012.4682169476,2753880.4918884,34.813081308131,0,0
-144.719448292,-135.51391214091,29.617511751175,1359179.0428159,-1012.4682169476,2753880.4918884,34.817511751175,0,0
-144.71944818487,-135.52826624407,29.621942194219,1359179.0428159,-1012.4682169476,2753880.4918884,34.821942194219,0,0
-144.71944807774,-135.54262034724,29.626372637264,1359179.0428159,-1012.4682169476,2753880.4918884,34.826372637264,0,0
-144.71944797061,-135.5569744504,29.630803080308,1359179.0428159,-1012.4682169476,2753880.4918884,34.830803080308,0,0
-144.71944786347,-135.57132855356,29.635233523352,1359179.0428159,-1012.4682169476,2753880.4918884,34.835233523352,0,0
-144.71944775634,-135.58568265672,29.639663966397,1359179.0428159,-1012.4682169476,2753880.4918884,34.839663966397,0,0
-144.71944764921,-135.60003675989,29.644094409441,1359179.0428159,-1012.4682169476,2753880.4918884,34.844094409441,0,0
-144.71944754208,-135.61439086305,29.648524852485,1359179.0428159,-1012.4682169476,2753880.4918884,34.848524852485,0,0
-144.71944743495,-135.62874496621,29.65295529553,1359179.0428159,-1012.4682169476,2753880.4918884,34.85295529553,0,0
-144.71944732782,-135.64309906937,29.657385738574,1359179.0428159,-1012.4682169476,2753880.4918884,34.857385738574,0,0
-144.71944722069,-135.65745317254,29.661816181618,1359179.0428159,-1012.4682169476,2753880.4918884,34.861816181618,0,0
-144.71944711356,-135.6718072757,29.666246624662,1359179.0428159,-1012.4682169476,2753880.4918884,34.866246624662,0,0
-144.71944700643,-135.68616137881,29.670677067707,1357927.7080247,1633.4043060852,2749472.6621193,34.870677067707,0,0
-144.71944689928,-135.7005154814,29.675107510751,1357927.7080247,1633.4043060852,2749472.6621193,34.875107510751,0,0
-144.71944679213,-135.71486958399,29.679537953795,1357927.7080247,1633.4043060852,2749472.6621193,34.879537953795,0,0
-144.71944668498,-135.72922368658,29.68396839684,1357927.7080247,1633.4043060852,2749472.6621193,34.88396839684,0,0
-144.71944657783,-135.74357778917,29.688398839884,1357927.7080247,1633.4043060852,2749472.6621193,34.888398839884,0,0
-144.71944647068,-135.75793189176,29.692829282928,1357927.7080247,1633.4043060852,2749472.6621193,34.892829282928,0,0
-144.71944636354,-135.77228599435,29.697259725973,1357927.7080247,1633.4043060852,2749472.6621193,34.897259725973,0,0
-144.71944625639,-135.78664009693,29.701690169017,1357927.7080247,1633.4043060852,2749472.6621193,34.901690169017,0,0
-144.71944614924,-135.80099419952,29.706120612061,1357927.7080247,1633.4043060852,2749472.6621193,34.906120612061,0,0
-144.71944604209,-135.81534830211,29.710551055106,1357927.7080247,1633.4043060852,2749472.6621193,34.910551055106,0,0
-144.71944593494,-135.8297024047,29.71498149815,1357927.7080247,1633.4043060852,2749472.6621193,34.91498149815,0,0
-144.71944582779,-135.84405650729,29.719411941194,1357927.7080247,1633.4043060852,2749472.6621193,34.919411941194,0,0
-144.71944572065,-135.85841060988,29.723842384238,1357927.7080247,1633.4043060852,2749472.6621193,34.923842384238,0,0
-144.7194456135,-135.87276471247,29.728272827283,1357927.7080247,1633.4043060852,2749472.6621193,34.928272827283,0,0
-144.71944550635,-135.88711881506,29.732703270327,1357927.7080247,1633.4043060852,2749472.6621193,34.932703270327,0,0
-144.7194453992,-135.90147291765,29.737133713371,1357927.7080247,1633.4043060852,2749472.6621193,34.937133713371,0,0
-144.71944529205,-135.91582702024,29.741564156416,1357927.7080247,1633.4043060852,2749472.6621193,34.941564156416,0,0
-144.7194451849,-135.93018112283,29.74599459946,1357927.7080247,1633.4043060852,2749472.6621193,34.94599459946,0,0
-144.71944507776,-135.94453522542,29.750425042504,1357927.7080247,1633.4043060852,2749472.6621193,34.950425042504,0,0
-144.71944497061,-135.958889328,29.754855485549,1357927.7080247,1633.4043060852,2749472.6621193,34.954855485549,0,0
-144.71944486346,-135.97324343059,29.759285928593,1357927.7080247,1633.4043060852,2749472.6621193,34.959285928593,0,0
-144.71944475631,-135.98759753318,29.763716371637,1357927.7080247,1633.4043060852,2749472.6621193,34.963716371637,0,0
-144.71944464916,-136.00195163577,29.768146814681,1357927.7080247,1633.4043060852,2749472.6621193,34.968146814681,0,0
-144.71944454201,-136.01630573836,29.772577257726,1357927.7080247,1633.4043060852,2749472.6621193,34.972577257726,0,0
-144.71944443487,-136.03065984095,29.77700770077,1357927.7080247,1633.4043060852,2749472.6621193,34.97700770077,0,0
-144.71944432772,-136.04501394354,29.781438143814,1357927.7080247,1633.4043060852,2749472.6621193,34.981438143814,0,0
-144.71944422057,-136.05936804613,29.785868586859,1357927.7080247,1633.4043060852,2749472.6621193,34.985868586859,0,0
-144.71944411342,-136.07372214872,29.790299029903,1357927.7080247,1633.4043060852,2749472.6621193,34.990299029903,0,0
-144.71944400627,-136.08807625131,29.794729472947,1357927.7080247,1633.4043060852,2749472.6621193,34.994729472947,0,0
-144.71944389912,-136.1024303539,29.799159915992,1357927.7080247,1633.4043060852,2749472.6621193,34.999159915992,0,0
-144.71944379198,-136.11678445649,29.803590359036,1357927.7080247,1633.4043060852,2749472.6621193,35.003590359036,0,0
-144.71944368483,-136.13113855907,29.80802080208,1357927.7080247,1633.4043060852,2749472.6621193,35.00802080208,0,0
-144.71944357768,-136.14549266166,29.812451245125,1357927.7080247,1633.4043060852,2749472.6621193,35.012451245125,0,0
-144.71944347053,-136.15984676425,29.816881688169,1357927.7080247,1633.4043060852,2749472.6621193,35.016881688169,0,0
-144.71944336338,-136.17420086684,29.821312131213,1357927.7080247,1633.4043060852,2749472.6621193,35.021312131213,0,0
-144.71944325624,-136.18855496943,29.825742574257,1357927.7080247,1633.4043060852,2749472.6621193,35.025742574257,0,0
-144.71944314909,-136.20290907202,29.830173017302,1357927.7080247,1633.4043060852,2749472.6621193,35.030173017302,0,0
-144.71944304194,-136.21726317461,29.834603460346,1357927.7080247,1633.4043060852,2749472.6621193,35.034603460346,0,0
-144.71944293479,-136.2316172772,29.83903390339,1357927.7080247,1633.4043060852,2749472.6621193,35.03903390339,0,0
-144.71944282764,-136.24597137979,29.843464346435,1357927.7080247,1633.4043060852,2749472.6621193,35.043464346435,0,0
-144.71944272049,-136.26032548238,29.847894789479,1357927.7080247,1633.4043060852,2749472.6621193,35.047894789479,0,0
-144.71944261335,-136.27467958497,29.852325232523,1357927.7080247,1633.4043060852,2749472.6621193,35.052325232523,0,0
-144.7194425062,-136.28903368756,29.856755675568,1357927.7080247,1633.4043060852,2749472.6621193,35.056755675568,0,0
-144.71944239905,-136.30338779014,29.861186118612,1357927.7080247,1633.4043060852,2749472.6621193,35.061186118612,0,0
-144.7194422919,-136.31774189273,29.865616561656,1357927.7080247,1633.4043060852,2749472.6621193,35.065616561656,0,0
-144.71944218475,-136.33209599532,29.8700470047,1357927.7080247,1633.4043060852,2749472.6621193,35.0700470047,0,0
-144.7194420776,-136.34645009791,29.874477447745,1357927.7080247,1633.4043060852,2749472.6621193,35.074477447745,0,0
-144.71944197046,-136.3608042005,29.878907890789,1357927.7080247,1633.4043060852,2749472.6621193,35.078907890789,0,0
-144.71944186331,-136.37515830309,29.883338333833,1357927.7080247,1633.4043060852,2749472.6621193,35.083338333833,0,0
-144.71944175616,-136.38951240568,29.887768776878,1357927.7080247,1633.4043060852,2749472.6621193,35.087768776878,0,0
-144.71944164901,-136.40386650827,29.892199219922,1357927.7080247,1633.4043060852,2749472.6621193,35.092199219922,0,0
-144.71944154186,-136.41822061086,29.896629662966,1357927.7080247,1633.4043060852,2749472.6621193,35.096629662966,0,0
-144.71944143471,-136.43257471345,29.901060106011,1357927.7080247,1633.4043060852,2749472.6621193,35.101060106011,0,0
-144.71944132757,-136.44692881604,29.905490549055,1357927.7080247,1633.4043060852,2749472.6621193,35.105490549055,0,0
-144.71944122042,-136.46128291863,29.909920992099,1357927.7080247,1633.4043060852,2749472.6621193,35.109920992099,0,0
-144.71944111327,-136.47563702121,29.914351435144,1357927.7080247,1633.4043060852,2749472.6621193,35.114351435144,0,0
-144.71944100612,-136.4899911238,29.918781878188,1357927.7080247,1633.4043060852,2749472.6621193,35.118781878188,0,0
-144.71944089897,-136.50434522639,29.923212321232,1357927.7080247,1633.4043060852,2749472.6621193,35.123212321232,0,0
-144.71944079182,-136.51869932898,29.927642764276,1357927.7080247,1633.4043060852,2749472.6621193,35.127642764276,0,0
-144.71944068468,-136.53305343157,29.932073207321,1357927.7080247,1633.4043060852,2749472.6621193,35.132073207321,0,0
-144.71944057753,-136.54740753416,29.936503650365,1357927.7080247,1633.4043060852,2749472.6621193,35.136503650365,0,0
-144.71944047038,-136.56176163675,29.940934093409,1357927.7080247,1633.4043060852,2749472.6621193,35.140934093409,0,0
-144.71944036323,-136.57611573934,29.945364536454,1357927.7080247,1633.4043060852,2749472.6621193,35.145364536454,0,0
-144.71944025608,-136.59046984193,29.949794979498,1357927.7080247,1633.4043060852,2749472.6621193,35.149794979498,0,0
-144.71944014893,-136.60482394452,29.954225422542,1357927.7080247,1633.4043060852,2749472.6621193,35.154225422542,0,0
-144.71944004179,-136.61917804711,29.958655865587,1357927.7080247,1633.4043060852,2749472.6621193,35.158655865587,0,0
-144.71943993464,-136.6335321497,29.963086308631,1357927.7080247,1633.4043060852,2749472.6621193,35.163086308631,0,0
-144.71943982749,-136.64788625229,29.967516751675,1357927.7080247,1633.4043060852,2749472.6621193,35.167516751675,0,0
-144.71943972034,-136.66224035487,29.971947194719,1357927.7080247,1633.4043060852,2749472.6621193,35.171947194719,0,0
-144.71943961319,-136.67659445746,29.976377637764,1357927.7080247,1633.4043060852,2749472.6621193,35.176377637764,0,0
-144.71943950604,-136.69094856005,29.980808080808,1357927.7080247,1633.4043060852,2749472.6621193,35.180808080808,0,0
-144.7194393989,-136.70530266264,29.985238523852,1357927.7080247,1633.4043060852,2749472.6621193,35.185238523852,0,0
-144.71943929175,-136.71965676523,29.989668966897,1357927.7080247,1633.4043060852,2749472.6621193,35.189668966897,0,0
-144.7194391846,-136.73401086782,29.994099409941,1357927.7080247,1633.4043060852,2749472.6621193,35.194099409941,0,0
-144.71943907745,-136.74836497041,29.998529852985,1357927.7080247,1633.4043060852,2749472.6621193,35.198529852985,0,0
-144.7194389703,-136.762719073,30.00296029603,1357927.7080247,1633.4043060852,2749472.6621193,35.20296029603,0,0
-144.71943886315,-136.77707317559,30.007390739074,1357927.7080247,1633.4043060852,2749472.6621193,35.207390739074,0,0
-144.71943875601,-136.79142727818,30.011821182118,1357927.7080247,1633.4043060852,2749472.6621193,35.211821182118,0,0
-144.71943864886,-136.80578138077,30.016251625163,1357927.7080247,1633.4043060852,2749472.6621193,35.216251625163,0,0
-144.71943854171,-136.82013548336,30.020682068207,1357927.7080247,1633.4043060852,2749472.6621193,35.220682068207,0,0
-144.71943843456,-136.83448958594,30.025112511251,1357927.7080247,1633.4043060852,2749472.6621193,35.225112511251,0,0
-144.71943832741,-136.84884368853,30.029542954295,1357927.7080247,1633.4043060852,2749472.6621193,35.229542954295,0,0
-144.71943822026,-136.86319779112,30.03397339734,1357927.7080247,1633.4043060852,2749472.6621193,35.23397339734,0,0
-144.71943811312,-136.87755189371,30.038403840384,1357927.7080247,1633.4043060852,2749472.6621193,35.238403840384,0,0
-144.71943800597,-136.8919059963,30.042834283428,1357927.7080247,1633.4043060852,2749472.6621193,35.242834283428,0,0
-144.71943789882,-136.90626009889,30.047264726473,1357927.7080247,1633.4043060852,2749472.6621193,35.247264726473,0,0
-144.71943779167,-136.92061420148,30.051695169517,1357927.7080247,1633.4043060852,2749472.6621193,35.251695169517,0,0
-144.71943768452,-136.93496830407,30.056125612561,1357927.7080247,1633.4043060852,2749472.6621193,35.256125612561,0,0
-144.71943757737,-136.94932240666,30.060556055606,1357927.7080247,1633.4043060852,2749472.6621193,35.260556055606,0,0
-144.71943747023,-136.96367650925,30.06498649865,1357927.7080247,1633.4043060852,2749472.6621193,35.26498649865,0,0
-144.71943736308,-136.97803061184,30.069416941694,1357927.7080247,1633.4043060852,2749472.6621193,35.269416941694,0,0
-144.71943725593,-136.99238471443,30.073847384738,1357927.7080247,1633.4043060852,2749472.6621193,35.273847384738,0,0
-144.71943714878,-137.00673881701,30.078277827783,1357927.7080247,1633.4043060852,2749472.6621193,35.278277827783,0,0
-144.71943704163,-137.0210929196,30.082708270827,1357927.7080247,1633.4043060852,2749472.6621193,35.282708270827,0,0
-144.71943693448,-137.03544702219,30.087138713871,1357927.7080247,1633.4043060852,2749472.6621193,35.287138713871,0,0
-144.71943682734,-137.04980112478,30.091569156916,1357927.7080247,1633.4043060852,2749472.6621193,35.291569156916,0,0
-144.71943672019,-137.06415522737,30.09599959996,1357927.7080247,1633.4043060852,2749472.6621193,35.29599959996,0,0
-144.71943661304,-137.07850932996,30.100430043004,1357927.7080247,1633.4043060852,2749472.6621193,35.300430043004,0,0
-144.71943650589,-137.09286343255,30.104860486049,1357927.7080247,1633.4043060852,2749472.6621193,35.304860486049,0,0
-144.71943639874,-137.10721753514,30.109290929093,1357927.7080247,1633.4043060852,2749472.6621193,35.309290929093,0,0
-144.7194362916,-137.12157163773,30.113721372137,1357927.7080247,1633.4043060852,2749472.6621193,35.313721372137,0,0
-144.71943618445,-137.13592574032,30.118151815182,1357927.7080247,1633.4043060852,2749472.6621193,35.318151815182,0,0
-144.7194360773,-137.15027984291,30.122582258226,1357927.7080247,1633.4043060852,2749472.6621193,35.322582258226,0,0
-144.71943597015,-137.1646339455,30.12701270127,1357927.7080247,1633.4043060852,2749472.6621193,35.32701270127,0,0
-144.719435863,-137.17898804808,30.131443144314,1357927.7080247,1633.4043060852,2749472.6621193,35.331443144314,0,0
-144.71943575585,-137.19334215067,30.135873587359,1357927.7080247,1633.4043060852,2749472.6621193,35.335873587359,0,0
-144.71943564871,-137.20769625326,30.140304030403,1357927.7080247,1633.4043060852,2749472.6621193,35.340304030403,0,0
-144.71943554156,-137.22205035585,30.144734473447,1357927.7080247,1633.4043060852,2749472.6621193,35.344734473447,0,0
-144.71943543441,-137.23640445844,30.149164916492,1357927.7080247,1633.4043060852,2749472.6621193,35.349164916492,0,0
-144.71943532726,-137.25075856103,30.153595359536,1357927.7080247,1633.4043060852,2749472.6621193,35.353595359536,0,0
-144.71943522011,-137.26511266362,30.15802580258,1357927.7080247,1633.4043060852,2749472.6621193,35.35802580258,0,0
-144.71943511296,-137.27946676621,30.162456245625,1357927.7080247,1633.4043060852,2749472.6621193,35.362456245625,0,0
-144.71943500582,-137.2938208688,30.166886688669,1357927.7080247,1633.4043060852,2749472.6621193,35.366886688669,0,0
-144.71943489867,-137.30817497139,30.171317131713,1357927.7080247,1633.4043060852,2749472.6621193,35.371317131713,0,0
-144.71943479152,-137.32252907398,30.175747574757,1357927.7080247,1633.4043060852,2749472.6621193,35.375747574757,0,0
-144.71943468437,-137.33688317657,30.180178017802,1357927.7080247,1633.4043060852,2749472.6621193,35.380178017802,0,0
-144.71943457722,-137.35123727915,30.184608460846,1357927.7080247,1633.4043060852,2749472.6621193,35.384608460846,0,0
-144.71943447007,-137.36559138174,30.18903890389,1357927.7080247,1633.4043060852,2749472.6621193,35.38903890389,0,0
-144.71943436293,-137.37994548433,30.193469346935,1357927.7080247,1633.4043060852,2749472.6621193,35.393469346935,0,0
-144.71943425578,-137.39429958692,30.197899789979,1357927.7080247,1633.4043060852,2749472.6621193,35.397899789979,0,0
-144.71943414863,-137.40865368951,30.202330233023,1357927.7080247,1633.4043060852,2749472.6621193,35.402330233023,0,0
-144.71943404148,-137.4230077921,30.206760676068,1357927.7080247,1633.4043060852,2749472.6621193,35.406760676068,0,0
-144.71943393433,-137.43736189469,30.211191119112,1357927.7080247,1633.4043060852,2749472.6621193,35.411191119112,0,0
-144.71943382718,-137.45171599728,30.215621562156,1357927.7080247,1633.4043060852,2749472.6621193,35.415621562156,0,0
-144.71943372004,-137.46607009987,30.220052005201,1357927.7080247,1633.4043060852,2749472.6621193,35.420052005201,0,0
-144.71943361289,-137.48042420246,30.224482448245,1357927.7080247,1633.4043060852,2749472.6621193,35.424482448245,0,0
-144.71943350574,-137.49477830505,30.228912891289,1357927.7080247,1633.4043060852,2749472.6621193,35.428912891289,0,0
-144.71943339859,-137.50913240764,30.233343334333,1357927.7080247,1633.4043060852,2749472.6621193,35.433343334333,0,0
-144.71943329144,-137.52348651022,30.237773777378,1357927.7080247,1633.4043060852,2749472.6621193,35.437773777378,0,0
-144.71943318429,-137.53784061281,30.242204220422,1357927.7080247,1633.4043060852,2749472.6621193,35.442204220422,0,0
-144.71943307715,-137.5521947154,30.246634663466,1357927.7080247,1633.4043060852,2749472.6621193,35.446634663466,0,0
-144.71943297,-137.56654881799,30.251065106511,1357927.7080247,1633.4043060852,2749472.6621193,35.451065106511,0,0
-144.71943286285,-137.58090292058,30.255495549555,1357927.7080247,1633.4043060852,2749472.6621193,35.455495549555,0,0
-144.7194327557,-137.59525702317,30.259925992599,1357927.7080247,1633.4043060852,2749472.6621193,35.459925992599,0,0
-144.71943264855,-137.60961112576,30.264356435644,1357927.7080247,1633.4043060852,2749472.6621193,35.464356435644,0,0
-144.7194325414,-137.62396522835,30.268786878688,1357927.7080247,1633.4043060852,2749472.6621193,35.468786878688,0,0
-144.71943243426,-137.63831933094,30.273217321732,1357927.7080247,1633.4043060852,2749472.6621193,35.473217321732,0,0
-144.71943232711,-137.65267343353,30.277647764776,1357927.7080247,1633.4043060852,2749472.6621193,35.477647764776,0,0
-144.71943221996,-137.66702753612,30.282078207821,1357927.7080247,1633.4043060852,2749472.6621193,35.482078207821,0,0
-144.71943211281,-137.68138163871,30.286508650865,1357927.7080247,1633.4043060852,2749472.6621193,35.486508650865,0,0
-144.71943200566,-137.69573574129,30.290939093909,1357927.7080247,1633.4043060852,2749472.6621193,35.490939093909,0,0
-144.71943189851,-137.71008984388,30.295369536954,1357927.7080247,1633.4043060852,2749472.6621193,35.495369536954,0,0
-144.71943179137,-137.72444394647,30.299799979998,1357927.7080247,1633.4043060852,2749472.6621193,35.499799979998,0,0
-144.71943168422,-137.73879804906,30.304230423042,1357927.7080247,1633.4043060852,2749472.6621193,35.504230423042,0,0
-144.71943157707,-137.75315215165,30.308660866087,1357927.7080247,1633.4043060852,2749472.6621193,35.508660866087,0,0
-144.71943146992,-137.76750625424,30.313091309131,1357927.7080247,1633.4043060852,2749472.6621193,35.513091309131,0,0
-144.71943136277,-137.78186035683,30.317521752175,1357927.7080247,1633.4043060852,2749472.6621193,35.517521752175,0,0
-144.71943125562,-137.79621445942,30.32195219522,1357927.7080247,1633.4043060852,2749472.6621193,35.52195219522,0,0
-144.71943114848,-137.81056856201,30.326382638264,1357927.7080247,1633.4043060852,2749472.6621193,35.526382638264,0,0
-144.71943104133,-137.8249226646,30.330813081308,1357927.7080247,1633.4043060852,2749472.6621193,35.530813081308,0,0
-144.71943093418,-137.83927676719,30.335243524352,1357927.7080247,1633.4043060852,2749472.6621193,35.535243524352,0,0
-144.71943082703,-137.85363086978,30.339673967397,1357927.7080247,1633.4043060852,2749472.6621193,35.539673967397,0,0
-144.71943071988,-137.86798497236,30.344104410441,1357927.7080247,1633.4043060852,2749472.6621193,35.544104410441,0,0
-144.71943061273,-137.88233907495,30.348534853485,1357927.7080247,1633.4043060852,2749472.6621193,35.548534853485,0,0
-144.71943050559,-137.89669317754,30.35296529653,1357927.7080247,1633.4043060852,2749472.6621193,35.55296529653,0,0
-144.71943039844,-137.91104728013,30.357395739574,1357927.7080247,1633.4043060852,2749472.6621193,35.557395739574,0,0
-144.71943029129,-137.92540138272,30.361826182618,1357927.7080247,1633.4043060852,2749472.6621193,35.561826182618,0,0
-144.71943018414,-137.93975548531,30.366256625663,1357927.7080247,1633.4043060852,2749472.6621193,35.566256625663,0,0
-144.71943007699,-137.9541095879,30.370687068707,1357927.7080247,1633.4043060852,2749472.6621193,35.570687068707,0,0
-144.71942996984,-137.96846369049,30.375117511751,1357927.7080247,1633.4043060852,2749472.6621193,35.575117511751,0,0
-144.7194298627,-137.98281779308,30.379547954795,1357927.7080247,1633.4043060852,2749472.6621193,35.579547954795,0,0
-144.71942975555,-137.99717189567,30.38397839784,1357927.7080247,1633.4043060852,2749472.6621193,35.58397839784,0,0
-144.7194296484,-138.01152599826,30.388408840884,1357927.7080247,1633.4043060852,2749472.6621193,35.588408840884,0,0
-144.71942954125,-138.02588010085,30.392839283928,1357927.7080247,1633.4043060852,2749472.6621193,35.592839283928,0,0
-144.7194294341,-138.04023420343,30.397269726973,1357927.7080247,1633.4043060852,2749472.6621193,35.597269726973,0,0
-144.71942932696,-138.05458830602,30.401700170017,1357927.7080247,1633.4043060852,2749472.6621193,35.601700170017,0,0
-144.71942921981,-138.06894240861,30.406130613061,1357927.7080247,1633.4043060852,2749472.6621193,35.606130613061,0,0
-144.71942911266,-138.0832965112,30.410561056106,1357927.7080247,1633.4043060852,2749472.6621193,35.610561056106,0,0
-144.71942900551,-138.09765061379,30.41499149915,1357927.7080247,1633.4043060852,2749472.6621193,35.61499149915,0,0
-144.71942889836,-138.11200471638,30.419421942194,1357927.7080247,1633.4043060852,2749472.6621193,35.619421942194,0,0
-144.71942879121,-138.12635881897,30.423852385239,1357927.7080247,1633.4043060852,2749472.6621193,35.623852385239,0,0
-144.71942868407,-138.14071292156,30.428282828283,1357927.7080247,1633.4043060852,2749472.6621193,35.628282828283,0,0
-144.71942857692,-138.15506702415,30.432713271327,1357927.7080247,1633.4043060852,2749472.6621193,35.632713271327,0,0
-144.71942846977,-138.16942112674,30.437143714371,1357927.7080247,1633.4043060852,2749472.6621193,35.637143714371,0,0
-144.71942836262,-138.18377522933,30.441574157416,1357927.7080247,1633.4043060852,2749472.6621193,35.641574157416,0,0
-144.71942825547,-138.19812933192,30.44600460046,1357927.7080247,1633.4043060852,2749472.6621193,35.64600460046,0,0
-144.71942814832,-138.2124834345,30.450435043504,1357927.7080247,1633.4043060852,2749472.6621193,35.650435043504,0,0
-144.71942804118,-138.22683753709,30.454865486549,1357927.7080247,1633.4043060852,2749472.6621193,35.654865486549,0,0
-144.71942793403,-138.24119163968,30.459295929593,1357927.7080247,1633.4043060852,2749472.6621193,35.659295929593,0,0
-144.71942782688,-138.25554574227,30.463726372637,1357927.7080247,1633.4043060852,2749472.6621193,35.663726372637,0,0
-144.71942771973,-138.26989984486,30.468156815682,1357927.7080247,1633.4043060852,2749472.6621193,35.668156815682,0,0
-144.71942761258,-138.28425394745,30.472587258726,1357927.7080247,1633.4043060852,2749472.6621193,35.672587258726,0,0
-144.71942750543,-138.29860805004,30.47701770177,1357927.7080247,1633.4043060852,2749472.6621193,35.67701770177,0,0
-144.71942739829,-138.31296215263,30.481448144814,1357927.7080247,1633.4043060852,2749472.6621193,35.681448144814,0,0
-144.71942729114,-138.32731625522,30.485878587859,1357927.7080247,1633.4043060852,2749472.6621193,35.685878587859,0,0
-144.71942718399,-138.34167035781,30.490309030903,1357927.7080247,1633.4043060852,2749472.6621193,35.690309030903,0,0
-144.71942707684,-138.3560244604,30.494739473947,1357927.7080247,1633.4043060852,2749472.6621193,35.694739473947,0,0
-144.71942696969,-138.37037856299,30.499169916992,1357927.7080247,1633.4043060852,2749472.6621193,35.699169916992,0,0
-144.71942686254,-138.38473266557,30.503600360036,1357927.7080247,1633.4043060852,2749472.6621193,35.703600360036,0,0
-144.7194267554,-138.39908676816,30.50803080308,1357927.7080247,1633.4043060852,2749472.6621193,35.70803080308,0,0
-144.71942664825,-138.41344087075,30.512461246125,1357927.7080247,1633.4043060852,2749472.6621193,35.712461246125,0,0
-144.7194265411,-138.42779497334,30.516891689169,1357927.7080247,1633.4043060852,2749472.6621193,35.716891689169,0,0
-144.71942643395,-138.44214907593,30.521322132213,1357927.7080247,1633.4043060852,2749472.6621193,35.721322132213,0,0
-144.7194263268,-138.45650317852,30.525752575258,1357927.7080247,1633.4043060852,2749472.6621193,35.725752575258,0,0
-144.71942621965,-138.47085728111,30.530183018302,1357927.7080247,1633.4043060852,2749472.6621193,35.730183018302,0,0
-144.71942611251,-138.4852113837,30.534613461346,1357927.7080247,1633.4043060852,2749472.6621193,35.734613461346,0,0
-144.71942600536,-138.49956548629,30.53904390439,1357927.7080247,1633.4043060852,2749472.6621193,35.73904390439,0,0
-144.71942589821,-138.51391958888,30.543474347435,1357927.7080247,1633.4043060852,2749472.6621193,35.743474347435,0,0
-144.71942579106,-138.52827369147,30.547904790479,1357927.7080247,1633.4043060852,2749472.6621193,35.747904790479,0,0
-144.71942568391,-138.54262779406,30.552335233523,1357927.7080247,1633.4043060852,2749472.6621193,35.752335233523,0,0
-144.71942557676,-138.55698189665,30.556765676568,1357927.7080247,1633.4043060852,2749472.6621193,35.756765676568,0,0
-144.71942546962,-138.57133599923,30.561196119612,1357927.7080247,1633.4043060852,2749472.6621193,35.761196119612,0,0
-144.71942536247,-138.58569010182,30.565626562656,1357927.7080247,1633.4043060852,2749472.6621193,35.765626562656,0,0
-144.71942525532,-138.60004420441,30.570057005701,1357927.7080247,1633.4043060852,2749472.6621193,35.770057005701,0,0
-144.71942514817,-138.614398307,30.574487448745,1357927.7080247,1633.4043060852,2749472.6621193,35.774487448745,0,0
-144.71942504102,-138.62875240959,30.578917891789,1357927.7080247,1633.4043060852,2749472.6621193,35.778917891789,0,0
-144.71942493387,-138.64310651218,30.583348334833,1357927.7080247,1633.4043060852,2749472.6621193,35.783348334833,0,0
-144.71942482673,-138.65746061477,30.587778777878,1357927.7080247,1633.4043060852,2749472.6621193,35.787778777878,0,0
-144.71942471958,-138.67181471736,30.592209220922,1357927.7080247,1633.4043060852,2749472.6621193,35.792209220922,0,0
-144.71942461243,-138.68616881995,30.596639663966,1357927.7080247,1633.4043060852,2749472.6621193,35.796639663966,0,0
-144.71942450528,-138.70052292254,30.601070107011,1357927.7080247,1633.4043060852,2749472.6621193,35.801070107011,0,0
-144.71942439813,-138.71487702513,30.605500550055,1357927.7080247,1633.4043060852,2749472.6621193,35.805500550055,0,0
-144.71942429098,-138.72923112772,30.609930993099,1357927.7080247,1633.4043060852,2749472.6621193,35.809930993099,0,0
-144.71942418384,-138.7435852303,30.614361436144,1357927.7080247,1633.4043060852,2749472.6621193,35.814361436144,0,0
-144.71942407669,-138.75793933289,30.618791879188,1357927.7080247,1633.4043060852,2749472.6621193,35.818791879188,0,0
-144.71942396954,-138.77229343548,30.623222322232,1357927.7080247,1633.4043060852,2749472.6621193,35.823222322232,0,0
-144.71942386239,-138.78664753807,30.627652765277,1357927.7080247,1633.4043060852,2749472.6621193,35.827652765277,0,0
-144.71942375524,-138.80100164066,30.632083208321,1357927.7080247,1633.4043060852,2749472.6621193,35.832083208321,0,0
-144.71942364809,-138.81535574325,30.636513651365,1357927.7080247,1633.4043060852,2749472.6621193,35.836513651365,0,0
-144.71942354095,-138.82970984584,30.640944094409,1357927.7080247,1633.4043060852,2749472.6621193,35.840944094409,0,0
-144.7194234338,-138.84406394843,30.645374537454,1357927.7080247,1633.4043060852,2749472.6621193,35.845374537454,0,0
-144.71942332665,-138.85841805102,30.649804980498,1357927.7080247,1633.4043060852,2749472.6621193,35.849804980498,0,0
-144.7194232195,-138.87277215361,30.654235423542,1357927.7080247,1633.4043060852,2749472.6621193,35.854235423542,0,0
-144.71942311235,-138.8871262562,30.658665866587,1357927.7080247,1633.4043060852,2749472.6621193,35.858665866587,0,0
-144.71942300521,-138.90148035879,30.663096309631,1357927.7080247,1633.4043060852,2749472.6621193,35.863096309631,0,0
-144.71942289806,-138.91583446137,30.667526752675,1357927.7080247,1633.4043060852,2749472.6621193,35.867526752675,0,0
-144.71942279091,-138.93018856396,30.67195719572,1357927.7080247,1633.4043060852,2749472.6621193,35.87195719572,0,0
-144.71942268376,-138.94454266655,30.676387638764,1357927.7080247,1633.4043060852,2749472.6621193,35.876387638764,0,0
-144.71942257661,-138.95889676914,30.680818081808,1357927.7080247,1633.4043060852,2749472.6621193,35.880818081808,0,0
-144.71942246946,-138.97325087173,30.685248524852,1357927.7080247,1633.4043060852,2749472.6621193,35.885248524852,0,0
-144.71942236232,-138.98760497432,30.689678967897,1357927.7080247,1633.4043060852,2749472.6621193,35.889678967897,0,0
-144.71942225517,-139.00195907691,30.694109410941,1357927.7080247,1633.4043060852,2749472.6621193,35.894109410941,0,0
-144.71942214802,-139.0163131795,30.698539853985,1357927.7080247,1633.4043060852,2749472.6621193,35.898539853985,0,0
-144.71942204087,-139.03066728209,30.70297029703,1357927.7080247,1633.4043060852,2749472.6621193,35.90297029703,0,0
-144.71942193372,-139.04502138468,30.707400740074,1357927.7080247,1633.4043060852,2749472.6621193,35.907400740074,0,0
-144.71942182657,-139.05937548727,30.711831183118,1357927.7080247,1633.4043060852,2749472.6621193,35.911831183118,0,0
-144.71942171943,-139.07372958986,30.716261626163,1357927.7080247,1633.4043060852,2749472.6621193,35.916261626163,0,0
-144.71942161228,-139.08808369244,30.720692069207,1357927.7080247,1633.4043060852,2749472.6621193,35.920692069207,0,0
-144.71942150513,-139.10243779503,30.725122512251,1357927.7080247,1633.4043060852,2749472.6621193,35.925122512251,0,0
-144.71942139798,-139.11679189762,30.729552955296,1357927.7080247,1633.4043060852,2749472.6621193,35.929552955296,0,0
-144.71942129083,-139.13114600021,30.73398339834,1357927.7080247,1633.4043060852,2749472.6621193,35.93398339834,0,0
-144.71942118368,-139.1455001028,30.738413841384,1357927.7080247,1633.4043060852,2749472.6621193,35.938413841384,0,0
-144.71942107654,-139.15985420539,30.742844284428,1357927.7080247,1633.4043060852,2749472.6621193,35.942844284428,0,0
-144.71942096939,-139.17420830798,30.747274727473,1357927.7080247,1633.4043060852,2749472.6621193,35.947274727473,0,0
-144.71942086224,-139.18856241057,30.751705170517,1357927.7080247,1633.4043060852,2749472.6621193,35.951705170517,0,0
-144.71942075509,-139.20291651316,30.756135613561,1357927.7080247,1633.4043060852,2749472.6621193,35.956135613561,0,0
-144.71942064794,-139.21727061575,30.760566056606,1357927.7080247,1633.4043060852,2749472.6621193,35.960566056606,0,0
-144.71942054079,-139.23162471834,30.76499649965,1357927.7080247,1633.4043060852,2749472.6621193,35.96499649965,0,0
-144.71942043365,-139.24597882093,30.769426942694,1357927.7080247,1633.4043060852,2749472.6621193,35.969426942694,0,0
-144.7194203265,-139.26033292351,30.773857385739,1357927.7080247,1633.4043060852,2749472.6621193,35.973857385739,0,0
-144.71942021935,-139.2746870261,30.778287828783,1357927.7080247,1633.4043060852,2749472.6621193,35.978287828783,0,0
-144.7194201122,-139.28904112869,30.782718271827,1357927.7080247,1633.4043060852,2749472.6621193,35.982718271827,0,0
-144.71942000505,-139.30339523128,30.787148714871,1357927.7080247,1633.4043060852,2749472.6621193,35.987148714871,0,0
-144.7194198979,-139.31774933387,30.791579157916,1357927.7080247,1633.4043060852,2749472.6621193,35.991579157916,0,0
-144.71941979076,-139.33210343646,30.79600960096,1357927.7080247,1633.4043060852,2749472.6621193,35.99600960096,0,0
-144.71941968361,-139.34645753905,30.800440044004,1357927.7080247,1633.4043060852,2749472.6621193,36.000440044004,0,0
-144.71941957646,-139.36081164164,30.804870487049,1357927.7080247,1633.4043060852,2749472.6621193,36.004870487049,0,0
-144.71941946931,-139.37516574423,30.809300930093,1357927.7080247,1633.4043060852,2749472.6621193,36.009300930093,0,0
-144.71941936216,-139.38951984682,30.813731373137,1357927.7080247,1633.4043060852,2749472.6621193,36.013731373137,0,0
-144.71941925501,-139.40387394941,30.818161816182,1357927.7080247,1633.4043060852,2749472.6621193,36.018161816182,0,0
-144.71941914787,-139.418228052,30.822592259226,1357927.7080247,1633.4043060852,2749472.6621193,36.022592259226,0,0
-144.71941904072,-139.43258215458,30.82702270227,1357927.7080247,1633.4043060852,2749472.6621193,36.02702270227,0,0
-144.71941893357,-139.44693625717,30.831453145315,1357927.7080247,1633.4043060852,2749472.6621193,36.031453145315,0,0
-144.71941882642,-139.46129035976,30.835883588359,1357927.7080247,1633.4043060852,2749472.6621193,36.035883588359,0,0
-144.71941871927,-139.47564446235,30.840314031403,1357927.7080247,1633.4043060852,2749472.6621193,36.040314031403,0,0
-144.71941861212,-139.48999856494,30.844744474447,1357927.7080247,1633.4043060852,2749472.6621193,36.044744474447,0,0
-144.71941850498,-139.50435266753,30.849174917492,1357927.7080247,1633.4043060852,2749472.6621193,36.049174917492,0,0
-144.71941839783,-139.51870677012,30.853605360536,1357927.7080247,1633.4043060852,2749472.6621193,36.053605360536,0,0
-144.71941829068,-139.53306087271,30.85803580358,1357927.7080247,1633.4043060852,2749472.6621193,36.05803580358,0,0
-144.71941818353,-139.5474149753,30.862466246625,1357927.7080247,1633.4043060852,2749472.6621193,36.062466246625,0,0
-144.71941807638,-139.56176907789,30.866896689669,1357927.7080247,1633.4043060852,2749472.6621193,36.066896689669,0,0
-144.71941796923,-139.57612318048,30.871327132713,1357927.7080247,1633.4043060852,2749472.6621193,36.071327132713,0,0
-144.71941786209,-139.59047728307,30.875757575758,1357927.7080247,1633.4043060852,2749472.6621193,36.075757575758,0,0
-144.71941775494,-139.60483138565,30.880188018802,1357927.7080247,1633.4043060852,2749472.6621193,36.080188018802,0,0
-144.71941764779,-139.61918548824,30.884618461846,1357927.7080247,1633.4043060852,2749472.6621193,36.084618461846,0,0
-144.71941754064,-139.63353959083,30.88904890489,1357927.7080247,1633.4043060852,2749472.6621193,36.08904890489,0,0
-144.71941743349,-139.64789369342,30.893479347935,1357927.7080247,1633.4043060852,2749472.6621193,36.093479347935,0,0
-144.71941732634,-139.66224779601,30.897909790979,1357927.7080247,1633.4043060852,2749472.6621193,36.097909790979,0,0
-144.7194172192,-139.6766018986,30.902340234023,1357927.7080247,1633.4043060852,2749472.6621193,36.102340234023,0,0
-144.71941711205,-139.69095600119,30.906770677068,1357927.7080247,1633.4043060852,2749472.6621193,36.106770677068,0,0
-144.7194170049,-139.70531010378,30.911201120112,1357927.7080247,1633.4043060852,2749472.6621193,36.111201120112,0,0
-144.71941689775,-139.71966420637,30.915631563156,1357927.7080247,1633.4043060852,2749472.6621193,36.115631563156,0,0
-144.7194167906,-139.73401830896,30.920062006201,1357927.7080247,1633.4043060852,2749472.6621193,36.120062006201,0,0
-144.71941668345,-139.74837241155,30.924492449245,1357927.7080247,1633.4043060852,2749472.6621193,36.124492449245,0,0
-144.71941657631,-139.76272651414,30.928922892289,1357927.7080247,1633.4043060852,2749472.6621193,36.128922892289,0,0
-144.71941646916,-139.77708061672,30.933353335334,1357927.7080247,1633.4043060852,2749472.6621193,36.133353335334,0,0
-144.71941636201,-139.79143471931,30.937783778378,1357927.7080247,1633.4043060852,2749472.6621193,36.137783778378,0,0
-144.71941625486,-139.8057888219,30.942214221422,1357927.7080247,1633.4043060852,2749472.6621193,36.142214221422,0,0
-144.71941614771,-139.82014292449,30.946644664466,1357927.7080247,1633.4043060852,2749472.6621193,36.146644664466,0,0
-144.71941604057,-139.83449702708,30.951075107511,1357927.7080247,1633.4043060852,2749472.6621193,36.151075107511,0,0
-144.71941593342,-139.84885112967,30.955505550555,1357927.7080247,1633.4043060852,2749472.6621193,36.155505550555,0,0
-144.71941582627,-139.86320523226,30.959935993599,1357927.7080247,1633.4043060852,2749472.6621193,36.159935993599,0,0
-144.71941571912,-139.87755933485,30.964366436644,1357927.7080247,1633.4043060852,2749472.6621193,36.164366436644,0,0
-144.71941561197,-139.89191343744,30.968796879688,1357927.7080247,1633.4043060852,2749472.6621193,36.168796879688,0,0
-144.71941550482,-139.90626754003,30.973227322732,1357927.7080247,1633.4043060852,2749472.6621193,36.173227322732,0,0
-144.71941539768,-139.92062164262,30.977657765777,1357927.7080247,1633.4043060852,2749472.6621193,36.177657765777,0,0
-144.71941529053,-139.93497574521,30.982088208821,1357927.7080247,1633.4043060852,2749472.6621193,36.182088208821,0,0
-144.71941518338,-139.94932984779,30.986518651865,1357927.7080247,1633.4043060852,2749472.6621193,36.186518651865,0,0
-144.71941507623,-139.96368395038,30.990949094909,1357927.7080247,1633.4043060852,2749472.6621193,36.190949094909,0,0
-144.71941496908,-139.97803805297,30.995379537954,1357927.7080247,1633.4043060852,2749472.6621193,36.195379537954,0,0
-144.71941486193,-139.99239215556,30.999809980998,1357927.7080247,1633.4043060852,2749472.6621193,36.199809980998,0,0
-144.71941475479,-140.00674625815,31.004240424042,1357927.7080247,1633.4043060852,2749472.6621193,36.204240424042,0,0
-144.71941464764,-140.02110036074,31.008670867087,1357927.7080247,1633.4043060852,2749472.6621193,36.208670867087,0,0
-144.71941454049,-140.03545446333,31.013101310131,1357927.7080247,1633.4043060852,2749472.6621193,36.213101310131,0,0
-144.71941443334,-140.04980856592,31.017531753175,1357927.7080247,1633.4043060852,2749472.6621193,36.217531753175,0,0
-144.71941432619,-140.06416266851,31.02196219622,1357927.7080247,1633.4043060852,2749472.6621193,36.22196219622,0,0
-144.71941421904,-140.0785167711,31.026392639264,1357927.7080247,1633.4043060852,2749472.6621193,36.226392639264,0,0
-144.7194141119,-140.09287087369,31.030823082308,1357927.7080247,1633.4043060852,2749472.6621193,36.230823082308,0,0
-144.71941400475,-140.10722497628,31.035253525353,1357927.7080247,1633.4043060852,2749472.6621193,36.235253525353,0,0
-144.7194138976,-140.12157907886,31.039683968397,1357927.7080247,1633.4043060852,2749472.6621193,36.239683968397,0,0
-144.71941379045,-140.13593318145,31.044114411441,1357927.7080247,1633.4043060852,2749472.6621193,36.244114411441,0,0
-144.7194136833,-140.15028728404,31.048544854485,1357927.7080247,1633.4043060852,2749472.6621193,36.248544854485,0,0
-144.71941357615,-140.16464138663,31.05297529753,1357927.7080247,1633.4043060852,2749472.6621193,36.25297529753,0,0
-144.71941346901,-140.17899548922,31.057405740574,1357927.7080247,1633.4043060852,2749472.6621193,36.257405740574,0,0
-144.71941336186,-140.19334959181,31.061836183618,1357927.7080247,1633.4043060852,2749472.6621193,36.261836183618,0,0
-144.71941325471,-140.2077036944,31.066266626663,1357927.7080247,1633.4043060852,2749472.6621193,36.266266626663,0,0
-144.71941314756,-140.22205779699,31.070697069707,1357927.7080247,1633.4043060852,2749472.6621193,36.270697069707,0,0
-144.71941304041,-140.23641189958,31.075127512751,1357927.7080247,1633.4043060852,2749472.6621193,36.275127512751,0,0
-144.71941293326,-140.25076600217,31.079557955796,1357927.7080247,1633.4043060852,2749472.6621193,36.279557955796,0,0
-144.71941282612,-140.26512010476,31.08398839884,1357927.7080247,1633.4043060852,2749472.6621193,36.28398839884,0,0
-144.71941271897,-140.27947420735,31.088418841884,1357927.7080247,1633.4043060852,2749472.6621193,36.288418841884,0,0
-144.71941261182,-140.29382830993,31.092849284928,1357927.7080247,1633.4043060852,2749472.6621193,36.292849284928,0,0
-144.71941250467,-140.30818241252,31.097279727973,1357927.7080247,1633.4043060852,2749472.6621193,36.297279727973,0,0
-144.71941239752,-140.32253651511,31.101710171017,1357927.7080247,1633.4043060852,2749472.6621193,36.301710171017,0,0
-144.71941229037,-140.3368906177,31.106140614061,1357927.7080247,1633.4043060852,2749472.6621193,36.306140614061,0,0
-144.71941218323,-140.35124472029,31.110571057106,1357927.7080247,1633.4043060852,2749472.6621193,36.310571057106,0,0
-144.71941207608,-140.36559882288,31.11500150015,1357927.7080247,1633.4043060852,2749472.6621193,36.31500150015,0,0
-144.71941196893,-140.37995292547,31.119431943194,1357927.7080247,1633.4043060852,2749472.6621193,36.319431943194,0,0
-144.71941186178,-140.39430702806,31.123862386239,1357927.7080247,1633.4043060852,2749472.6621193,36.323862386239,0,0
-144.71941175463,-140.40866113065,31.128292829283,1357927.7080247,1633.4043060852,2749472.6621193,36.328292829283,0,0
-144.71941164748,-140.42301523324,31.132723272327,1357927.7080247,1633.4043060852,2749472.6621193,36.332723272327,0,0
-144.71941154034,-140.43736933583,31.137153715372,1357927.7080247,1633.4043060852,2749472.6621193,36.337153715372,0,0
-144.71941143319,-140.45172343842,31.141584158416,1357927.7080247,1633.4043060852,2749472.6621193,36.341584158416,0,0
-144.71941132604,-140.466077541,31.14601460146,1357927.7080247,1633.4043060852,2749472.6621193,36.34601460146,0,0
-144.71941121889,-140.48043164359,31.150445044504,1357927.7080247,1633.4043060852,2749472.6621193,36.350445044504,0,0
-144.71941111174,-140.49478574618,31.154875487549,1357927.7080247,1633.4043060852,2749472.6621193,36.354875487549,0,0
-144.71941100459,-140.50913984877,31.159305930593,1357927.7080247,1633.4043060852,2749472.6621193,36.359305930593,0,0
-144.71941089745,-140.52349395136,31.163736373637,1357927.7080247,1633.4043060852,2749472.6621193,36.363736373637,0,0
-144.7194107903,-140.53784805395,31.168166816682,1357927.7080247,1633.4043060852,2749472.6621193,36.368166816682,0,0
-144.71941068315,-140.55220215654,31.172597259726,1357927.7080247,1633.4043060852,2749472.6621193,36.372597259726,0,0
-144.719410576,-140.56655625913,31.17702770277,1357927.7080247,1633.4043060852,2749472.6621193,36.37702770277,0,0
-144.71941046885,-140.58091036172,31.181458145815,1357927.7080247,1633.4043060852,2749472.6621193,36.381458145815,0,0
-144.7194103617,-140.59526446431,31.185888588859,1357927.7080247,1633.4043060852,2749472.6621193,36.385888588859,0,0
-144.71941025456,-140.6096185669,31.190319031903,1357927.7080247,1633.4043060852,2749472.6621193,36.390319031903,0,0
-144.71941014741,-140.62397266949,31.194749474947,1357927.7080247,1633.4043060852,2749472.6621193,36.394749474947,0,0
-144.71941004026,-140.63832677208,31.199179917992,1357927.7080247,1633.4043060852,2749472.6621193,36.399179917992,0,0
-144.71940993311,-140.65268087466,31.203610361036,1357927.7080247,1633.4043060852,2749472.6621193,36.403610361036,0,0
-144.71940982596,-140.66703497725,31.20804080408,1357927.7080247,1633.4043060852,2749472.6621193,36.40804080408,0,0
-144.71940971881,-140.68138907984,31.212471247125,1357927.7080247,1633.4043060852,2749472.6621193,36.412471247125,0,0
-144.71940961167,-140.69574318243,31.216901690169,1357927.7080247,1633.4043060852,2749472.6621193,36.416901690169,0,0
-144.71940950452,-140.71009728502,31.221332133213,1357927.7080247,1633.4043060852,2749472.6621193,36.421332133213,0,0
-144.71940939737,-140.72445138761,31.225762576258,1357927.7080247,1633.4043060852,2749472.6621193,36.425762576258,0,0
-144.71940929022,-140.7388054902,31.230193019302,1357927.7080247,1633.4043060852,2749472.6621193,36.430193019302,0,0
-144.71940918307,-140.75315959279,31.234623462346,1357927.7080247,1633.4043060852,2749472.6621193,36.434623462346,0,0
-144.71940907593,-140.76751369538,31.239053905391,1357927.7080247,1633.4043060852,2749472.6621193,36.439053905391,0,0
-144.71940896878,-140.78186779797,31.243484348435,1357927.7080247,1633.4043060852,2749472.6621193,36.443484348435,0,0
-144.71940886163,-140.79622190056,31.247914791479,1357927.7080247,1633.4043060852,2749472.6621193,36.447914791479,0,0
-144.71940875448,-140.81057600315,31.252345234523,1357927.7080247,1633.4043060852,2749472.6621193,36.452345234523,0,0
-144.71940864733,-140.82493010573,31.256775677568,1357927.7080247,1633.4043060852,2749472.6621193,36.456775677568,0,0
-144.71940854018,-140.83928420832,31.261206120612,1357927.7080247,1633.4043060852,2749472.6621193,36.461206120612,0,0
-144.71940843304,-140.85363831091,31.265636563656,1357927.7080247,1633.4043060852,2749472.6621193,36.465636563656,0,0
-144.71940832589,-140.8679924135,31.270067006701,1357927.7080247,1633.4043060852,2749472.6621193,36.470067006701,0,0
-144.71940821874,-140.88234651609,31.274497449745,1357927.7080247,1633.4043060852,2749472.6621193,36.474497449745,0,0
-144.71940811159,-140.89670061868,31.278927892789,1357927.7080247,1633.4043060852,2749472.6621193,36.478927892789,0,0
-144.71940800444,-140.91105472127,31.283358335834,1357927.7080247,1633.4043060852,2749472.6621193,36.483358335834,0,0
-144.71940789729,-140.92540882386,31.287788778878,1357927.7080247,1633.4043060852,2749472.6621193,36.487788778878,0,0
-144.71940779015,-140.93976292645,31.292219221922,1357927.7080247,1633.4043060852,2749472.6621193,36.492219221922,0,0
-144.71940768297,-140.95411702941,31.296649664966,1356800.932166,-938.16066803355,2744624.0947328,36.496649664966,0,0
-144.71940757578,-140.96847113258,31.301080108011,1356800.932166,-938.16066803355,2744624.0947328,36.501080108011,0,0
-144.7194074686,-140.98282523574,31.305510551055,1356800.932166,-938.16066803355,2744624.0947328,36.505510551055,0,0
-144.71940736141,-140.9971793389,31.309940994099,1356800.932166,-938.16066803355,2744624.0947328,36.509940994099,0,0
-144.71940725422,-141.01153344206,31.314371437144,1356800.932166,-938.16066803355,2744624.0947328,36.514371437144,0,0
-144.71940714703,-141.02588754522,31.318801880188,1356800.932166,-938.16066803355,2744624.0947328,36.518801880188,0,0
-144.71940703985,-141.04024164838,31.323232323232,1356800.932166,-938.16066803355,2744624.0947328,36.523232323232,0,0
-144.71940693266,-141.05459575154,31.327662766277,1356800.932166,-938.16066803355,2744624.0947328,36.527662766277,0,0
-144.71940682547,-141.0689498547,31.332093209321,1356800.932166,-938.16066803355,2744624.0947328,36.532093209321,0,0
-144.71940671828,-141.08330395787,31.336523652365,1356800.932166,-938.16066803355,2744624.0947328,36.536523652365,0,0
-144.7194066111,-141.09765806103,31.34095409541,1356800.932166,-938.16066803355,2744624.0947328,36.54095409541,0,0
-144.71940650391,-141.11201216419,31.345384538454,1356800.932166,-938.16066803355,2744624.0947328,36.545384538454,0,0
-144.71940639672,-141.12636626735,31.349814981498,1356800.932166,-938.16066803355,2744624.0947328,36.549814981498,0,0
-144.71940628954,-141.14072037051,31.354245424542,1356800.932166,-938.16066803355,2744624.0947328,36.554245424542,0,0
-144.71940618235,-141.15507447367,31.358675867587,1356800.932166,-938.16066803355,2744624.0947328,36.558675867587,0,0
-144.71940607516,-141.16942857683,31.363106310631,1356800.932166,-938.16066803355,2744624.0947328,36.563106310631,0,0
-144.71940596797,-141.18378268,31.367536753675,1356800.932166,-938.16066803355,2744624.0947328,36.567536753675,0,0
-144.71940586079,-141.19813678316,31.37196719672,1356800.932166,-938.16066803355,2744624.0947328,36.57196719672,0,0
-144.7194057536,-141.21249088632,31.376397639764,1356800.932166,-938.16066803355,2744624.0947328,36.576397639764,0,0
-144.71940564641,-141.22684498948,31.380828082808,1356800.932166,-938.16066803355,2744624.0947328,36.580828082808,0,0
-144.71940553922,-141.24119909264,31.385258525853,1356800.932166,-938.16066803355,2744624.0947328,36.585258525853,0,0
-144.71940543204,-141.2555531958,31.389688968897,1356800.932166,-938.16066803355,2744624.0947328,36.589688968897,0,0
-144.71940532485,-141.26990729896,31.394119411941,1356800.932166,-938.16066803355,2744624.0947328,36.594119411941,0,0
-144.71940521766,-141.28426140212,31.398549854986,1356800.932166,-938.16066803355,2744624.0947328,36.598549854985,0,0
-144.71940511047,-141.29861550529,31.40298029803,1356800.932166,-938.16066803355,2744624.0947328,36.60298029803,0,0
-144.71940500329,-141.31296960845,31.407410741074,1356800.932166,-938.16066803355,2744624.0947328,36.607410741074,0,0
-144.7194048961,-141.32732371161,31.411841184118,1356800.932166,-938.16066803355,2744624.0947328,36.611841184118,0,0
-144.71940478891,-141.34167781477,31.416271627163,1356800.932166,-938.16066803355,2744624.0947328,36.616271627163,0,0
-144.71940468172,-141.35603191793,31.420702070207,1356800.932166,-938.16066803355,2744624.0947328,36.620702070207,0,0
-144.71940457454,-141.37038602109,31.425132513251,1356800.932166,-938.16066803355,2744624.0947328,36.625132513251,0,0
-144.71940446735,-141.38474012425,31.429562956296,1356800.932166,-938.16066803355,2744624.0947328,36.629562956296,0,0
-144.71940436016,-141.39909422742,31.43399339934,1356800.932166,-938.16066803355,2744624.0947328,36.63399339934,0,0
-144.71940425297,-141.41344833058,31.438423842384,1356800.932166,-938.16066803355,2744624.0947328,36.638423842384,0,0
-144.71940414579,-141.42780243374,31.442854285429,1356800.932166,-938.16066803355,2744624.0947328,36.642854285429,0,0
-144.7194040386,-141.4421565369,31.447284728473,1356800.932166,-938.16066803355,2744624.0947328,36.647284728473,0,0
-144.71940393141,-141.45651064006,31.451715171517,1356800.932166,-938.16066803355,2744624.0947328,36.651715171517,0,0
-144.71940382422,-141.47086474322,31.456145614561,1356800.932166,-938.16066803355,2744624.0947328,36.656145614561,0,0
-144.71940371704,-141.48521884638,31.460576057606,1356800.932166,-938.16066803355,2744624.0947328,36.660576057606,0,0
-144.71940360985,-141.49957294954,31.46500650065,1356800.932166,-938.16066803355,2744624.0947328,36.66500650065,0,0
-144.71940350266,-141.51392705271,31.469436943694,1356800.932166,-938.16066803355,2744624.0947328,36.669436943694,0,0
-144.71940339548,-141.52828115587,31.473867386739,1356800.932166,-938.16066803355,2744624.0947328,36.673867386739,0,0
-144.71940328829,-141.54263525903,31.478297829783,1356800.932166,-938.16066803355,2744624.0947328,36.678297829783,0,0
-144.7194031811,-141.55698936219,31.482728272827,1356800.932166,-938.16066803355,2744624.0947328,36.682728272827,0,0
-144.71940307391,-141.57134346535,31.487158715872,1356800.932166,-938.16066803355,2744624.0947328,36.687158715872,0,0
-144.71940296673,-141.58569756851,31.491589158916,1356800.932166,-938.16066803355,2744624.0947328,36.691589158916,0,0
-144.71940285954,-141.60005167167,31.49601960196,1356800.932166,-938.16066803355,2744624.0947328,36.69601960196,0,0
-144.71940275235,-141.61440577484,31.500450045005,1356800.932166,-938.16066803355,2744624.0947328,36.700450045005,0,0
-144.71940264516,-141.628759878,31.504880488049,1356800.932166,-938.16066803355,2744624.0947328,36.704880488049,0,0
-144.71940253798,-141.64311398116,31.509310931093,1356800.932166,-938.16066803355,2744624.0947328,36.709310931093,0,0
-144.71940243079,-141.65746808432,31.513741374137,1356800.932166,-938.16066803355,2744624.0947328,36.713741374137,0,0
-144.7194023236,-141.67182218748,31.518171817182,1356800.932166,-938.16066803355,2744624.0947328,36.718171817182,0,0
-144.71940221641,-141.68617629064,31.522602260226,1356800.932166,-938.16066803355,2744624.0947328,36.722602260226,0,0
-144.71940210923,-141.7005303938,31.52703270327,1356800.932166,-938.16066803355,2744624.0947328,36.72703270327,0,0
-144.71940200204,-141.71488449696,31.531463146315,1356800.932166,-938.16066803355,2744624.0947328,36.731463146315,0,0
-144.71940189485,-141.72923860013,31.535893589359,1356800.932166,-938.16066803355,2744624.0947328,36.735893589359,0,0
-144.71940178766,-141.74359270329,31.540324032403,1356800.932166,-938.16066803355,2744624.0947328,36.740324032403,0,0
-144.71940168048,-141.75794680645,31.544754475448,1356800.932166,-938.16066803355,2744624.0947328,36.744754475448,0,0
-144.71940157329,-141.77230090961,31.549184918492,1356800.932166,-938.16066803355,2744624.0947328,36.749184918492,0,0
-144.7194014661,-141.78665501277,31.553615361536,1356800.932166,-938.16066803355,2744624.0947328,36.753615361536,0,0
-144.71940135891,-141.80100911593,31.55804580458,1356800.932166,-938.16066803355,2744624.0947328,36.75804580458,0,0
-144.71940125173,-141.81536321909,31.562476247625,1356800.932166,-938.16066803355,2744624.0947328,36.762476247625,0,0
-144.71940114454,-141.82971732226,31.566906690669,1356800.932166,-938.16066803355,2744624.0947328,36.766906690669,0,0
-144.71940103735,-141.84407142542,31.571337133713,1356800.932166,-938.16066803355,2744624.0947328,36.771337133713,0,0
-144.71940093017,-141.85842552858,31.575767576758,1356800.932166,-938.16066803355,2744624.0947328,36.775767576758,0,0
-144.71940082298,-141.87277963174,31.580198019802,1356800.932166,-938.16066803355,2744624.0947328,36.780198019802,0,0
-144.71940071579,-141.8871337349,31.584628462846,1356800.932166,-938.16066803355,2744624.0947328,36.784628462846,0,0
-144.7194006086,-141.90148783806,31.589058905891,1356800.932166,-938.16066803355,2744624.0947328,36.789058905891,0,0
-144.71940050142,-141.91584194122,31.593489348935,1356800.932166,-938.16066803355,2744624.0947328,36.793489348935,0,0
-144.71940039423,-141.93019604438,31.597919791979,1356800.932166,-938.16066803355,2744624.0947328,36.797919791979,0,0
-144.71940028704,-141.94455014755,31.602350235024,1356800.932166,-938.16066803355,2744624.0947328,36.802350235024,0,0
-144.71940017985,-141.95890425071,31.606780678068,1356800.932166,-938.16066803355,2744624.0947328,36.806780678068,0,0
-144.71940007267,-141.97325835387,31.611211121112,1356800.932166,-938.16066803355,2744624.0947328,36.811211121112,0,0
-144.71939996548,-141.98761245703,31.615641564156,1356800.932166,-938.16066803355,2744624.0947328,36.815641564156,0,0
-144.71939985829,-142.00196656019,31.620072007201,1356800.932166,-938.16066803355,2744624.0947328,36.820072007201,0,0
-144.7193997511,-142.01632066335,31.624502450245,1356800.932166,-938.16066803355,2744624.0947328,36.824502450245,0,0
-144.71939964392,-142.03067476651,31.628932893289,1356800.932166,-938.16066803355,2744624.0947328,36.828932893289,0,0
-144.71939953673,-142.04502886968,31.633363336334,1356800.932166,-938.16066803355,2744624.0947328,36.833363336334,0,0
-144.71939942954,-142.05938297284,31.637793779378,1356800.932166,-938.16066803355,2744624.0947328,36.837793779378,0,0
-144.71939932235,-142.073737076,31.642224222422,1356800.932166,-938.16066803355,2744624.0947328,36.842224222422,0,0
-144.71939921517,-142.08809117916,31.646654665467,1356800.932166,-938.16066803355,2744624.0947328,36.846654665467,0,0
-144.71939910798,-142.10244528232,31.651085108511,1356800.932166,-938.16066803355,2744624.0947328,36.851085108511,0,0
-144.71939900079,-142.11679938548,31.655515551555,1356800.932166,-938.16066803355,2744624.0947328,36.855515551555,0,0
-144.7193988936,-142.13115348864,31.659945994599,1356800.932166,-938.16066803355,2744624.0947328,36.859945994599,0,0
-144.71939878642,-142.1455075918,31.664376437644,1356800.932166,-938.16066803355,2744624.0947328,36.864376437644,0,0
-144.71939867923,-142.15986169497,31.668806880688,1356800.932166,-938.16066803355,2744624.0947328,36.868806880688,0,0
-144.71939857204,-142.17421579813,31.673237323732,1356800.932166,-938.16066803355,2744624.0947328,36.873237323732,0,0
-144.71939846485,-142.18856990129,31.677667766777,1356800.932166,-938.16066803355,2744624.0947328,36.877667766777,0,0
-144.71939835767,-142.20292400445,31.682098209821,1356800.932166,-938.16066803355,2744624.0947328,36.882098209821,0,0
-144.71939825048,-142.21727810761,31.686528652865,1356800.932166,-938.16066803355,2744624.0947328,36.886528652865,0,0
-144.71939814329,-142.23163221077,31.69095909591,1356800.932166,-938.16066803355,2744624.0947328,36.89095909591,0,0
-144.71939803611,-142.24598631393,31.695389538954,1356800.932166,-938.16066803355,2744624.0947328,36.895389538954,0,0
-144.71939792892,-142.2603404171,31.699819981998,1356800.932166,-938.16066803355,2744624.0947328,36.899819981998,0,0
-144.71939782173,-142.27469452026,31.704250425043,1356800.932166,-938.16066803355,2744624.0947328,36.904250425043,0,0
-144.71939771454,-142.28904862342,31.708680868087,1356800.932166,-938.16066803355,2744624.0947328,36.908680868087,0,0
-144.71939760736,-142.30340272658,31.713111311131,1356800.932166,-938.16066803355,2744624.0947328,36.913111311131,0,0
-144.71939750017,-142.31775682974,31.717541754175,1356800.932166,-938.16066803355,2744624.0947328,36.917541754175,0,0
-144.71939739298,-142.3321109329,31.72197219722,1356800.932166,-938.16066803355,2744624.0947328,36.92197219722,0,0
-144.71939728579,-142.34646503606,31.726402640264,1356800.932166,-938.16066803355,2744624.0947328,36.926402640264,0,0
-144.71939717861,-142.36081913922,31.730833083308,1356800.932166,-938.16066803355,2744624.0947328,36.930833083308,0,0
-144.71939707142,-142.37517324239,31.735263526353,1356800.932166,-938.16066803355,2744624.0947328,36.935263526353,0,0
-144.71939696423,-142.38952734555,31.739693969397,1356800.932166,-938.16066803355,2744624.0947328,36.939693969397,0,0
-144.71939685704,-142.40388144871,31.744124412441,1356800.932166,-938.16066803355,2744624.0947328,36.944124412441,0,0
-144.71939674986,-142.41823555187,31.748554855486,1356800.932166,-938.16066803355,2744624.0947328,36.948554855486,0,0
-144.71939664267,-142.43258965503,31.75298529853,1356800.932166,-938.16066803355,2744624.0947328,36.95298529853,0,0
-144.71939653548,-142.44694375819,31.757415741574,1356800.932166,-938.16066803355,2744624.0947328,36.957415741574,0,0
-144.71939642829,-142.46129786135,31.761846184618,1356800.932166,-938.16066803355,2744624.0947328,36.961846184618,0,0
-144.71939632111,-142.47565196452,31.766276627663,1356800.932166,-938.16066803355,2744624.0947328,36.966276627663,0,0
-144.71939621392,-142.49000606768,31.770707070707,1356800.932166,-938.16066803355,2744624.0947328,36.970707070707,0,0
-144.71939610673,-142.50436017084,31.775137513751,1356800.932166,-938.16066803355,2744624.0947328,36.975137513751,0,0
-144.71939599954,-142.518714274,31.779567956796,1356800.932166,-938.16066803355,2744624.0947328,36.979567956796,0,0
-144.71939589236,-142.53306837716,31.78399839984,1356800.932166,-938.16066803355,2744624.0947328,36.98399839984,0,0
-144.71939578517,-142.54742248032,31.788428842884,1356800.932166,-938.16066803355,2744624.0947328,36.988428842884,0,0
-144.71939567798,-142.56177658348,31.792859285929,1356800.932166,-938.16066803355,2744624.0947328,36.992859285929,0,0
-144.7193955708,-142.57613068664,31.797289728973,1356800.932166,-938.16066803355,2744624.0947328,36.997289728973,0,0
-144.71939546361,-142.59048478981,31.801720172017,1356800.932166,-938.16066803355,2744624.0947328,37.001720172017,0,0
-144.71939535642,-142.60483889297,31.806150615062,1356800.932166,-938.16066803355,2744624.0947328,37.006150615062,0,0
-144.71939524923,-142.61919299613,31.810581058106,1356800.932166,-938.16066803355,2744624.0947328,37.010581058106,0,0
-144.71939514205,-142.63354709929,31.81501150115,1356800.932166,-938.16066803355,2744624.0947328,37.01501150115,0,0
-144.71939503486,-142.64790120245,31.819441944194,1356800.932166,-938.16066803355,2744624.0947328,37.019441944194,0,0
-144.71939492767,-142.66225530561,31.823872387239,1356800.932166,-938.16066803355,2744624.0947328,37.023872387239,0,0
-144.71939482048,-142.67660940877,31.828302830283,1356800.932166,-938.16066803355,2744624.0947328,37.028302830283,0,0
-144.7193947133,-142.69096351194,31.832733273327,1356800.932166,-938.16066803355,2744624.0947328,37.032733273327,0,0
-144.71939460611,-142.7053176151,31.837163716372,1356800.932166,-938.16066803355,2744624.0947328,37.037163716372,0,0
-144.71939449892,-142.71967171826,31.841594159416,1356800.932166,-938.16066803355,2744624.0947328,37.041594159416,0,0
-144.71939439173,-142.73402582142,31.84602460246,1356800.932166,-938.16066803355,2744624.0947328,37.04602460246,0,0
-144.71939428455,-142.74837992458,31.850455045505,1356800.932166,-938.16066803355,2744624.0947328,37.050455045505,0,0
-144.71939417736,-142.76273402774,31.854885488549,1356800.932166,-938.16066803355,2744624.0947328,37.054885488549,0,0
-144.71939407017,-142.7770881309,31.859315931593,1356800.932166,-938.16066803355,2744624.0947328,37.059315931593,0,0
-144.71939396298,-142.79144223406,31.863746374637,1356800.932166,-938.16066803355,2744624.0947328,37.063746374637,0,0
-144.7193938558,-142.80579633723,31.868176817682,1356800.932166,-938.16066803355,2744624.0947328,37.068176817682,0,0
-144.71939374861,-142.82015044039,31.872607260726,1356800.932166,-938.16066803355,2744624.0947328,37.072607260726,0,0
-144.71939364142,-142.83450454355,31.87703770377,1356800.932166,-938.16066803355,2744624.0947328,37.07703770377,0,0
-144.71939353423,-142.84885864671,31.881468146815,1356800.932166,-938.16066803355,2744624.0947328,37.081468146815,0,0
-144.71939342705,-142.86321274987,31.885898589859,1356800.932166,-938.16066803355,2744624.0947328,37.085898589859,0,0
-144.71939331986,-142.87756685303,31.890329032903,1356800.932166,-938.16066803355,2744624.0947328,37.090329032903,0,0
-144.71939321267,-142.89192095619,31.894759475948,1356800.932166,-938.16066803355,2744624.0947328,37.094759475948,0,0
-144.71939310549,-142.90627505936,31.899189918992,1356800.932166,-938.16066803355,2744624.0947328,37.099189918992,0,0
-144.7193929983,-142.92062916252,31.903620362036,1356800.932166,-938.16066803355,2744624.0947328,37.103620362036,0,0
-144.71939289111,-142.93498326568,31.908050805081,1356800.932166,-938.16066803355,2744624.0947328,37.108050805081,0,0
-144.71939278392,-142.94933736884,31.912481248125,1356800.932166,-938.16066803355,2744624.0947328,37.112481248125,0,0
-144.71939267674,-142.963691472,31.916911691169,1356800.932166,-938.16066803355,2744624.0947328,37.116911691169,0,0
-144.71939256955,-142.97804557516,31.921342134213,1356800.932166,-938.16066803355,2744624.0947328,37.121342134213,0,0
-144.71939246236,-142.99239967832,31.925772577258,1356800.932166,-938.16066803355,2744624.0947328,37.125772577258,0,0
-144.71939235517,-143.00675378148,31.930203020302,1356800.932166,-938.16066803355,2744624.0947328,37.130203020302,0,0
-144.71939224799,-143.02110788465,31.934633463346,1356800.932166,-938.16066803355,2744624.0947328,37.134633463346,0,0
-144.7193921408,-143.03546198781,31.939063906391,1356800.932166,-938.16066803355,2744624.0947328,37.139063906391,0,0
-144.71939203361,-143.04981609097,31.943494349435,1356800.932166,-938.16066803355,2744624.0947328,37.143494349435,0,0
-144.7193919264,-143.06417019381,31.947924792479,1355849.4448625,1710.6609697294,2740510.0072564,37.147924792479,0,0
-144.71939181918,-143.07852429639,31.952355235524,1355849.4448625,1710.6609697294,2740510.0072564,37.152355235524,0,0
-144.71939171196,-143.09287839897,31.956785678568,1355849.4448625,1710.6609697294,2740510.0072564,37.156785678568,0,0
-144.71939160474,-143.10723250154,31.961216121612,1355849.4448625,1710.6609697294,2740510.0072564,37.161216121612,0,0
-144.71939149752,-143.12158660412,31.965646564656,1355849.4448625,1710.6609697294,2740510.0072564,37.165646564656,0,0
-144.7193913903,-143.1359407067,31.970077007701,1355849.4448625,1710.6609697294,2740510.0072564,37.170077007701,0,0
-144.71939128308,-143.15029480928,31.974507450745,1355849.4448625,1710.6609697294,2740510.0072564,37.174507450745,0,0
-144.71939117586,-143.16464891186,31.978937893789,1355849.4448625,1710.6609697294,2740510.0072564,37.178937893789,0,0
-144.71939106864,-143.17900301444,31.983368336834,1355849.4448625,1710.6609697294,2740510.0072564,37.183368336834,0,0
-144.71939096142,-143.19335711702,31.987798779878,1355849.4448625,1710.6609697294,2740510.0072564,37.187798779878,0,0
-144.7193908542,-143.2077112196,31.992229222922,1355849.4448625,1710.6609697294,2740510.0072564,37.192229222922,0,0
-144.71939074697,-143.22206532218,31.996659665967,1355849.4448625,1710.6609697294,2740510.0072564,37.196659665967,0,0
-144.71939063975,-143.23641942476,32.001090109011,1355849.4448625,1710.6609697294,2740510.0072564,37.201090109011,0,0
-144.71939053253,-143.25077352734,32.005520552055,1355849.4448625,1710.6609697294,2740510.0072564,37.205520552055,0,0
-144.71939042531,-143.26512762992,32.0099509951,1355849.4448625,1710.6609697294,2740510.0072564,37.2099509951,0,0
-144.71939031809,-143.2794817325,32.014381438144,1355849.4448625,1710.6609697294,2740510.0072564,37.214381438144,0,0
-144.71939021087,-143.29383583508,32.018811881188,1355849.4448625,1710.6609697294,2740510.0072564,37.218811881188,0,0
-144.71939010365,-143.30818993766,32.023242324232,1355849.4448625,1710.6609697294,2740510.0072564,37.223242324232,0,0
-144.71938999643,-143.32254404024,32.027672767277,1355849.4448625,1710.6609697294,2740510.0072564,37.227672767277,0,0
-144.71938988921,-143.33689814282,32.032103210321,1355849.4448625,1710.6609697294,2740510.0072564,37.232103210321,0,0
-144.71938978199,-143.3512522454,32.036533653365,1355849.4448625,1710.6609697294,2740510.0072564,37.236533653365,0,0
-144.71938967477,-143.36560634798,32.04096409641,1355849.4448625,1710.6609697294,2740510.0072564,37.24096409641,0,0
-144.71938956754,-143.37996045056,32.045394539454,1355849.4448625,1710.6609697294,2740510.0072564,37.245394539454,0,0
-144.71938946032,-143.39431455314,32.049824982498,1355849.4448625,1710.6609697294,2740510.0072564,37.249824982498,0,0
-144.7193893531,-143.40866865572,32.054255425543,1355849.4448625,1710.6609697294,2740510.0072564,37.254255425543,0,0
-144.71938924588,-143.4230227583,32.058685868587,1355849.4448625,1710.6609697294,2740510.0072564,37.258685868587,0,0
-144.71938913866,-143.43737686088,32.063116311631,1355849.4448625,1710.6609697294,2740510.0072564,37.263116311631,0,0
-144.71938903144,-143.45173096346,32.067546754675,1355849.4448625,1710.6609697294,2740510.0072564,37.267546754675,0,0
-144.71938892422,-143.46608506604,32.07197719772,1355849.4448625,1710.6609697294,2740510.0072564,37.27197719772,0,0
-144.719388817,-143.48043916862,32.076407640764,1355849.4448625,1710.6609697294,2740510.0072564,37.276407640764,0,0
-144.71938870978,-143.4947932712,32.080838083808,1355849.4448625,1710.6609697294,2740510.0072564,37.280838083808,0,0
-144.71938860256,-143.50914737377,32.085268526853,1355849.4448625,1710.6609697294,2740510.0072564,37.285268526853,0,0
-144.71938849533,-143.52350147635,32.089698969897,1355849.4448625,1710.6609697294,2740510.0072564,37.289698969897,0,0
-144.71938838811,-143.53785557893,32.094129412941,1355849.4448625,1710.6609697294,2740510.0072564,37.294129412941,0,0
-144.71938828089,-143.55220968151,32.098559855986,1355849.4448625,1710.6609697294,2740510.0072564,37.298559855986,0,0
-144.71938817367,-143.56656378409,32.10299029903,1355849.4448625,1710.6609697294,2740510.0072564,37.30299029903,0,0
-144.71938806645,-143.58091788667,32.107420742074,1355849.4448625,1710.6609697294,2740510.0072564,37.307420742074,0,0
-144.71938795923,-143.59527198925,32.111851185119,1355849.4448625,1710.6609697294,2740510.0072564,37.311851185119,0,0
-144.71938785201,-143.60962609183,32.116281628163,1355849.4448625,1710.6609697294,2740510.0072564,37.316281628163,0,0
-144.71938774479,-143.62398019441,32.120712071207,1355849.4448625,1710.6609697294,2740510.0072564,37.320712071207,0,0
-144.71938763757,-143.63833429699,32.125142514251,1355849.4448625,1710.6609697294,2740510.0072564,37.325142514251,0,0
-144.71938753035,-143.65268839957,32.129572957296,1355849.4448625,1710.6609697294,2740510.0072564,37.329572957296,0,0
-144.71938742313,-143.66704250215,32.13400340034,1355849.4448625,1710.6609697294,2740510.0072564,37.33400340034,0,0
-144.7193873159,-143.68139660473,32.138433843384,1355849.4448625,1710.6609697294,2740510.0072564,37.338433843384,0,0
-144.71938720868,-143.69575070731,32.142864286429,1355849.4448625,1710.6609697294,2740510.0072564,37.342864286429,0,0
-144.71938710146,-143.71010480989,32.147294729473,1355849.4448625,1710.6609697294,2740510.0072564,37.347294729473,0,0
-144.71938699424,-143.72445891247,32.151725172517,1355849.4448625,1710.6609697294,2740510.0072564,37.351725172517,0,0
-144.71938688702,-143.73881301505,32.156155615562,1355849.4448625,1710.6609697294,2740510.0072564,37.356155615562,0,0
-144.7193867798,-143.75316711763,32.160586058606,1355849.4448625,1710.6609697294,2740510.0072564,37.360586058606,0,0
-144.71938667258,-143.76752122021,32.16501650165,1355849.4448625,1710.6609697294,2740510.0072564,37.36501650165,0,0
-144.71938656536,-143.78187532279,32.169446944694,1355849.4448625,1710.6609697294,2740510.0072564,37.369446944694,0,0
-144.71938645814,-143.79622942537,32.173877387739,1355849.4448625,1710.6609697294,2740510.0072564,37.373877387739,0,0
-144.71938635092,-143.81058352795,32.178307830783,1355849.4448625,1710.6609697294,2740510.0072564,37.378307830783,0,0
-144.7193862437,-143.82493763053,32.182738273827,1355849.4448625,1710.6609697294,2740510.0072564,37.382738273827,0,0
-144.71938613647,-143.83929173311,32.187168716872,1355849.4448625,1710.6609697294,2740510.0072564,37.387168716872,0,0
-144.71938602925,-143.85364583569,32.191599159916,1355849.4448625,1710.6609697294,2740510.0072564,37.391599159916,0,0
-144.71938592203,-143.86799993827,32.19602960296,1355849.4448625,1710.6609697294,2740510.0072564,37.39602960296,0,0
-144.71938581481,-143.88235404085,32.200460046005,1355849.4448625,1710.6609697294,2740510.0072564,37.400460046005,0,0
-144.71938570759,-143.89670814343,32.204890489049,1355849.4448625,1710.6609697294,2740510.0072564,37.404890489049,0,0
-144.71938560037,-143.911062246,32.209320932093,1355849.4448625,1710.6609697294,2740510.0072564,37.409320932093,0,0
-144.71938549315,-143.92541634858,32.213751375138,1355849.4448625,1710.6609697294,2740510.0072564,37.413751375138,0,0
-144.71938538593,-143.93977045116,32.218181818182,1355849.4448625,1710.6609697294,2740510.0072564,37.418181818182,0,0
-144.71938527871,-143.95412455374,32.222612261226,1355849.4448625,1710.6609697294,2740510.0072564,37.422612261226,0,0
-144.71938517149,-143.96847865632,32.22704270427,1355849.4448625,1710.6609697294,2740510.0072564,37.42704270427,0,0
-144.71938506426,-143.9828327589,32.231473147315,1355849.4448625,1710.6609697294,2740510.0072564,37.431473147315,0,0
-144.71938495704,-143.99718686148,32.235903590359,1355849.4448625,1710.6609697294,2740510.0072564,37.435903590359,0,0
-144.71938484982,-144.01154096406,32.240334033403,1355849.4448625,1710.6609697294,2740510.0072564,37.440334033403,0,0
-144.7193847426,-144.02589506664,32.244764476448,1355849.4448625,1710.6609697294,2740510.0072564,37.444764476448,0,0
-144.71938463538,-144.04024916922,32.249194919492,1355849.4448625,1710.6609697294,2740510.0072564,37.449194919492,0,0
-144.71938452816,-144.0546032718,32.253625362536,1355849.4448625,1710.6609697294,2740510.0072564,37.453625362536,0,0
-144.71938442094,-144.06895737438,32.258055805581,1355849.4448625,1710.6609697294,2740510.0072564,37.458055805581,0,0
-144.71938431372,-144.08331147696,32.262486248625,1355849.4448625,1710.6609697294,2740510.0072564,37.462486248625,0,0
-144.7193842065,-144.09766557954,32.266916691669,1355849.4448625,1710.6609697294,2740510.0072564,37.466916691669,0,0
-144.71938409928,-144.11201968212,32.271347134713,1355849.4448625,1710.6609697294,2740510.0072564,37.471347134713,0,0
-144.71938399206,-144.1263737847,32.275777577758,1355849.4448625,1710.6609697294,2740510.0072564,37.475777577758,0,0
-144.71938388483,-144.14072788728,32.280208020802,1355849.4448625,1710.6609697294,2740510.0072564,37.480208020802,0,0
-144.71938377761,-144.15508198986,32.284638463846,1355849.4448625,1710.6609697294,2740510.0072564,37.484638463846,0,0
-144.71938367039,-144.16943609244,32.289068906891,1355849.4448625,1710.6609697294,2740510.0072564,37.489068906891,0,0
-144.71938356317,-144.18379019502,32.293499349935,1355849.4448625,1710.6609697294,2740510.0072564,37.493499349935,0,0
-144.71938345595,-144.1981442976,32.297929792979,1355849.4448625,1710.6609697294,2740510.0072564,37.497929792979,0,0
-144.71938334873,-144.21249840018,32.302360236024,1355849.4448625,1710.6609697294,2740510.0072564,37.502360236024,0,0
-144.71938324151,-144.22685250276,32.306790679068,1355849.4448625,1710.6609697294,2740510.0072564,37.506790679068,0,0
-144.71938313429,-144.24120660534,32.311221122112,1355849.4448625,1710.6609697294,2740510.0072564,37.511221122112,0,0
-144.71938302707,-144.25556070792,32.315651565157,1355849.4448625,1710.6609697294,2740510.0072564,37.515651565157,0,0
-144.71938291985,-144.2699148105,32.320082008201,1355849.4448625,1710.6609697294,2740510.0072564,37.520082008201,0,0
-144.71938281263,-144.28426891308,32.324512451245,1355849.4448625,1710.6609697294,2740510.0072564,37.524512451245,0,0
-144.7193827054,-144.29862301566,32.328942894289,1355849.4448625,1710.6609697294,2740510.0072564,37.528942894289,0,0
-144.71938259818,-144.31297711823,32.333373337334,1355849.4448625,1710.6609697294,2740510.0072564,37.533373337334,0,0
-144.71938249096,-144.32733122081,32.337803780378,1355849.4448625,1710.6609697294,2740510.0072564,37.537803780378,0,0
-144.71938238374,-144.34168532339,32.342234223422,1355849.4448625,1710.6609697294,2740510.0072564,37.542234223422,0,0
-144.71938227652,-144.35603942597,32.346664666467,1355849.4448625,1710.6609697294,2740510.0072564,37.546664666467,0,0
-144.7193821693,-144.37039352855,32.351095109511,1355849.4448625,1710.6609697294,2740510.0072564,37.551095109511,0,0
-144.71938206208,-144.38474763113,32.355525552555,1355849.4448625,1710.6609697294,2740510.0072564,37.555525552555,0,0
-144.71938195486,-144.39910173371,32.3599559956,1355849.4448625,1710.6609697294,2740510.0072564,37.5599559956,0,0
-144.71938184764,-144.41345583629,32.364386438644,1355849.4448625,1710.6609697294,2740510.0072564,37.564386438644,0,0
-144.71938174042,-144.42780993887,32.368816881688,1355849.4448625,1710.6609697294,2740510.0072564,37.568816881688,0,0
-144.71938163319,-144.44216404145,32.373247324732,1355849.4448625,1710.6609697294,2740510.0072564,37.573247324732,0,0
-144.71938152597,-144.45651814403,32.377677767777,1355849.4448625,1710.6609697294,2740510.0072564,37.577677767777,0,0
-144.71938141875,-144.47087224661,32.382108210821,1355849.4448625,1710.6609697294,2740510.0072564,37.582108210821,0,0
-144.71938131153,-144.48522634919,32.386538653865,1355849.4448625,1710.6609697294,2740510.0072564,37.586538653865,0,0
-144.71938120431,-144.49958045177,32.39096909691,1355849.4448625,1710.6609697294,2740510.0072564,37.59096909691,0,0
-144.71938109709,-144.51393455435,32.395399539954,1355849.4448625,1710.6609697294,2740510.0072564,37.595399539954,0,0
-144.71938098987,-144.52828865693,32.399829982998,1355849.4448625,1710.6609697294,2740510.0072564,37.599829982998,0,0
-144.71938088265,-144.54264275951,32.404260426043,1355849.4448625,1710.6609697294,2740510.0072564,37.604260426043,0,0
-144.71938077543,-144.55699686209,32.408690869087,1355849.4448625,1710.6609697294,2740510.0072564,37.608690869087,0,0
-144.71938066821,-144.57135096467,32.413121312131,1355849.4448625,1710.6609697294,2740510.0072564,37.613121312131,0,0
-144.71938056099,-144.58570506725,32.417551755176,1355849.4448625,1710.6609697294,2740510.0072564,37.617551755176,0,0
-144.71938045376,-144.60005916983,32.42198219822,1355849.4448625,1710.6609697294,2740510.0072564,37.62198219822,0,0
-144.71938034654,-144.61441327241,32.426412641264,1355849.4448625,1710.6609697294,2740510.0072564,37.626412641264,0,0
-144.71938023932,-144.62876737499,32.430843084308,1355849.4448625,1710.6609697294,2740510.0072564,37.630843084308,0,0
-144.7193801321,-144.64312147757,32.435273527353,1355849.4448625,1710.6609697294,2740510.0072564,37.635273527353,0,0
-144.71938002488,-144.65747558015,32.439703970397,1355849.4448625,1710.6609697294,2740510.0072564,37.639703970397,0,0
-144.71937991766,-144.67182968273,32.444134413441,1355849.4448625,1710.6609697294,2740510.0072564,37.644134413441,0,0
-144.71937981044,-144.68618378531,32.448564856486,1355849.4448625,1710.6609697294,2740510.0072564,37.648564856486,0,0
-144.71937970322,-144.70053788789,32.45299529953,1355849.4448625,1710.6609697294,2740510.0072564,37.65299529953,0,0
-144.719379596,-144.71489199046,32.457425742574,1355849.4448625,1710.6609697294,2740510.0072564,37.657425742574,0,0
-144.71937948878,-144.72924609304,32.461856185619,1355849.4448625,1710.6609697294,2740510.0072564,37.661856185619,0,0
-144.71937938156,-144.74360019562,32.466286628663,1355849.4448625,1710.6609697294,2740510.0072564,37.666286628663,0,0
-144.71937927433,-144.7579542982,32.470717071707,1355849.4448625,1710.6609697294,2740510.0072564,37.670717071707,0,0
-144.71937916711,-144.77230840078,32.475147514751,1355849.4448625,1710.6609697294,2740510.0072564,37.675147514751,0,0
-144.71937905989,-144.78666250336,32.479577957796,1355849.4448625,1710.6609697294,2740510.0072564,37.679577957796,0,0
-144.71937895267,-144.80101660594,32.48400840084,1355849.4448625,1710.6609697294,2740510.0072564,37.68400840084,0,0
-144.71937884545,-144.81537070852,32.488438843884,1355849.4448625,1710.6609697294,2740510.0072564,37.688438843884,0,0
-144.71937873823,-144.8297248111,32.492869286929,1355849.4448625,1710.6609697294,2740510.0072564,37.692869286929,0,0
-144.71937863101,-144.84407891368,32.497299729973,1355849.4448625,1710.6609697294,2740510.0072564,37.697299729973,0,0
-144.71937852379,-144.85843301626,32.501730173017,1355849.4448625,1710.6609697294,2740510.0072564,37.701730173017,0,0
-144.71937841657,-144.87278711884,32.506160616062,1355849.4448625,1710.6609697294,2740510.0072564,37.706160616062,0,0
-144.71937830935,-144.88714122142,32.510591059106,1355849.4448625,1710.6609697294,2740510.0072564,37.710591059106,0,0
-144.71937820212,-144.901495324,32.51502150215,1355849.4448625,1710.6609697294,2740510.0072564,37.71502150215,0,0
-144.7193780949,-144.91584942658,32.519451945195,1355849.4448625,1710.6609697294,2740510.0072564,37.719451945195,0,0
-144.71937798768,-144.93020352916,32.523882388239,1355849.4448625,1710.6609697294,2740510.0072564,37.723882388239,0,0
-144.71937788046,-144.94455763174,32.528312831283,1355849.4448625,1710.6609697294,2740510.0072564,37.728312831283,0,0
-144.71937777324,-144.95891173432,32.532743274327,1355849.4448625,1710.6609697294,2740510.0072564,37.732743274327,0,0
-144.71937766602,-144.9732658369,32.537173717372,1355849.4448625,1710.6609697294,2740510.0072564,37.737173717372,0,0
-144.7193775588,-144.98761993948,32.541604160416,1355849.4448625,1710.6609697294,2740510.0072564,37.741604160416,0,0
-144.71937745158,-145.00197404206,32.54603460346,1355849.4448625,1710.6609697294,2740510.0072564,37.74603460346,0,0
-144.71937734436,-145.01632814464,32.550465046505,1355849.4448625,1710.6609697294,2740510.0072564,37.750465046505,0,0
-144.71937723714,-145.03068224722,32.554895489549,1355849.4448625,1710.6609697294,2740510.0072564,37.754895489549,0,0
-144.71937712992,-145.0450363498,32.559325932593,1355849.4448625,1710.6609697294,2740510.0072564,37.759325932593,0,0
-144.71937702269,-145.05939045238,32.563756375638,1355849.4448625,1710.6609697294,2740510.0072564,37.763756375638,0,0
-144.71937691547,-145.07374455496,32.568186818682,1355849.4448625,1710.6609697294,2740510.0072564,37.768186818682,0,0
-144.71937680825,-145.08809865754,32.572617261726,1355849.4448625,1710.6609697294,2740510.0072564,37.772617261726,0,0
-144.71937670103,-145.10245276012,32.57704770477,1355849.4448625,1710.6609697294,2740510.0072564,37.77704770477,0,0
-144.71937659381,-145.11680686269,32.581478147815,1355849.4448625,1710.6609697294,2740510.0072564,37.781478147815,0,0
-144.71937648659,-145.13116096527,32.585908590859,1355849.4448625,1710.6609697294,2740510.0072564,37.785908590859,0,0
-144.71937637937,-145.14551506785,32.590339033903,1355849.4448625,1710.6609697294,2740510.0072564,37.790339033903,0,0
-144.71937627215,-145.15986917043,32.594769476948,1355849.4448625,1710.6609697294,2740510.0072564,37.794769476948,0,0
-144.71937616493,-145.17422327301,32.599199919992,1355849.4448625,1710.6609697294,2740510.0072564,37.799199919992,0,0
-144.71937605771,-145.18857737559,32.603630363036,1355849.4448625,1710.6609697294,2740510.0072564,37.803630363036,0,0
-144.71937595049,-145.20293147817,32.608060806081,1355849.4448625,1710.6609697294,2740510.0072564,37.808060806081,0,0
-144.71937584326,-145.21728558075,32.612491249125,1355849.4448625,1710.6609697294,2740510.0072564,37.812491249125,0,0
-144.71937573604,-145.23163968333,32.616921692169,1355849.4448625,1710.6609697294,2740510.0072564,37.816921692169,0,0
-144.71937562882,-145.24599378591,32.621352135214,1355849.4448625,1710.6609697294,2740510.0072564,37.821352135214,0,0
-144.7193755216,-145.26034788849,32.625782578258,1355849.4448625,1710.6609697294,2740510.0072564,37.825782578258,0,0
-144.71937541438,-145.27470199107,32.630213021302,1355849.4448625,1710.6609697294,2740510.0072564,37.830213021302,0,0
-144.71937530716,-145.28905609365,32.634643464346,1355849.4448625,1710.6609697294,2740510.0072564,37.834643464346,0,0
-144.71937519994,-145.30341019623,32.639073907391,1355849.4448625,1710.6609697294,2740510.0072564,37.839073907391,0,0
-144.71937509272,-145.31776429881,32.643504350435,1355849.4448625,1710.6609697294,2740510.0072564,37.843504350435,0,0
-144.7193749855,-145.33211840139,32.647934793479,1355849.4448625,1710.6609697294,2740510.0072564,37.847934793479,0,0
-144.71937487828,-145.34647250397,32.652365236524,1355849.4448625,1710.6609697294,2740510.0072564,37.852365236524,0,0
-144.71937477105,-145.36082660655,32.656795679568,1355849.4448625,1710.6609697294,2740510.0072564,37.856795679568,0,0
-144.71937466383,-145.37518070913,32.661226122612,1355849.4448625,1710.6609697294,2740510.0072564,37.861226122612,0,0
-144.71937455661,-145.38953481171,32.665656565657,1355849.4448625,1710.6609697294,2740510.0072564,37.865656565657,0,0
-144.71937444939,-145.40388891429,32.670087008701,1355849.4448625,1710.6609697294,2740510.0072564,37.870087008701,0,0
-144.71937434217,-145.41824301687,32.674517451745,1355849.4448625,1710.6609697294,2740510.0072564,37.874517451745,0,0
-144.71937423495,-145.43259711945,32.678947894789,1355849.4448625,1710.6609697294,2740510.0072564,37.878947894789,0,0
-144.71937412773,-145.44695122203,32.683378337834,1355849.4448625,1710.6609697294,2740510.0072564,37.883378337834,0,0
-144.71937402051,-145.46130532461,32.687808780878,1355849.4448625,1710.6609697294,2740510.0072564,37.887808780878,0,0
-144.71937391329,-145.47565942719,32.692239223922,1355849.4448625,1710.6609697294,2740510.0072564,37.892239223922,0,0
-144.71937380607,-145.49001352977,32.696669666967,1355849.4448625,1710.6609697294,2740510.0072564,37.896669666967,0,0
-144.71937369885,-145.50436763235,32.701100110011,1355849.4448625,1710.6609697294,2740510.0072564,37.901100110011,0,0
-144.71937359162,-145.51872173492,32.705530553055,1355849.4448625,1710.6609697294,2740510.0072564,37.905530553055,0,0
-144.7193734844,-145.5330758375,32.7099609961,1355849.4448625,1710.6609697294,2740510.0072564,37.9099609961,0,0
-144.71937337718,-145.54742994008,32.714391439144,1355849.4448625,1710.6609697294,2740510.0072564,37.914391439144,0,0
-144.71937326996,-145.56178404266,32.718821882188,1355849.4448625,1710.6609697294,2740510.0072564,37.918821882188,0,0
-144.71937316274,-145.57613814524,32.723252325233,1355849.4448625,1710.6609697294,2740510.0072564,37.923252325233,0,0
-144.71937305552,-145.59049224782,32.727682768277,1355849.4448625,1710.6609697294,2740510.0072564,37.927682768277,0,0
-144.7193729483,-145.6048463504,32.732113211321,1355849.4448625,1710.6609697294,2740510.0072564,37.932113211321,0,0
-144.71937284108,-145.61920045298,32.736543654365,1355849.4448625,1710.6609697294,2740510.0072564,37.936543654365,0,0
-144.71937273386,-145.63355455556,32.74097409741,1355849.4448625,1710.6609697294,2740510.0072564,37.94097409741,0,0
-144.71937262664,-145.64790865814,32.745404540454,1355849.4448625,1710.6609697294,2740510.0072564,37.945404540454,0,0
-144.71937251942,-145.66226276072,32.749834983498,1355849.4448625,1710.6609697294,2740510.0072564,37.949834983498,0,0
-144.71937241219,-145.6766168633,32.754265426543,1355849.4448625,1710.6609697294,2740510.0072564,37.954265426543,0,0
-144.71937230497,-145.69097096588,32.758695869587,1355849.4448625,1710.6609697294,2740510.0072564,37.958695869587,0,0
-144.71937219775,-145.70532506846,32.763126312631,1355849.4448625,1710.6609697294,2740510.0072564,37.963126312631,0,0
-144.71937209053,-145.71967917104,32.767556755676,1355849.4448625,1710.6609697294,2740510.0072564,37.967556755676,0,0
-144.71937198331,-145.73403327362,32.77198719872,1355849.4448625,1710.6609697294,2740510.0072564,37.97198719872,0,0
-144.71937187609,-145.7483873762,32.776417641764,1355849.4448625,1710.6609697294,2740510.0072564,37.976417641764,0,0
-144.71937176887,-145.76274147878,32.780848084808,1355849.4448625,1710.6609697294,2740510.0072564,37.980848084808,0,0
-144.71937166165,-145.77709558136,32.785278527853,1355849.4448625,1710.6609697294,2740510.0072564,37.985278527853,0,0
-144.71937155443,-145.79144968394,32.789708970897,1355849.4448625,1710.6609697294,2740510.0072564,37.989708970897,0,0
-144.71937144721,-145.80580378652,32.794139413941,1355849.4448625,1710.6609697294,2740510.0072564,37.994139413941,0,0
-144.71937133999,-145.8201578891,32.798569856986,1355849.4448625,1710.6609697294,2740510.0072564,37.998569856986,0,0
-144.71937123276,-145.83451199168,32.80300030003,1355849.4448625,1710.6609697294,2740510.0072564,38.00300030003,0,0
-144.71937112554,-145.84886609426,32.807430743074,1355849.4448625,1710.6609697294,2740510.0072564,38.007430743074,0,0
-144.71937101832,-145.86322019684,32.811861186119,1355849.4448625,1710.6609697294,2740510.0072564,38.011861186119,0,0
-144.7193709111,-145.87757429942,32.816291629163,1355849.4448625,1710.6609697294,2740510.0072564,38.016291629163,0,0
-144.71937080388,-145.891928402,32.820722072207,1355849.4448625,1710.6609697294,2740510.0072564,38.020722072207,0,0
-144.71937069666,-145.90628250458,32.825152515252,1355849.4448625,1710.6609697294,2740510.0072564,38.025152515252,0,0
-144.71937058944,-145.92063660715,32.829582958296,1355849.4448625,1710.6609697294,2740510.0072564,38.029582958296,0,0
-144.71937048222,-145.93499070973,32.83401340134,1355849.4448625,1710.6609697294,2740510.0072564,38.03401340134,0,0
-144.719370375,-145.94934481231,32.838443844384,1355849.4448625,1710.6609697294,2740510.0072564,38.038443844384,0,0
-144.71937026778,-145.96369891489,32.842874287429,1355849.4448625,1710.6609697294,2740510.0072564,38.042874287429,0,0
-144.71937016055,-145.97805301747,32.847304730473,1355849.4448625,1710.6609697294,2740510.0072564,38.047304730473,0,0
-144.71937005333,-145.99240712005,32.851735173517,1355849.4448625,1710.6609697294,2740510.0072564,38.051735173517,0,0
-144.71936994611,-146.00676122263,32.856165616562,1355849.4448625,1710.6609697294,2740510.0072564,38.056165616562,0,0
-144.71936983889,-146.02111532521,32.860596059606,1355849.4448625,1710.6609697294,2740510.0072564,38.060596059606,0,0
-144.71936973167,-146.03546942779,32.86502650265,1355849.4448625,1710.6609697294,2740510.0072564,38.06502650265,0,0
-144.71936962445,-146.04982353037,32.869456945695,1355849.4448625,1710.6609697294,2740510.0072564,38.069456945695,0,0
-144.71936951723,-146.06417763295,32.873887388739,1355849.4448625,1710.6609697294,2740510.0072564,38.073887388739,0,0
-144.71936941001,-146.07853173553,32.878317831783,1355849.4448625,1710.6609697294,2740510.0072564,38.078317831783,0,0
-144.71936930279,-146.09288583811,32.882748274827,1355849.4448625,1710.6609697294,2740510.0072564,38.082748274827,0,0
-144.71936919557,-146.10723994069,32.887178717872,1355849.4448625,1710.6609697294,2740510.0072564,38.087178717872,0,0
-144.71936908835,-146.12159404327,32.891609160916,1355849.4448625,1710.6609697294,2740510.0072564,38.091609160916,0,0
-144.71936898112,-146.13594814585,32.89603960396,1355849.4448625,1710.6609697294,2740510.0072564,38.09603960396,0,0
-144.7193688739,-146.15030224843,32.900470047005,1355849.4448625,1710.6609697294,2740510.0072564,38.100470047005,0,0
-144.71936876668,-146.16465635101,32.904900490049,1355849.4448625,1710.6609697294,2740510.0072564,38.104900490049,0,0
-144.71936865946,-146.17901045359,32.909330933093,1355849.4448625,1710.6609697294,2740510.0072564,38.109330933093,0,0
-144.71936855224,-146.19336455617,32.913761376138,1355849.4448625,1710.6609697294,2740510.0072564,38.113761376138,0,0
-144.71936844502,-146.20771865875,32.918191819182,1355849.4448625,1710.6609697294,2740510.0072564,38.118191819182,0,0
-144.7193683378,-146.22207276133,32.922622262226,1355849.4448625,1710.6609697294,2740510.0072564,38.122622262226,0,0
-144.71936823058,-146.23642686391,32.927052705271,1355849.4448625,1710.6609697294,2740510.0072564,38.127052705271,0,0
-144.71936812336,-146.25078096649,32.931483148315,1355849.4448625,1710.6609697294,2740510.0072564,38.131483148315,0,0
-144.71936801614,-146.26513506907,32.935913591359,1355849.4448625,1710.6609697294,2740510.0072564,38.135913591359,0,0
-144.71936790891,-146.27948917165,32.940344034403,1355849.4448625,1710.6609697294,2740510.0072564,38.140344034403,0,0
-144.71936780169,-146.29384327423,32.944774477448,1355849.4448625,1710.6609697294,2740510.0072564,38.144774477448,0,0
-144.71936769447,-146.30819737681,32.949204920492,1355849.4448625,1710.6609697294,2740510.0072564,38.149204920492,0,0
-144.71936758725,-146.32255147938,32.953635363536,1355849.4448625,1710.6609697294,2740510.0072564,38.153635363536,0,0
-144.71936748003,-146.33690558196,32.958065806581,1355849.4448625,1710.6609697294,2740510.0072564,38.158065806581,0,0
-144.71936737281,-146.35125968454,32.962496249625,1355849.4448625,1710.6609697294,2740510.0072564,38.162496249625,0,0
-144.71936726559,-146.36561378712,32.966926692669,1355849.4448625,1710.6609697294,2740510.0072564,38.166926692669,0,0
-144.71936715837,-146.3799678897,32.971357135714,1355849.4448625,1710.6609697294,2740510.0072564,38.171357135714,0,0
-144.71936705115,-146.39432199228,32.975787578758,1355849.4448625,1710.6609697294,2740510.0072564,38.175787578758,0,0
-144.71936694393,-146.40867609486,32.980218021802,1355849.4448625,1710.6609697294,2740510.0072564,38.180218021802,0,0
-144.71936683671,-146.42303019744,32.984648464846,1355849.4448625,1710.6609697294,2740510.0072564,38.184648464846,0,0
-144.71936672948,-146.43738430002,32.989078907891,1355849.4448625,1710.6609697294,2740510.0072564,38.189078907891,0,0
-144.71936662226,-146.4517384026,32.993509350935,1355849.4448625,1710.6609697294,2740510.0072564,38.193509350935,0,0
-144.71936651504,-146.46609250518,32.997939793979,1355849.4448625,1710.6609697294,2740510.0072564,38.197939793979,0,0
-144.71936640782,-146.48044660776,33.002370237024,1355849.4448625,1710.6609697294,2740510.0072564,38.202370237024,0,0
-144.7193663006,-146.49480071034,33.006800680068,1355849.4448625,1710.6609697294,2740510.0072564,38.206800680068,0,0
-144.71936619338,-146.50915481292,33.011231123112,1355849.4448625,1710.6609697294,2740510.0072564,38.211231123112,0,0
-144.71936608616,-146.5235089155,33.015661566157,1355849.4448625,1710.6609697294,2740510.0072564,38.215661566157,0,0
-144.71936597894,-146.53786301808,33.020092009201,1355849.4448625,1710.6609697294,2740510.0072564,38.220092009201,0,0
-144.71936587172,-146.55221712066,33.024522452245,1355849.4448625,1710.6609697294,2740510.0072564,38.224522452245,0,0
-144.7193657645,-146.56657122324,33.02895289529,1355849.4448625,1710.6609697294,2740510.0072564,38.22895289529,0,0
-144.71936565728,-146.58092532582,33.033383338334,1355849.4448625,1710.6609697294,2740510.0072564,38.233383338334,0,0
-144.71936555005,-146.5952794284,33.037813781378,1355849.4448625,1710.6609697294,2740510.0072564,38.237813781378,0,0
-144.71936544283,-146.60963353098,33.042244224422,1355849.4448625,1710.6609697294,2740510.0072564,38.242244224422,0,0
-144.71936533561,-146.62398763356,33.046674667467,1355849.4448625,1710.6609697294,2740510.0072564,38.246674667467,0,0
-144.71936522839,-146.63834173614,33.051105110511,1355849.4448625,1710.6609697294,2740510.0072564,38.251105110511,0,0
-144.71936512117,-146.65269583872,33.055535553555,1355849.4448625,1710.6609697294,2740510.0072564,38.255535553555,0,0
-144.71936501395,-146.6670499413,33.0599659966,1355849.4448625,1710.6609697294,2740510.0072564,38.2599659966,0,0
-144.71936490673,-146.68140404388,33.064396439644,1355849.4448625,1710.6609697294,2740510.0072564,38.264396439644,0,0
-144.71936479951,-146.69575814646,33.068826882688,1355849.4448625,1710.6609697294,2740510.0072564,38.268826882688,0,0
-144.71936469229,-146.71011224904,33.073257325733,1355849.4448625,1710.6609697294,2740510.0072564,38.273257325733,0,0
-144.71936458507,-146.72446635161,33.077687768777,1355849.4448625,1710.6609697294,2740510.0072564,38.277687768777,0,0
-144.71936447785,-146.73882045419,33.082118211821,1355849.4448625,1710.6609697294,2740510.0072564,38.282118211821,0,0
-144.71936437062,-146.75317455677,33.086548654865,1355849.4448625,1710.6609697294,2740510.0072564,38.286548654865,0,0
-144.7193642634,-146.76752865935,33.09097909791,1355849.4448625,1710.6609697294,2740510.0072564,38.29097909791,0,0
-144.71936415618,-146.78188276193,33.095409540954,1355849.4448625,1710.6609697294,2740510.0072564,38.295409540954,0,0
-144.71936404896,-146.79623686451,33.099839983998,1355849.4448625,1710.6609697294,2740510.0072564,38.299839983998,0,0
-144.71936394174,-146.81059096709,33.104270427043,1355849.4448625,1710.6609697294,2740510.0072564,38.304270427043,0,0
-144.71936383452,-146.82494506967,33.108700870087,1355849.4448625,1710.6609697294,2740510.0072564,38.308700870087,0,0
-144.7193637273,-146.83929917225,33.113131313131,1355849.4448625,1710.6609697294,2740510.0072564,38.313131313131,0,0
-144.71936362008,-146.85365327483,33.117561756176,1355849.4448625,1710.6609697294,2740510.0072564,38.317561756176,0,0
-144.71936351286,-146.86800737741,33.12199219922,1355849.4448625,1710.6609697294,2740510.0072564,38.32199219922,0,0
-144.71936340564,-146.88236147999,33.126422642264,1355849.4448625,1710.6609697294,2740510.0072564,38.326422642264,0,0
-144.71936329841,-146.89671558257,33.130853085309,1355849.4448625,1710.6609697294,2740510.0072564,38.330853085309,0,0
-144.71936319119,-146.91106968515,33.135283528353,1355849.4448625,1710.6609697294,2740510.0072564,38.335283528353,0,0
-144.71936308397,-146.92542378773,33.139713971397,1355849.4448625,1710.6609697294,2740510.0072564,38.339713971397,0,0
-144.71936297675,-146.93977789031,33.144144414441,1355849.4448625,1710.6609697294,2740510.0072564,38.344144414441,0,0
-144.71936286953,-146.95413199289,33.148574857486,1355849.4448625,1710.6609697294,2740510.0072564,38.348574857486,0,0
-144.71936276231,-146.96848609547,33.15300530053,1355849.4448625,1710.6609697294,2740510.0072564,38.35300530053,0,0
-144.71936265509,-146.98284019805,33.157435743574,1355849.4448625,1710.6609697294,2740510.0072564,38.357435743574,0,0
-144.71936254787,-146.99719430063,33.161866186619,1355849.4448625,1710.6609697294,2740510.0072564,38.361866186619,0,0
-144.71936244065,-147.01154840321,33.166296629663,1355849.4448625,1710.6609697294,2740510.0072564,38.366296629663,0,0
-144.71936233343,-147.02590250579,33.170727072707,1355849.4448625,1710.6609697294,2740510.0072564,38.370727072707,0,0
-144.71936222621,-147.04025660837,33.175157515752,1355849.4448625,1710.6609697294,2740510.0072564,38.375157515752,0,0
-144.71936211898,-147.05461071095,33.179587958796,1355849.4448625,1710.6609697294,2740510.0072564,38.379587958796,0,0
-144.71936201176,-147.06896481353,33.18401840184,1355849.4448625,1710.6609697294,2740510.0072564,38.38401840184,0,0
-144.71936190454,-147.08331891611,33.188448844884,1355849.4448625,1710.6609697294,2740510.0072564,38.388448844884,0,0
-144.71936179732,-147.09767301869,33.192879287929,1355849.4448625,1710.6609697294,2740510.0072564,38.392879287929,0,0
-144.7193616901,-147.11202712127,33.197309730973,1355849.4448625,1710.6609697294,2740510.0072564,38.397309730973,0,0
-144.71936158288,-147.12638122384,33.201740174017,1355849.4448625,1710.6609697294,2740510.0072564,38.401740174017,0,0
-144.71936147566,-147.14073532642,33.206170617062,1355849.4448625,1710.6609697294,2740510.0072564,38.406170617062,0,0
-144.71936136844,-147.155089429,33.210601060106,1355849.4448625,1710.6609697294,2740510.0072564,38.410601060106,0,0
-144.71936126122,-147.16944353158,33.21503150315,1355849.4448625,1710.6609697294,2740510.0072564,38.41503150315,0,0
-144.719361154,-147.18379763416,33.219461946195,1355849.4448625,1710.6609697294,2740510.0072564,38.419461946195,0,0
-144.71936104678,-147.19815173674,33.223892389239,1355849.4448625,1710.6609697294,2740510.0072564,38.423892389239,0,0
-144.71936093955,-147.21250583932,33.228322832283,1355849.4448625,1710.6609697294,2740510.0072564,38.428322832283,0,0
-144.71936083233,-147.2268599419,33.232753275328,1355849.4448625,1710.6609697294,2740510.0072564,38.432753275328,0,0
-144.71936072511,-147.24121404448,33.237183718372,1355849.4448625,1710.6609697294,2740510.0072564,38.437183718372,0,0
-144.71936061789,-147.25556814706,33.241614161416,1355849.4448625,1710.6609697294,2740510.0072564,38.441614161416,0,0
-144.71936051067,-147.26992224964,33.24604460446,1355849.4448625,1710.6609697294,2740510.0072564,38.44604460446,0,0
-144.71936040345,-147.28427635222,33.250475047505,1355849.4448625,1710.6609697294,2740510.0072564,38.450475047505,0,0
-144.71936029623,-147.2986304548,33.254905490549,1355849.4448625,1710.6609697294,2740510.0072564,38.454905490549,0,0
-144.71936018901,-147.31298455738,33.259335933593,1355849.4448625,1710.6609697294,2740510.0072564,38.459335933593,0,0
-144.71936008179,-147.32733865996,33.263766376638,1355849.4448625,1710.6609697294,2740510.0072564,38.463766376638,0,0
-144.71935997457,-147.34169276254,33.268196819682,1355849.4448625,1710.6609697294,2740510.0072564,38.468196819682,0,0
-144.71935986734,-147.35604686512,33.272627262726,1355849.4448625,1710.6609697294,2740510.0072564,38.472627262726,0,0
-144.71935976012,-147.3704009677,33.277057705771,1355849.4448625,1710.6609697294,2740510.0072564,38.477057705771,0,0
-144.7193596529,-147.38475507028,33.281488148815,1355849.4448625,1710.6609697294,2740510.0072564,38.481488148815,0,0
-144.71935954568,-147.39910917286,33.285918591859,1355849.4448625,1710.6609697294,2740510.0072564,38.485918591859,0,0
-144.71935943846,-147.41346327544,33.290349034903,1355849.4448625,1710.6609697294,2740510.0072564,38.490349034903,0,0
-144.71935933124,-147.42781737802,33.294779477948,1355849.4448625,1710.6609697294,2740510.0072564,38.494779477948,0,0
-144.71935922402,-147.4421714806,33.299209920992,1355849.4448625,1710.6609697294,2740510.0072564,38.499209920992,0,0
-144.7193591168,-147.45652558318,33.303640364036,1355849.4448625,1710.6609697294,2740510.0072564,38.503640364036,0,0
-144.71935900958,-147.47087968576,33.308070807081,1355849.4448625,1710.6609697294,2740510.0072564,38.508070807081,0,0
-144.71935890236,-147.48523378834,33.312501250125,1355849.4448625,1710.6609697294,2740510.0072564,38.512501250125,0,0
-144.71935879514,-147.49958789092,33.316931693169,1355849.4448625,1710.6609697294,2740510.0072564,38.516931693169,0,0
-144.71935868791,-147.5139419935,33.321362136214,1355849.4448625,1710.6609697294,2740510.0072564,38.521362136214,0,0
-144.71935858069,-147.52829609607,33.325792579258,1355849.4448625,1710.6609697294,2740510.0072564,38.525792579258,0,0
-144.71935847347,-147.54265019865,33.330223022302,1355849.4448625,1710.6609697294,2740510.0072564,38.530223022302,0,0
-144.71935836625,-147.55700430123,33.334653465347,1355849.4448625,1710.6609697294,2740510.0072564,38.534653465347,0,0
-144.71935825903,-147.57135840381,33.339083908391,1355849.4448625,1710.6609697294,2740510.0072564,38.539083908391,0,0
-144.71935815181,-147.58571250639,33.343514351435,1355849.4448625,1710.6609697294,2740510.0072564,38.543514351435,0,0
-144.71935804459,-147.60006660897,33.347944794479,1355849.4448625,1710.6609697294,2740510.0072564,38.547944794479,0,0
-144.71935793737,-147.61442071155,33.352375237524,1355849.4448625,1710.6609697294,2740510.0072564,38.552375237524,0,0
-144.71935783015,-147.62877481413,33.356805680568,1355849.4448625,1710.6609697294,2740510.0072564,38.556805680568,0,0
-144.71935772293,-147.64312891671,33.361236123612,1355849.4448625,1710.6609697294,2740510.0072564,38.561236123612,0,0
-144.71935761571,-147.65748301929,33.365666566657,1355849.4448625,1710.6609697294,2740510.0072564,38.565666566657,0,0
-144.71935750848,-147.67183712187,33.370097009701,1355849.4448625,1710.6609697294,2740510.0072564,38.570097009701,0,0
-144.71935740126,-147.68619122445,33.374527452745,1355849.4448625,1710.6609697294,2740510.0072564,38.574527452745,0,0
-144.71935729404,-147.70054532703,33.37895789579,1355849.4448625,1710.6609697294,2740510.0072564,38.57895789579,0,0
-144.71935718682,-147.71489942961,33.383388338834,1355849.4448625,1710.6609697294,2740510.0072564,38.583388338834,0,0
-144.7193570796,-147.72925353219,33.387818781878,1355849.4448625,1710.6609697294,2740510.0072564,38.587818781878,0,0
-144.71935697238,-147.74360763477,33.392249224922,1355849.4448625,1710.6609697294,2740510.0072564,38.592249224922,0,0
-144.71935686516,-147.75796173735,33.396679667967,1355849.4448625,1710.6609697294,2740510.0072564,38.596679667967,0,0
-144.71935675794,-147.77231583993,33.401110111011,1355849.4448625,1710.6609697294,2740510.0072564,38.601110111011,0,0
-144.71935665072,-147.78666994251,33.405540554055,1355849.4448625,1710.6609697294,2740510.0072564,38.605540554055,0,0
-144.7193565435,-147.80102404509,33.4099709971,1355849.4448625,1710.6609697294,2740510.0072564,38.6099709971,0,0
-144.71935643627,-147.81537814767,33.414401440144,1355849.4448625,1710.6609697294,2740510.0072564,38.614401440144,0,0
-144.71935632905,-147.82973225025,33.418831883188,1355849.4448625,1710.6609697294,2740510.0072564,38.618831883188,0,0
-144.71935622183,-147.84408635283,33.423262326233,1355849.4448625,1710.6609697294,2740510.0072564,38.623262326233,0,0
-144.71935611461,-147.85844045541,33.427692769277,1355849.4448625,1710.6609697294,2740510.0072564,38.627692769277,0,0
-144.71935600739,-147.87279455799,33.432123212321,1355849.4448625,1710.6609697294,2740510.0072564,38.632123212321,0,0
-144.71935590017,-147.88714866057,33.436553655366,1355849.4448625,1710.6609697294,2740510.0072564,38.636553655366,0,0
-144.71935579295,-147.90150276315,33.44098409841,1355849.4448625,1710.6609697294,2740510.0072564,38.64098409841,0,0
-144.71935568573,-147.91585686573,33.445414541454,1355849.4448625,1710.6609697294,2740510.0072564,38.645414541454,0,0
-144.71935557851,-147.9302109683,33.449844984498,1355849.4448625,1710.6609697294,2740510.0072564,38.649844984498,0,0
-144.71935547129,-147.94456507088,33.454275427543,1355849.4448625,1710.6609697294,2740510.0072564,38.654275427543,0,0
-144.71935536407,-147.95891917346,33.458705870587,1355849.4448625,1710.6609697294,2740510.0072564,38.658705870587,0,0
-144.71935525684,-147.97327327604,33.463136313631,1355849.4448625,1710.6609697294,2740510.0072564,38.663136313631,0,0
-144.71935514962,-147.98762737862,33.467566756676,1355849.4448625,1710.6609697294,2740510.0072564,38.667566756676,0,0
-144.7193550424,-148.0019814812,33.47199719972,1355849.4448625,1710.6609697294,2740510.0072564,38.67199719972,0,0
-144.71935493518,-148.01633558378,33.476427642764,1355849.4448625,1710.6609697294,2740510.0072564,38.676427642764,0,0
-144.71935482796,-148.03068968636,33.480858085809,1355849.4448625,1710.6609697294,2740510.0072564,38.680858085809,0,0
-144.71935472074,-148.04504378894,33.485288528853,1355849.4448625,1710.6609697294,2740510.0072564,38.685288528853,0,0
-144.71935461352,-148.05939789152,33.489718971897,1355849.4448625,1710.6609697294,2740510.0072564,38.689718971897,0,0
-144.7193545063,-148.0737519941,33.494149414941,1355849.4448625,1710.6609697294,2740510.0072564,38.694149414941,0,0
-144.71935439908,-148.08810609668,33.498579857986,1355849.4448625,1710.6609697294,2740510.0072564,38.698579857986,0,0
-144.71935429186,-148.10246019926,33.50301030103,1355849.4448625,1710.6609697294,2740510.0072564,38.70301030103,0,0
-144.71935418464,-148.11681430184,33.507440744074,1355849.4448625,1710.6609697294,2740510.0072564,38.707440744074,0,0
-144.71935407741,-148.13116840442,33.511871187119,1355849.4448625,1710.6609697294,2740510.0072564,38.711871187119,0,0
-144.71935397019,-148.145522507,33.516301630163,1355849.4448625,1710.6609697294,2740510.0072564,38.716301630163,0,0
-144.71935386297,-148.15987660958,33.520732073207,1355849.4448625,1710.6609697294,2740510.0072564,38.720732073207,0,0
-144.71935375575,-148.17423071216,33.525162516252,1355849.4448625,1710.6609697294,2740510.0072564,38.725162516252,0,0
-144.71935364853,-148.18858481474,33.529592959296,1355849.4448625,1710.6609697294,2740510.0072564,38.729592959296,0,0
-144.71935354131,-148.20293891732,33.53402340234,1355849.4448625,1710.6609697294,2740510.0072564,38.73402340234,0,0
-144.71935343409,-148.2172930199,33.538453845385,1355849.4448625,1710.6609697294,2740510.0072564,38.738453845385,0,0
-144.71935332687,-148.23164712248,33.542884288429,1355849.4448625,1710.6609697294,2740510.0072564,38.742884288429,0,0
-144.71935321965,-148.24600122506,33.547314731473,1355849.4448625,1710.6609697294,2740510.0072564,38.747314731473,0,0
-144.71935311243,-148.26035532764,33.551745174517,1355849.4448625,1710.6609697294,2740510.0072564,38.751745174517,0,0
-144.7193530052,-148.27470943022,33.556175617562,1355849.4448625,1710.6609697294,2740510.0072564,38.756175617562,0,0
-144.71935289798,-148.2890635328,33.560606060606,1355849.4448625,1710.6609697294,2740510.0072564,38.760606060606,0,0
-144.71935279076,-148.30341763538,33.56503650365,1355849.4448625,1710.6609697294,2740510.0072564,38.76503650365,0,0
-144.71935268354,-148.31777173795,33.569466946695,1355849.4448625,1710.6609697294,2740510.0072564,38.769466946695,0,0
-144.71935257632,-148.33212584053,33.573897389739,1355849.4448625,1710.6609697294,2740510.0072564,38.773897389739,0,0
-144.7193524691,-148.34647994311,33.578327832783,1355849.4448625,1710.6609697294,2740510.0072564,38.778327832783,0,0
-144.71935236188,-148.36083404569,33.582758275828,1355849.4448625,1710.6609697294,2740510.0072564,38.782758275828,0,0
-144.71935225466,-148.37518814827,33.587188718872,1355849.4448625,1710.6609697294,2740510.0072564,38.787188718872,0,0
-144.71935214744,-148.38954225085,33.591619161916,1355849.4448625,1710.6609697294,2740510.0072564,38.791619161916,0,0
-144.71935204022,-148.40389635343,33.59604960496,1355849.4448625,1710.6609697294,2740510.0072564,38.79604960496,0,0
-144.719351933,-148.41825045601,33.600480048005,1355849.4448625,1710.6609697294,2740510.0072564,38.800480048005,0,0
-144.71935182577,-148.43260455859,33.604910491049,1355849.4448625,1710.6609697294,2740510.0072564,38.804910491049,0,0
-144.71935171855,-148.44695866117,33.609340934093,1355849.4448625,1710.6609697294,2740510.0072564,38.809340934093,0,0
-144.71935161133,-148.46131276375,33.613771377138,1355849.4448625,1710.6609697294,2740510.0072564,38.813771377138,0,0
-144.71935150411,-148.47566686633,33.618201820182,1355849.4448625,1710.6609697294,2740510.0072564,38.818201820182,0,0
-144.71935139689,-148.49002096891,33.622632263226,1355849.4448625,1710.6609697294,2740510.0072564,38.822632263226,0,0
-144.71935128967,-148.50437507149,33.627062706271,1355849.4448625,1710.6609697294,2740510.0072564,38.827062706271,0,0
-144.71935118245,-148.51872917407,33.631493149315,1355849.4448625,1710.6609697294,2740510.0072564,38.831493149315,0,0
-144.71935107523,-148.53308327665,33.635923592359,1355849.4448625,1710.6609697294,2740510.0072564,38.835923592359,0,0
-144.71935096801,-148.54743737923,33.640354035404,1355849.4448625,1710.6609697294,2740510.0072564,38.840354035404,0,0
-144.71935086079,-148.56179148181,33.644784478448,1355849.4448625,1710.6609697294,2740510.0072564,38.844784478448,0,0
-144.71935075357,-148.57614558439,33.649214921492,1355849.4448625,1710.6609697294,2740510.0072564,38.849214921492,0,0
-144.71935064634,-148.59049968697,33.653645364536,1355849.4448625,1710.6609697294,2740510.0072564,38.853645364536,0,0
-144.71935053912,-148.60485378955,33.658075807581,1355849.4448625,1710.6609697294,2740510.0072564,38.858075807581,0,0
-144.7193504319,-148.61920789213,33.662506250625,1355849.4448625,1710.6609697294,2740510.0072564,38.862506250625,0,0
-144.71935032468,-148.63356199471,33.666936693669,1355849.4448625,1710.6609697294,2740510.0072564,38.866936693669,0,0
-144.71935021745,-148.64791609737,33.671367136714,1355218.985966,-793.28389896317,2735472.1577944,38.871367136714,0,0
-144.71935011014,-148.66227020054,33.675797579758,1355218.985966,-793.28389896317,2735472.1577944,38.875797579758,0,0
-144.71935000284,-148.67662430371,33.680228022802,1355218.985966,-793.28389896317,2735472.1577944,38.880228022802,0,0
-144.71934989553,-148.69097840687,33.684658465847,1355218.985966,-793.28389896317,2735472.1577944,38.884658465847,0,0
-144.71934978823,-148.70533251004,33.689088908891,1355218.985966,-793.28389896317,2735472.1577944,38.889088908891,0,0
-144.71934968092,-148.71968661321,33.693519351935,1355218.985966,-793.28389896317,2735472.1577944,38.893519351935,0,0
-144.71934957362,-148.73404071638,33.697949794979,1355218.985966,-793.28389896317,2735472.1577944,38.897949794979,0,0
-144.71934946632,-148.74839481955,33.702380238024,1355218.985966,-793.28389896317,2735472.1577944,38.902380238024,0,0
-144.71934935901,-148.76274892271,33.706810681068,1355218.985966,-793.28389896317,2735472.1577944,38.906810681068,0,0
-144.71934925171,-148.77710302588,33.711241124112,1355218.985966,-793.28389896317,2735472.1577944,38.911241124112,0,0
-144.7193491444,-148.79145712905,33.715671567157,1355218.985966,-793.28389896317,2735472.1577944,38.915671567157,0,0
-144.7193490371,-148.80581123222,33.720102010201,1355218.985966,-793.28389896317,2735472.1577944,38.920102010201,0,0
-144.71934892979,-148.82016533538,33.724532453245,1355218.985966,-793.28389896317,2735472.1577944,38.924532453245,0,0
-144.71934882249,-148.83451943855,33.72896289629,1355218.985966,-793.28389896317,2735472.1577944,38.92896289629,0,0
-144.71934871518,-148.84887354172,33.733393339334,1355218.985966,-793.28389896317,2735472.1577944,38.933393339334,0,0
-144.71934860788,-148.86322764489,33.737823782378,1355218.985966,-793.28389896317,2735472.1577944,38.937823782378,0,0
-144.71934850057,-148.87758174806,33.742254225423,1355218.985966,-793.28389896317,2735472.1577944,38.942254225423,0,0
-144.71934839327,-148.89193585122,33.746684668467,1355218.985966,-793.28389896317,2735472.1577944,38.946684668467,0,0
-144.71934828596,-148.90628995439,33.751115111511,1355218.985966,-793.28389896317,2735472.1577944,38.951115111511,0,0
-144.71934817866,-148.92064405756,33.755545554555,1355218.985966,-793.28389896317,2735472.1577944,38.955545554555,0,0
-144.71934807135,-148.93499816073,33.7599759976,1355218.985966,-793.28389896317,2735472.1577944,38.9599759976,0,0
-144.71934796405,-148.9493522639,33.764406440644,1355218.985966,-793.28389896317,2735472.1577944,38.964406440644,0,0
-144.71934785674,-148.96370636706,33.768836883688,1355218.985966,-793.28389896317,2735472.1577944,38.968836883688,0,0
-144.71934774944,-148.97806047023,33.773267326733,1355218.985966,-793.28389896317,2735472.1577944,38.973267326733,0,0
-144.71934764214,-148.9924145734,33.777697769777,1355218.985966,-793.28389896317,2735472.1577944,38.977697769777,0,0
-144.71934753483,-149.00676867657,33.782128212821,1355218.985966,-793.28389896317,2735472.1577944,38.982128212821,0,0
-144.71934742753,-149.02112277974,33.786558655866,1355218.985966,-793.28389896317,2735472.1577944,38.986558655866,0,0
-144.71934732022,-149.0354768829,33.79098909891,1355218.985966,-793.28389896317,2735472.1577944,38.99098909891,0,0
-144.71934721292,-149.04983098607,33.795419541954,1355218.985966,-793.28389896317,2735472.1577944,38.995419541954,0,0
-144.71934710561,-149.06418508924,33.799849984998,1355218.985966,-793.28389896317,2735472.1577944,38.999849984998,0,0
-144.71934699831,-149.07853919241,33.804280428043,1355218.985966,-793.28389896317,2735472.1577944,39.004280428043,0,0
-144.719346891,-149.09289329558,33.808710871087,1355218.985966,-793.28389896317,2735472.1577944,39.008710871087,0,0
-144.7193467837,-149.10724739874,33.813141314131,1355218.985966,-793.28389896317,2735472.1577944,39.013141314131,0,0
-144.71934667639,-149.12160150191,33.817571757176,1355218.985966,-793.28389896317,2735472.1577944,39.017571757176,0,0
-144.71934656909,-149.13595560508,33.82200220022,1355218.985966,-793.28389896317,2735472.1577944,39.02200220022,0,0
-144.71934646178,-149.15030970825,33.826432643264,1355218.985966,-793.28389896317,2735472.1577944,39.026432643264,0,0
-144.71934635448,-149.16466381141,33.830863086309,1355218.985966,-793.28389896317,2735472.1577944,39.030863086309,0,0
-144.71934624717,-149.17901791458,33.835293529353,1355218.985966,-793.28389896317,2735472.1577944,39.035293529353,0,0
-144.71934613987,-149.19337201775,33.839723972397,1355218.985966,-793.28389896317,2735472.1577944,39.039723972397,0,0
-144.71934603256,-149.20772612092,33.844154415442,1355218.985966,-793.28389896317,2735472.1577944,39.044154415442,0,0
-144.71934592526,-149.22208022409,33.848584858486,1355218.985966,-793.28389896317,2735472.1577944,39.048584858486,0,0
-144.71934581796,-149.23643432725,33.85301530153,1355218.985966,-793.28389896317,2735472.1577944,39.05301530153,0,0
-144.71934571065,-149.25078843042,33.857445744574,1355218.985966,-793.28389896317,2735472.1577944,39.057445744574,0,0
-144.71934560335,-149.26514253359,33.861876187619,1355218.985966,-793.28389896317,2735472.1577944,39.061876187619,0,0
-144.71934549604,-149.27949663676,33.866306630663,1355218.985966,-793.28389896317,2735472.1577944,39.066306630663,0,0
-144.71934538874,-149.29385073993,33.870737073707,1355218.985966,-793.28389896317,2735472.1577944,39.070737073707,0,0
-144.71934528143,-149.30820484309,33.875167516752,1355218.985966,-793.28389896317,2735472.1577944,39.075167516752,0,0
-144.71934517413,-149.32255894626,33.879597959796,1355218.985966,-793.28389896317,2735472.1577944,39.079597959796,0,0
-144.71934506682,-149.33691304943,33.88402840284,1355218.985966,-793.28389896317,2735472.1577944,39.08402840284,0,0
-144.71934495952,-149.3512671526,33.888458845885,1355218.985966,-793.28389896317,2735472.1577944,39.088458845885,0,0
-144.71934485221,-149.36562125577,33.892889288929,1355218.985966,-793.28389896317,2735472.1577944,39.092889288929,0,0
-144.71934474491,-149.37997535893,33.897319731973,1355218.985966,-793.28389896317,2735472.1577944,39.097319731973,0,0
-144.7193446376,-149.3943294621,33.901750175017,1355218.985966,-793.28389896317,2735472.1577944,39.101750175018,0,0
-144.7193445303,-149.40868356527,33.906180618062,1355218.985966,-793.28389896317,2735472.1577944,39.106180618062,0,0
-144.71934442299,-149.42303766844,33.910611061106,1355218.985966,-793.28389896317,2735472.1577944,39.110611061106,0,0
-144.71934431569,-149.4373917716,33.91504150415,1355218.985966,-793.28389896317,2735472.1577944,39.11504150415,0,0
-144.71934420838,-149.45174587477,33.919471947195,1355218.985966,-793.28389896317,2735472.1577944,39.119471947195,0,0
-144.71934410108,-149.46609997794,33.923902390239,1355218.985966,-793.28389896317,2735472.1577944,39.123902390239,0,0
-144.71934399378,-149.48045408111,33.928332833283,1355218.985966,-793.28389896317,2735472.1577944,39.128332833283,0,0
-144.71934388647,-149.49480818428,33.932763276328,1355218.985966,-793.28389896317,2735472.1577944,39.132763276328,0,0
-144.71934377917,-149.50916228744,33.937193719372,1355218.985966,-793.28389896317,2735472.1577944,39.137193719372,0,0
-144.71934367186,-149.52351639061,33.941624162416,1355218.985966,-793.28389896317,2735472.1577944,39.141624162416,0,0
-144.71934356456,-149.53787049378,33.946054605461,1355218.985966,-793.28389896317,2735472.1577944,39.146054605461,0,0
-144.71934345725,-149.55222459695,33.950485048505,1355218.985966,-793.28389896317,2735472.1577944,39.150485048505,0,0
-144.71934334995,-149.56657870012,33.954915491549,1355218.985966,-793.28389896317,2735472.1577944,39.154915491549,0,0
-144.71934324264,-149.58093280328,33.959345934593,1355218.985966,-793.28389896317,2735472.1577944,39.159345934593,0,0
-144.71934313534,-149.59528690645,33.963776377638,1355218.985966,-793.28389896317,2735472.1577944,39.163776377638,0,0
-144.71934302803,-149.60964100962,33.968206820682,1355218.985966,-793.28389896317,2735472.1577944,39.168206820682,0,0
-144.71934292073,-149.62399511279,33.972637263726,1355218.985966,-793.28389896317,2735472.1577944,39.172637263726,0,0
-144.71934281342,-149.63834921596,33.977067706771,1355218.985966,-793.28389896317,2735472.1577944,39.177067706771,0,0
-144.71934270612,-149.65270331912,33.981498149815,1355218.985966,-793.28389896317,2735472.1577944,39.181498149815,0,0
-144.71934259881,-149.66705742229,33.985928592859,1355218.985966,-793.28389896317,2735472.1577944,39.185928592859,0,0
-144.71934249151,-149.68141152546,33.990359035904,1355218.985966,-793.28389896317,2735472.1577944,39.190359035904,0,0
-144.7193423842,-149.69576562863,33.994789478948,1355218.985966,-793.28389896317,2735472.1577944,39.194789478948,0,0
-144.7193422769,-149.71011973179,33.999219921992,1355218.985966,-793.28389896317,2735472.1577944,39.199219921992,0,0
-144.7193421696,-149.72447383496,34.003650365036,1355218.985966,-793.28389896317,2735472.1577944,39.203650365037,0,0
-144.71934206229,-149.73882793813,34.008080808081,1355218.985966,-793.28389896317,2735472.1577944,39.208080808081,0,0
-144.71934195499,-149.7531820413,34.012511251125,1355218.985966,-793.28389896317,2735472.1577944,39.212511251125,0,0
-144.71934184768,-149.76753614447,34.016941694169,1355218.985966,-793.28389896317,2735472.1577944,39.216941694169,0,0
-144.71934174038,-149.78189024763,34.021372137214,1355218.985966,-793.28389896317,2735472.1577944,39.221372137214,0,0
-144.71934163307,-149.7962443508,34.025802580258,1355218.985966,-793.28389896317,2735472.1577944,39.225802580258,0,0
-144.71934152577,-149.81059845397,34.030233023302,1355218.985966,-793.28389896317,2735472.1577944,39.230233023302,0,0
-144.71934141846,-149.82495255714,34.034663466347,1355218.985966,-793.28389896317,2735472.1577944,39.234663466347,0,0
-144.71934131116,-149.83930666031,34.039093909391,1355218.985966,-793.28389896317,2735472.1577944,39.239093909391,0,0
-144.71934120385,-149.85366076347,34.043524352435,1355218.985966,-793.28389896317,2735472.1577944,39.243524352435,0,0
-144.71934109655,-149.86801486664,34.04795479548,1355218.985966,-793.28389896317,2735472.1577944,39.24795479548,0,0
-144.71934098924,-149.88236896981,34.052385238524,1355218.985966,-793.28389896317,2735472.1577944,39.252385238524,0,0
-144.71934088194,-149.89672307298,34.056815681568,1355218.985966,-793.28389896317,2735472.1577944,39.256815681568,0,0
-144.71934077463,-149.91107717615,34.061246124612,1355218.985966,-793.28389896317,2735472.1577944,39.261246124612,0,0
-144.71934066733,-149.92543127931,34.065676567657,1355218.985966,-793.28389896317,2735472.1577944,39.265676567657,0,0
-144.71934056002,-149.93978538248,34.070107010701,1355218.985966,-793.28389896317,2735472.1577944,39.270107010701,0,0
-144.71934045272,-149.95413948565,34.074537453745,1355218.985966,-793.28389896317,2735472.1577944,39.274537453745,0,0
-144.71934034541,-149.96849358882,34.07896789679,1355218.985966,-793.28389896317,2735472.1577944,39.27896789679,0,0
-144.71934023811,-149.98284769199,34.083398339834,1355218.985966,-793.28389896317,2735472.1577944,39.283398339834,0,0
-144.71934013081,-149.99720179515,34.087828782878,1355218.985966,-793.28389896317,2735472.1577944,39.287828782878,0,0
-144.7193400235,-150.01155589832,34.092259225923,1355218.985966,-793.28389896317,2735472.1577944,39.292259225923,0,0
-144.7193399162,-150.02591000149,34.096689668967,1355218.985966,-793.28389896317,2735472.1577944,39.296689668967,0,0
-144.71933980889,-150.04026410466,34.101120112011,1355218.985966,-793.28389896317,2735472.1577944,39.301120112011,0,0
-144.71933970159,-150.05461820782,34.105550555056,1355218.985966,-793.28389896317,2735472.1577944,39.305550555056,0,0
-144.71933959428,-150.06897231099,34.1099809981,1355218.985966,-793.28389896317,2735472.1577944,39.3099809981,0,0
-144.71933948698,-150.08332641416,34.114411441144,1355218.985966,-793.28389896317,2735472.1577944,39.314411441144,0,0
-144.71933937967,-150.09768051733,34.118841884188,1355218.985966,-793.28389896317,2735472.1577944,39.318841884188,0,0
-144.71933927237,-150.1120346205,34.123272327233,1355218.985966,-793.28389896317,2735472.1577944,39.323272327233,0,0
-144.71933916506,-150.12638872366,34.127702770277,1355218.985966,-793.28389896317,2735472.1577944,39.327702770277,0,0
-144.71933905776,-150.14074282683,34.132133213321,1355218.985966,-793.28389896317,2735472.1577944,39.332133213321,0,0
-144.71933895045,-150.15509693,34.136563656366,1355218.985966,-793.28389896317,2735472.1577944,39.336563656366,0,0
-144.71933884315,-150.16945103317,34.14099409941,1355218.985966,-793.28389896317,2735472.1577944,39.34099409941,0,0
-144.71933873584,-150.18380513634,34.145424542454,1355218.985966,-793.28389896317,2735472.1577944,39.345424542454,0,0
-144.71933862854,-150.1981592395,34.149854985499,1355218.985966,-793.28389896317,2735472.1577944,39.349854985499,0,0
-144.71933852123,-150.21251334267,34.154285428543,1355218.985966,-793.28389896317,2735472.1577944,39.354285428543,0,0
-144.71933841393,-150.22686744584,34.158715871587,1355218.985966,-793.28389896317,2735472.1577944,39.358715871587,0,0
-144.71933830663,-150.24122154901,34.163146314631,1355218.985966,-793.28389896317,2735472.1577944,39.363146314631,0,0
-144.71933819932,-150.25557565218,34.167576757676,1355218.985966,-793.28389896317,2735472.1577944,39.367576757676,0,0
-144.71933809202,-150.26992975534,34.17200720072,1355218.985966,-793.28389896317,2735472.1577944,39.37200720072,0,0
-144.71933798471,-150.28428385851,34.176437643764,1355218.985966,-793.28389896317,2735472.1577944,39.376437643764,0,0
-144.71933787741,-150.29863796168,34.180868086809,1355218.985966,-793.28389896317,2735472.1577944,39.380868086809,0,0
-144.7193377701,-150.31299206485,34.185298529853,1355218.985966,-793.28389896317,2735472.1577944,39.385298529853,0,0
-144.7193376628,-150.32734616801,34.189728972897,1355218.985966,-793.28389896317,2735472.1577944,39.389728972897,0,0
-144.71933755549,-150.34170027118,34.194159415942,1355218.985966,-793.28389896317,2735472.1577944,39.394159415942,0,0
-144.71933744819,-150.35605437435,34.198589858986,1355218.985966,-793.28389896317,2735472.1577944,39.398589858986,0,0
-144.71933734088,-150.37040847752,34.20302030203,1355218.985966,-793.28389896317,2735472.1577944,39.40302030203,0,0
-144.71933723358,-150.38476258069,34.207450745075,1355218.985966,-793.28389896317,2735472.1577944,39.407450745075,0,0
-144.71933712627,-150.39911668385,34.211881188119,1355218.985966,-793.28389896317,2735472.1577944,39.411881188119,0,0
-144.71933701897,-150.41347078702,34.216311631163,1355218.985966,-793.28389896317,2735472.1577944,39.416311631163,0,0
-144.71933691166,-150.42782489019,34.220742074207,1355218.985966,-793.28389896317,2735472.1577944,39.420742074207,0,0
-144.71933680436,-150.44217899336,34.225172517252,1355218.985966,-793.28389896317,2735472.1577944,39.425172517252,0,0
-144.71933669705,-150.45653309653,34.229602960296,1355218.985966,-793.28389896317,2735472.1577944,39.429602960296,0,0
-144.71933658975,-150.47088719969,34.23403340334,1355218.985966,-793.28389896317,2735472.1577944,39.43403340334,0,0
-144.71933648245,-150.48524130286,34.238463846385,1355218.985966,-793.28389896317,2735472.1577944,39.438463846385,0,0
-144.71933637514,-150.49959540603,34.242894289429,1355218.985966,-793.28389896317,2735472.1577944,39.442894289429,0,0
-144.71933626784,-150.5139495092,34.247324732473,1355218.985966,-793.28389896317,2735472.1577944,39.447324732473,0,0
-144.71933616053,-150.52830361237,34.251755175518,1355218.985966,-793.28389896317,2735472.1577944,39.451755175518,0,0
-144.71933605322,-150.54265771538,34.256185618562,1354239.5545095,1713.8222596259,2731792.4373414,39.456185618562,0,0
-144.7193359459,-150.55701181801,34.260616061606,1354239.5545095,1713.8222596259,2731792.4373414,39.460616061606,0,0
-144.71933583857,-150.57136592063,34.26504650465,1354239.5545095,1713.8222596259,2731792.4373414,39.46504650465,0,0
-144.71933573125,-150.58572002326,34.269476947695,1354239.5545095,1713.8222596259,2731792.4373414,39.469476947695,0,0
-144.71933562392,-150.60007412588,34.273907390739,1354239.5545095,1713.8222596259,2731792.4373414,39.473907390739,0,0
-144.7193355166,-150.6144282285,34.278337833783,1354239.5545095,1713.8222596259,2731792.4373414,39.478337833783,0,0
-144.71933540927,-150.62878233113,34.282768276828,1354239.5545095,1713.8222596259,2731792.4373414,39.482768276828,0,0
-144.71933530195,-150.64313643375,34.287198719872,1354239.5545095,1713.8222596259,2731792.4373414,39.487198719872,0,0
-144.71933519463,-150.65749053638,34.291629162916,1354239.5545095,1713.8222596259,2731792.4373414,39.491629162916,0,0
-144.7193350873,-150.671844639,34.296059605961,1354239.5545095,1713.8222596259,2731792.4373414,39.496059605961,0,0
-144.71933497998,-150.68619874162,34.300490049005,1354239.5545095,1713.8222596259,2731792.4373414,39.500490049005,0,0
-144.71933487265,-150.70055284425,34.304920492049,1354239.5545095,1713.8222596259,2731792.4373414,39.504920492049,0,0
-144.71933476533,-150.71490694687,34.309350935094,1354239.5545095,1713.8222596259,2731792.4373414,39.509350935094,0,0
-144.719334658,-150.7292610495,34.313781378138,1354239.5545095,1713.8222596259,2731792.4373414,39.513781378138,0,0
-144.71933455068,-150.74361515212,34.318211821182,1354239.5545095,1713.8222596259,2731792.4373414,39.518211821182,0,0
-144.71933444335,-150.75796925475,34.322642264226,1354239.5545095,1713.8222596259,2731792.4373414,39.522642264226,0,0
-144.71933433603,-150.77232335737,34.327072707271,1354239.5545095,1713.8222596259,2731792.4373414,39.527072707271,0,0
-144.71933422871,-150.78667745999,34.331503150315,1354239.5545095,1713.8222596259,2731792.4373414,39.531503150315,0,0
-144.71933412138,-150.80103156262,34.335933593359,1354239.5545095,1713.8222596259,2731792.4373414,39.535933593359,0,0
-144.71933401406,-150.81538566524,34.340364036404,1354239.5545095,1713.8222596259,2731792.4373414,39.540364036404,0,0
-144.71933390673,-150.82973976787,34.344794479448,1354239.5545095,1713.8222596259,2731792.4373414,39.544794479448,0,0
-144.71933379941,-150.84409387049,34.349224922492,1354239.5545095,1713.8222596259,2731792.4373414,39.549224922492,0,0
-144.71933369208,-150.85844797311,34.353655365537,1354239.5545095,1713.8222596259,2731792.4373414,39.553655365537,0,0
-144.71933358476,-150.87280207574,34.358085808581,1354239.5545095,1713.8222596259,2731792.4373414,39.558085808581,0,0
-144.71933347743,-150.88715617836,34.362516251625,1354239.5545095,1713.8222596259,2731792.4373414,39.562516251625,0,0
-144.71933337011,-150.90151028099,34.366946694669,1354239.5545095,1713.8222596259,2731792.4373414,39.566946694669,0,0
-144.71933326279,-150.91586438361,34.371377137714,1354239.5545095,1713.8222596259,2731792.4373414,39.571377137714,0,0
-144.71933315546,-150.93021848624,34.375807580758,1354239.5545095,1713.8222596259,2731792.4373414,39.575807580758,0,0
-144.71933304814,-150.94457258886,34.380238023802,1354239.5545095,1713.8222596259,2731792.4373414,39.580238023802,0,0
-144.71933294081,-150.95892669148,34.384668466847,1354239.5545095,1713.8222596259,2731792.4373414,39.584668466847,0,0
-144.71933283349,-150.97328079411,34.389098909891,1354239.5545095,1713.8222596259,2731792.4373414,39.589098909891,0,0
-144.71933272616,-150.98763489673,34.393529352935,1354239.5545095,1713.8222596259,2731792.4373414,39.593529352935,0,0
-144.71933261884,-151.00198899936,34.39795979598,1354239.5545095,1713.8222596259,2731792.4373414,39.59795979598,0,0
-144.71933251151,-151.01634310198,34.402390239024,1354239.5545095,1713.8222596259,2731792.4373414,39.602390239024,0,0
-144.71933240419,-151.0306972046,34.406820682068,1354239.5545095,1713.8222596259,2731792.4373414,39.606820682068,0,0
-144.71933229687,-151.04505130723,34.411251125113,1354239.5545095,1713.8222596259,2731792.4373414,39.611251125113,0,0
-144.71933218954,-151.05940540985,34.415681568157,1354239.5545095,1713.8222596259,2731792.4373414,39.615681568157,0,0
-144.71933208222,-151.07375951248,34.420112011201,1354239.5545095,1713.8222596259,2731792.4373414,39.620112011201,0,0
-144.71933197489,-151.0881136151,34.424542454245,1354239.5545095,1713.8222596259,2731792.4373414,39.624542454245,0,0
-144.71933186757,-151.10246771773,34.42897289729,1354239.5545095,1713.8222596259,2731792.4373414,39.62897289729,0,0
-144.71933176024,-151.11682182035,34.433403340334,1354239.5545095,1713.8222596259,2731792.4373414,39.633403340334,0,0
-144.71933165292,-151.13117592297,34.437833783378,1354239.5545095,1713.8222596259,2731792.4373414,39.637833783378,0,0
-144.71933154559,-151.1455300256,34.442264226423,1354239.5545095,1713.8222596259,2731792.4373414,39.642264226423,0,0
-144.71933143827,-151.15988412822,34.446694669467,1354239.5545095,1713.8222596259,2731792.4373414,39.646694669467,0,0
-144.71933133095,-151.17423823085,34.451125112511,1354239.5545095,1713.8222596259,2731792.4373414,39.651125112511,0,0
-144.71933122362,-151.18859233347,34.455555555556,1354239.5545095,1713.8222596259,2731792.4373414,39.655555555556,0,0
-144.7193311163,-151.20294643609,34.4599859986,1354239.5545095,1713.8222596259,2731792.4373414,39.6599859986,0,0
-144.71933100897,-151.21730053872,34.464416441644,1354239.5545095,1713.8222596259,2731792.4373414,39.664416441644,0,0
-144.71933090165,-151.23165464134,34.468846884688,1354239.5545095,1713.8222596259,2731792.4373414,39.668846884688,0,0
-144.71933079432,-151.24600874397,34.473277327733,1354239.5545095,1713.8222596259,2731792.4373414,39.673277327733,0,0
-144.719330687,-151.26036284659,34.477707770777,1354239.5545095,1713.8222596259,2731792.4373414,39.677707770777,0,0
-144.71933057967,-151.27471694922,34.482138213821,1354239.5545095,1713.8222596259,2731792.4373414,39.682138213821,0,0
-144.71933047235,-151.28907105184,34.486568656866,1354239.5545095,1713.8222596259,2731792.4373414,39.686568656866,0,0
-144.71933036502,-151.30342515446,34.49099909991,1354239.5545095,1713.8222596259,2731792.4373414,39.69099909991,0,0
-144.7193302577,-151.31777925709,34.495429542954,1354239.5545095,1713.8222596259,2731792.4373414,39.695429542954,0,0
-144.71933015038,-151.33213335971,34.499859985999,1354239.5545095,1713.8222596259,2731792.4373414,39.699859985999,0,0
-144.71933004305,-151.34648746234,34.504290429043,1354239.5545095,1713.8222596259,2731792.4373414,39.704290429043,0,0
-144.71932993573,-151.36084156496,34.508720872087,1354239.5545095,1713.8222596259,2731792.4373414,39.708720872087,0,0
-144.7193298284,-151.37519566758,34.513151315132,1354239.5545095,1713.8222596259,2731792.4373414,39.713151315132,0,0
-144.71932972108,-151.38954977021,34.517581758176,1354239.5545095,1713.8222596259,2731792.4373414,39.717581758176,0,0
-144.71932961375,-151.40390387283,34.52201220122,1354239.5545095,1713.8222596259,2731792.4373414,39.72201220122,0,0
-144.71932950643,-151.41825797546,34.526442644264,1354239.5545095,1713.8222596259,2731792.4373414,39.726442644264,0,0
-144.7193293991,-151.43261207808,34.530873087309,1354239.5545095,1713.8222596259,2731792.4373414,39.730873087309,0,0
-144.71932929178,-151.44696618071,34.535303530353,1354239.5545095,1713.8222596259,2731792.4373414,39.735303530353,0,0
-144.71932918446,-151.46132028333,34.539733973397,1354239.5545095,1713.8222596259,2731792.4373414,39.739733973397,0,0
-144.71932907713,-151.47567438595,34.544164416442,1354239.5545095,1713.8222596259,2731792.4373414,39.744164416442,0,0
-144.71932896981,-151.49002848858,34.548594859486,1354239.5545095,1713.8222596259,2731792.4373414,39.748594859486,0,0
-144.71932886248,-151.5043825912,34.55302530253,1354239.5545095,1713.8222596259,2731792.4373414,39.75302530253,0,0
-144.71932875516,-151.51873669383,34.557455745575,1354239.5545095,1713.8222596259,2731792.4373414,39.757455745575,0,0
-144.71932864783,-151.53309079645,34.561886188619,1354239.5545095,1713.8222596259,2731792.4373414,39.761886188619,0,0
-144.71932854051,-151.54744489907,34.566316631663,1354239.5545095,1713.8222596259,2731792.4373414,39.766316631663,0,0
-144.71932843318,-151.5617990017,34.570747074707,1354239.5545095,1713.8222596259,2731792.4373414,39.770747074707,0,0
-144.71932832586,-151.57615310432,34.575177517752,1354239.5545095,1713.8222596259,2731792.4373414,39.775177517752,0,0
-144.71932821854,-151.59050720695,34.579607960796,1354239.5545095,1713.8222596259,2731792.4373414,39.779607960796,0,0
-144.71932811121,-151.60486130957,34.58403840384,1354239.5545095,1713.8222596259,2731792.4373414,39.78403840384,0,0
-144.71932800389,-151.6192154122,34.588468846885,1354239.5545095,1713.8222596259,2731792.4373414,39.788468846885,0,0
-144.71932789656,-151.63356951482,34.592899289929,1354239.5545095,1713.8222596259,2731792.4373414,39.792899289929,0,0
-144.71932778924,-151.64792361744,34.597329732973,1354239.5545095,1713.8222596259,2731792.4373414,39.797329732973,0,0
-144.71932768191,-151.66227772007,34.601760176018,1354239.5545095,1713.8222596259,2731792.4373414,39.801760176018,0,0
-144.71932757459,-151.67663182269,34.606190619062,1354239.5545095,1713.8222596259,2731792.4373414,39.806190619062,0,0
-144.71932746726,-151.69098592532,34.610621062106,1354239.5545095,1713.8222596259,2731792.4373414,39.810621062106,0,0
-144.71932735994,-151.70534002794,34.615051505151,1354239.5545095,1713.8222596259,2731792.4373414,39.815051505151,0,0
-144.71932725262,-151.71969413056,34.619481948195,1354239.5545095,1713.8222596259,2731792.4373414,39.819481948195,0,0
-144.71932714529,-151.73404823319,34.623912391239,1354239.5545095,1713.8222596259,2731792.4373414,39.823912391239,0,0
-144.71932703797,-151.74840233581,34.628342834283,1354239.5545095,1713.8222596259,2731792.4373414,39.828342834283,0,0
-144.71932693064,-151.76275643844,34.632773277328,1354239.5545095,1713.8222596259,2731792.4373414,39.832773277328,0,0
-144.71932682332,-151.77711054106,34.637203720372,1354239.5545095,1713.8222596259,2731792.4373414,39.837203720372,0,0
-144.71932671599,-151.79146464369,34.641634163416,1354239.5545095,1713.8222596259,2731792.4373414,39.841634163416,0,0
-144.71932660867,-151.80581874631,34.646064606461,1354239.5545095,1713.8222596259,2731792.4373414,39.846064606461,0,0
-144.71932650134,-151.82017284893,34.650495049505,1354239.5545095,1713.8222596259,2731792.4373414,39.850495049505,0,0
-144.71932639402,-151.83452695156,34.654925492549,1354239.5545095,1713.8222596259,2731792.4373414,39.854925492549,0,0
-144.7193262867,-151.84888105418,34.659355935594,1354239.5545095,1713.8222596259,2731792.4373414,39.859355935594,0,0
-144.71932617937,-151.86323515681,34.663786378638,1354239.5545095,1713.8222596259,2731792.4373414,39.863786378638,0,0
-144.71932607205,-151.87758925943,34.668216821682,1354239.5545095,1713.8222596259,2731792.4373414,39.868216821682,0,0
-144.71932596472,-151.89194336205,34.672647264726,1354239.5545095,1713.8222596259,2731792.4373414,39.872647264726,0,0
-144.7193258574,-151.90629746468,34.677077707771,1354239.5545095,1713.8222596259,2731792.4373414,39.877077707771,0,0
-144.71932575007,-151.9206515673,34.681508150815,1354239.5545095,1713.8222596259,2731792.4373414,39.881508150815,0,0
-144.71932564275,-151.93500566993,34.685938593859,1354239.5545095,1713.8222596259,2731792.4373414,39.885938593859,0,0
-144.71932553542,-151.94935977255,34.690369036904,1354239.5545095,1713.8222596259,2731792.4373414,39.890369036904,0,0
-144.7193254281,-151.96371387518,34.694799479948,1354239.5545095,1713.8222596259,2731792.4373414,39.894799479948,0,0
-144.71932532078,-151.9780679778,34.699229922992,1354239.5545095,1713.8222596259,2731792.4373414,39.899229922992,0,0
-144.71932521345,-151.99242208042,34.703660366037,1354239.5545095,1713.8222596259,2731792.4373414,39.903660366037,0,0
-144.71932510613,-152.00677618305,34.708090809081,1354239.5545095,1713.8222596259,2731792.4373414,39.908090809081,0,0
-144.7193249988,-152.02113028567,34.712521252125,1354239.5545095,1713.8222596259,2731792.4373414,39.912521252125,0,0
-144.71932489148,-152.0354843883,34.71695169517,1354239.5545095,1713.8222596259,2731792.4373414,39.91695169517,0,0
-144.71932478415,-152.04983849092,34.721382138214,1354239.5545095,1713.8222596259,2731792.4373414,39.921382138214,0,0
-144.71932467683,-152.06419259354,34.725812581258,1354239.5545095,1713.8222596259,2731792.4373414,39.925812581258,0,0
-144.7193245695,-152.07854669617,34.730243024302,1354239.5545095,1713.8222596259,2731792.4373414,39.930243024302,0,0
-144.71932446218,-152.09290079879,34.734673467347,1354239.5545095,1713.8222596259,2731792.4373414,39.934673467347,0,0
-144.71932435486,-152.10725490142,34.739103910391,1354239.5545095,1713.8222596259,2731792.4373414,39.939103910391,0,0
-144.71932424753,-152.12160900404,34.743534353435,1354239.5545095,1713.8222596259,2731792.4373414,39.943534353435,0,0
-144.71932414021,-152.13596310667,34.74796479648,1354239.5545095,1713.8222596259,2731792.4373414,39.94796479648,0,0
-144.71932403288,-152.15031720929,34.752395239524,1354239.5545095,1713.8222596259,2731792.4373414,39.952395239524,0,0
-144.71932392556,-152.16467131191,34.756825682568,1354239.5545095,1713.8222596259,2731792.4373414,39.956825682568,0,0
-144.71932381823,-152.17902541454,34.761256125613,1354239.5545095,1713.8222596259,2731792.4373414,39.961256125613,0,0
-144.71932371091,-152.19337951716,34.765686568657,1354239.5545095,1713.8222596259,2731792.4373414,39.965686568657,0,0
-144.71932360358,-152.20773361979,34.770117011701,1354239.5545095,1713.8222596259,2731792.4373414,39.970117011701,0,0
-144.71932349626,-152.22208772241,34.774547454745,1354239.5545095,1713.8222596259,2731792.4373414,39.974547454745,0,0
-144.71932338894,-152.23644182503,34.77897789779,1354239.5545095,1713.8222596259,2731792.4373414,39.97897789779,0,0
-144.71932328161,-152.25079592766,34.783408340834,1354239.5545095,1713.8222596259,2731792.4373414,39.983408340834,0,0
-144.71932317429,-152.26515003028,34.787838783878,1354239.5545095,1713.8222596259,2731792.4373414,39.987838783878,0,0
-144.71932306696,-152.27950413291,34.792269226923,1354239.5545095,1713.8222596259,2731792.4373414,39.992269226923,0,0
-144.71932295964,-152.29385823553,34.796699669967,1354239.5545095,1713.8222596259,2731792.4373414,39.996699669967,0,0
-144.71932285231,-152.30821233816,34.801130113011,1354239.5545095,1713.8222596259,2731792.4373414,40.001130113011,0,0
-144.71932274499,-152.32256644078,34.805560556056,1354239.5545095,1713.8222596259,2731792.4373414,40.005560556056,0,0
-144.71932263766,-152.3369205434,34.8099909991,1354239.5545095,1713.8222596259,2731792.4373414,40.0099909991,0,0
-144.71932253034,-152.35127464603,34.814421442144,1354239.5545095,1713.8222596259,2731792.4373414,40.014421442144,0,0
-144.71932242302,-152.36562874865,34.818851885189,1354239.5545095,1713.8222596259,2731792.4373414,40.018851885189,0,0
-144.71932231569,-152.37998285128,34.823282328233,1354239.5545095,1713.8222596259,2731792.4373414,40.023282328233,0,0
-144.71932220837,-152.3943369539,34.827712771277,1354239.5545095,1713.8222596259,2731792.4373414,40.027712771277,0,0
-144.71932210104,-152.40869105652,34.832143214321,1354239.5545095,1713.8222596259,2731792.4373414,40.032143214321,0,0
-144.71932199372,-152.42304515915,34.836573657366,1354239.5545095,1713.8222596259,2731792.4373414,40.036573657366,0,0
-144.71932188639,-152.43739926177,34.84100410041,1354239.5545095,1713.8222596259,2731792.4373414,40.04100410041,0,0
-144.71932177907,-152.4517533644,34.845434543454,1354239.5545095,1713.8222596259,2731792.4373414,40.045434543454,0,0
-144.71932167174,-152.46610746702,34.849864986499,1354239.5545095,1713.8222596259,2731792.4373414,40.049864986499,0,0
-144.71932156442,-152.48046156964,34.854295429543,1354239.5545095,1713.8222596259,2731792.4373414,40.054295429543,0,0
-144.7193214571,-152.49481567227,34.858725872587,1354239.5545095,1713.8222596259,2731792.4373414,40.058725872587,0,0
-144.71932134977,-152.50916977489,34.863156315632,1354239.5545095,1713.8222596259,2731792.4373414,40.063156315632,0,0
-144.71932124245,-152.52352387752,34.867586758676,1354239.5545095,1713.8222596259,2731792.4373414,40.067586758676,0,0
-144.71932113512,-152.53787798014,34.87201720172,1354239.5545095,1713.8222596259,2731792.4373414,40.07201720172,0,0
-144.7193210278,-152.55223208277,34.876447644764,1354239.5545095,1713.8222596259,2731792.4373414,40.076447644764,0,0
-144.71932092047,-152.56658618539,34.880878087809,1354239.5545095,1713.8222596259,2731792.4373414,40.080878087809,0,0
-144.71932081315,-152.58094028801,34.885308530853,1354239.5545095,1713.8222596259,2731792.4373414,40.085308530853,0,0
-144.71932070582,-152.59529439064,34.889738973897,1354239.5545095,1713.8222596259,2731792.4373414,40.089738973897,0,0
-144.7193205985,-152.60964849326,34.894169416942,1354239.5545095,1713.8222596259,2731792.4373414,40.094169416942,0,0
-144.71932049118,-152.62400259589,34.898599859986,1354239.5545095,1713.8222596259,2731792.4373414,40.098599859986,0,0
-144.71932038385,-152.63835669851,34.90303030303,1354239.5545095,1713.8222596259,2731792.4373414,40.10303030303,0,0
-144.71932027653,-152.65271080113,34.907460746075,1354239.5545095,1713.8222596259,2731792.4373414,40.107460746075,0,0
-144.7193201692,-152.66706490376,34.911891189119,1354239.5545095,1713.8222596259,2731792.4373414,40.111891189119,0,0
-144.71932006188,-152.68141900638,34.916321632163,1354239.5545095,1713.8222596259,2731792.4373414,40.116321632163,0,0
-144.71931995455,-152.69577310901,34.920752075208,1354239.5545095,1713.8222596259,2731792.4373414,40.120752075208,0,0
-144.71931984723,-152.71012721163,34.925182518252,1354239.5545095,1713.8222596259,2731792.4373414,40.125182518252,0,0
-144.7193197399,-152.72448131426,34.929612961296,1354239.5545095,1713.8222596259,2731792.4373414,40.129612961296,0,0
-144.71931963258,-152.73883541688,34.93404340434,1354239.5545095,1713.8222596259,2731792.4373414,40.13404340434,0,0
-144.71931952526,-152.7531895195,34.938473847385,1354239.5545095,1713.8222596259,2731792.4373414,40.138473847385,0,0
-144.71931941793,-152.76754362213,34.942904290429,1354239.5545095,1713.8222596259,2731792.4373414,40.142904290429,0,0
-144.71931931061,-152.78189772475,34.947334733473,1354239.5545095,1713.8222596259,2731792.4373414,40.147334733473,0,0
-144.71931920328,-152.79625182738,34.951765176518,1354239.5545095,1713.8222596259,2731792.4373414,40.151765176518,0,0
-144.71931909596,-152.81060593,34.956195619562,1354239.5545095,1713.8222596259,2731792.4373414,40.156195619562,0,0
-144.71931898863,-152.82496003262,34.960626062606,1354239.5545095,1713.8222596259,2731792.4373414,40.160626062606,0,0
-144.71931888131,-152.83931413525,34.965056505651,1354239.5545095,1713.8222596259,2731792.4373414,40.165056505651,0,0
-144.71931877398,-152.85366823787,34.969486948695,1354239.5545095,1713.8222596259,2731792.4373414,40.169486948695,0,0
-144.71931866666,-152.8680223405,34.973917391739,1354239.5545095,1713.8222596259,2731792.4373414,40.173917391739,0,0
-144.71931855934,-152.88237644312,34.978347834783,1354239.5545095,1713.8222596259,2731792.4373414,40.178347834783,0,0
-144.71931845201,-152.89673054575,34.982778277828,1354239.5545095,1713.8222596259,2731792.4373414,40.182778277828,0,0
-144.71931834469,-152.91108464837,34.987208720872,1354239.5545095,1713.8222596259,2731792.4373414,40.187208720872,0,0
-144.71931823736,-152.92543875099,34.991639163916,1354239.5545095,1713.8222596259,2731792.4373414,40.191639163916,0,0
-144.71931813004,-152.93979285362,34.996069606961,1354239.5545095,1713.8222596259,2731792.4373414,40.196069606961,0,0
-144.71931802271,-152.95414695624,35.000500050005,1354239.5545095,1713.8222596259,2731792.4373414,40.200500050005,0,0
-144.71931791539,-152.96850105887,35.004930493049,1354239.5545095,1713.8222596259,2731792.4373414,40.204930493049,0,0
-144.71931780806,-152.98285516149,35.009360936094,1354239.5545095,1713.8222596259,2731792.4373414,40.209360936094,0,0
-144.71931770074,-152.99720926411,35.013791379138,1354239.5545095,1713.8222596259,2731792.4373414,40.213791379138,0,0
-144.71931759341,-153.01156336674,35.018221822182,1354239.5545095,1713.8222596259,2731792.4373414,40.218221822182,0,0
-144.71931748609,-153.02591746936,35.022652265227,1354239.5545095,1713.8222596259,2731792.4373414,40.222652265227,0,0
-144.71931737877,-153.04027157199,35.027082708271,1354239.5545095,1713.8222596259,2731792.4373414,40.227082708271,0,0
-144.71931727144,-153.05462567461,35.031513151315,1354239.5545095,1713.8222596259,2731792.4373414,40.231513151315,0,0
-144.71931716412,-153.06897977724,35.035943594359,1354239.5545095,1713.8222596259,2731792.4373414,40.235943594359,0,0
-144.71931705679,-153.08333387986,35.040374037404,1354239.5545095,1713.8222596259,2731792.4373414,40.240374037404,0,0
-144.71931694947,-153.09768798248,35.044804480448,1354239.5545095,1713.8222596259,2731792.4373414,40.244804480448,0,0
-144.71931684214,-153.11204208511,35.049234923492,1354239.5545095,1713.8222596259,2731792.4373414,40.249234923492,0,0
-144.71931673482,-153.12639618773,35.053665366537,1354239.5545095,1713.8222596259,2731792.4373414,40.253665366537,0,0
-144.71931662749,-153.14075029036,35.058095809581,1354239.5545095,1713.8222596259,2731792.4373414,40.258095809581,0,0
-144.71931652017,-153.15510439298,35.062526252625,1354239.5545095,1713.8222596259,2731792.4373414,40.262526252625,0,0
-144.71931641285,-153.1694584956,35.06695669567,1354239.5545095,1713.8222596259,2731792.4373414,40.26695669567,0,0
-144.71931630552,-153.18381259823,35.071387138714,1354239.5545095,1713.8222596259,2731792.4373414,40.271387138714,0,0
-144.7193161982,-153.19816670085,35.075817581758,1354239.5545095,1713.8222596259,2731792.4373414,40.275817581758,0,0
-144.71931609087,-153.21252080348,35.080248024802,1354239.5545095,1713.8222596259,2731792.4373414,40.280248024802,0,0
-144.71931598355,-153.2268749061,35.084678467847,1354239.5545095,1713.8222596259,2731792.4373414,40.284678467847,0,0
-144.71931587622,-153.24122900873,35.089108910891,1354239.5545095,1713.8222596259,2731792.4373414,40.289108910891,0,0
-144.7193157689,-153.25558311135,35.093539353935,1354239.5545095,1713.8222596259,2731792.4373414,40.293539353935,0,0
-144.71931566157,-153.26993721397,35.09796979698,1354239.5545095,1713.8222596259,2731792.4373414,40.29796979698,0,0
-144.71931555425,-153.2842913166,35.102400240024,1354239.5545095,1713.8222596259,2731792.4373414,40.302400240024,0,0
-144.71931544693,-153.29864541922,35.106830683068,1354239.5545095,1713.8222596259,2731792.4373414,40.306830683068,0,0
-144.7193153396,-153.31299952185,35.111261126113,1354239.5545095,1713.8222596259,2731792.4373414,40.311261126113,0,0
-144.71931523228,-153.32735362447,35.115691569157,1354239.5545095,1713.8222596259,2731792.4373414,40.315691569157,0,0
-144.71931512495,-153.34170772709,35.120122012201,1354239.5545095,1713.8222596259,2731792.4373414,40.320122012201,0,0
-144.71931501763,-153.35606182972,35.124552455246,1354239.5545095,1713.8222596259,2731792.4373414,40.324552455246,0,0
-144.7193149103,-153.37041593234,35.12898289829,1354239.5545095,1713.8222596259,2731792.4373414,40.32898289829,0,0
-144.71931480298,-153.38477003497,35.133413341334,1354239.5545095,1713.8222596259,2731792.4373414,40.333413341334,0,0
-144.71931469565,-153.39912413759,35.137843784378,1354239.5545095,1713.8222596259,2731792.4373414,40.337843784378,0,0
-144.71931458833,-153.41347824022,35.142274227423,1354239.5545095,1713.8222596259,2731792.4373414,40.342274227423,0,0
-144.71931448101,-153.42783234284,35.146704670467,1354239.5545095,1713.8222596259,2731792.4373414,40.346704670467,0,0
-144.71931437368,-153.44218644546,35.151135113511,1354239.5545095,1713.8222596259,2731792.4373414,40.351135113511,0,0
-144.71931426636,-153.45654054809,35.155565556556,1354239.5545095,1713.8222596259,2731792.4373414,40.355565556556,0,0
-144.71931415903,-153.47089465071,35.1599959996,1354239.5545095,1713.8222596259,2731792.4373414,40.3599959996,0,0
-144.71931405171,-153.48524875334,35.164426442644,1354239.5545095,1713.8222596259,2731792.4373414,40.364426442644,0,0
-144.71931394438,-153.49960285596,35.168856885689,1354239.5545095,1713.8222596259,2731792.4373414,40.368856885689,0,0
-144.71931383706,-153.51395695858,35.173287328733,1354239.5545095,1713.8222596259,2731792.4373414,40.373287328733,0,0
-144.71931372973,-153.52831106121,35.177717771777,1354239.5545095,1713.8222596259,2731792.4373414,40.377717771777,0,0
-144.71931362241,-153.54266516383,35.182148214821,1354239.5545095,1713.8222596259,2731792.4373414,40.382148214821,0,0
-144.71931351509,-153.55701926646,35.186578657866,1354239.5545095,1713.8222596259,2731792.4373414,40.386578657866,0,0
-144.71931340776,-153.57137336908,35.19100910091,1354239.5545095,1713.8222596259,2731792.4373414,40.39100910091,0,0
-144.71931330044,-153.58572747171,35.195439543954,1354239.5545095,1713.8222596259,2731792.4373414,40.395439543954,0,0
-144.71931319311,-153.60008157433,35.199869986999,1354239.5545095,1713.8222596259,2731792.4373414,40.399869986999,0,0
-144.71931308579,-153.61443567695,35.204300430043,1354239.5545095,1713.8222596259,2731792.4373414,40.404300430043,0,0
-144.71931297846,-153.62878977958,35.208730873087,1354239.5545095,1713.8222596259,2731792.4373414,40.408730873087,0,0
-144.71931287114,-153.6431438822,35.213161316132,1354239.5545095,1713.8222596259,2731792.4373414,40.413161316132,0,0
-144.71931276381,-153.65749798483,35.217591759176,1354239.5545095,1713.8222596259,2731792.4373414,40.417591759176,0,0
-144.71931265649,-153.67185208745,35.22202220222,1354239.5545095,1713.8222596259,2731792.4373414,40.42202220222,0,0
-144.71931254917,-153.68620619007,35.226452645265,1354239.5545095,1713.8222596259,2731792.4373414,40.426452645265,0,0
-144.71931244184,-153.7005602927,35.230883088309,1354239.5545095,1713.8222596259,2731792.4373414,40.430883088309,0,0
-144.71931233452,-153.71491439532,35.235313531353,1354239.5545095,1713.8222596259,2731792.4373414,40.435313531353,0,0
-144.71931222719,-153.72926849795,35.239743974397,1354239.5545095,1713.8222596259,2731792.4373414,40.439743974397,0,0
-144.71931211987,-153.74362260057,35.244174417442,1354239.5545095,1713.8222596259,2731792.4373414,40.444174417442,0,0
-144.71931201254,-153.7579767032,35.248604860486,1354239.5545095,1713.8222596259,2731792.4373414,40.448604860486,0,0
-144.71931190522,-153.77233080582,35.25303530353,1354239.5545095,1713.8222596259,2731792.4373414,40.45303530353,0,0
-144.71931179789,-153.78668490844,35.257465746575,1354239.5545095,1713.8222596259,2731792.4373414,40.457465746575,0,0
-144.71931169057,-153.80103901107,35.261896189619,1354239.5545095,1713.8222596259,2731792.4373414,40.461896189619,0,0
-144.71931158325,-153.81539311369,35.266326632663,1354239.5545095,1713.8222596259,2731792.4373414,40.466326632663,0,0
-144.71931147592,-153.82974721632,35.270757075708,1354239.5545095,1713.8222596259,2731792.4373414,40.470757075708,0,0
-144.7193113686,-153.84410131894,35.275187518752,1354239.5545095,1713.8222596259,2731792.4373414,40.475187518752,0,0
-144.71931126127,-153.85845542156,35.279617961796,1354239.5545095,1713.8222596259,2731792.4373414,40.479617961796,0,0
-144.71931115395,-153.87280952419,35.28404840484,1354239.5545095,1713.8222596259,2731792.4373414,40.48404840484,0,0
-144.71931104662,-153.88716362681,35.288478847885,1354239.5545095,1713.8222596259,2731792.4373414,40.488478847885,0,0
-144.7193109393,-153.90151772944,35.292909290929,1354239.5545095,1713.8222596259,2731792.4373414,40.492909290929,0,0
-144.71931083197,-153.91587183206,35.297339733973,1354239.5545095,1713.8222596259,2731792.4373414,40.497339733973,0,0
-144.71931072465,-153.93022593469,35.301770177018,1354239.5545095,1713.8222596259,2731792.4373414,40.501770177018,0,0
-144.71931061733,-153.94458003731,35.306200620062,1354239.5545095,1713.8222596259,2731792.4373414,40.506200620062,0,0
-144.71931051,-153.95893413993,35.310631063106,1354239.5545095,1713.8222596259,2731792.4373414,40.510631063106,0,0
-144.71931040268,-153.97328824256,35.315061506151,1354239.5545095,1713.8222596259,2731792.4373414,40.515061506151,0,0
-144.71931029535,-153.98764234518,35.319491949195,1354239.5545095,1713.8222596259,2731792.4373414,40.519491949195,0,0
-144.71931018803,-154.00199644781,35.323922392239,1354239.5545095,1713.8222596259,2731792.4373414,40.523922392239,0,0
-144.7193100807,-154.01635055043,35.328352835284,1354239.5545095,1713.8222596259,2731792.4373414,40.528352835284,0,0
-144.71930997338,-154.03070465305,35.332783278328,1354239.5545095,1713.8222596259,2731792.4373414,40.532783278328,0,0
-144.71930986605,-154.04505875568,35.337213721372,1354239.5545095,1713.8222596259,2731792.4373414,40.537213721372,0,0
-144.71930975873,-154.0594128583,35.341644164416,1354239.5545095,1713.8222596259,2731792.4373414,40.541644164416,0,0
-144.71930965141,-154.07376696093,35.346074607461,1354239.5545095,1713.8222596259,2731792.4373414,40.546074607461,0,0
-144.71930954408,-154.08812106355,35.350505050505,1354239.5545095,1713.8222596259,2731792.4373414,40.550505050505,0,0
-144.71930943676,-154.10247516618,35.354935493549,1354239.5545095,1713.8222596259,2731792.4373414,40.554935493549,0,0
-144.71930932943,-154.1168292688,35.359365936594,1354239.5545095,1713.8222596259,2731792.4373414,40.559365936594,0,0
-144.71930922211,-154.13118337142,35.363796379638,1354239.5545095,1713.8222596259,2731792.4373414,40.563796379638,0,0
-144.71930911478,-154.14553747405,35.368226822682,1354239.5545095,1713.8222596259,2731792.4373414,40.568226822682,0,0
-144.71930900746,-154.15989157667,35.372657265727,1354239.5545095,1713.8222596259,2731792.4373414,40.572657265727,0,0
-144.71930890013,-154.1742456793,35.377087708771,1354239.5545095,1713.8222596259,2731792.4373414,40.577087708771,0,0
-144.71930879281,-154.18859978192,35.381518151815,1354239.5545095,1713.8222596259,2731792.4373414,40.581518151815,0,0
-144.71930868549,-154.20295388454,35.385948594859,1354239.5545095,1713.8222596259,2731792.4373414,40.585948594859,0,0
-144.71930857816,-154.21730798717,35.390379037904,1354239.5545095,1713.8222596259,2731792.4373414,40.590379037904,0,0
-144.71930847084,-154.23166208979,35.394809480948,1354239.5545095,1713.8222596259,2731792.4373414,40.594809480948,0,0
-144.71930836351,-154.24601619242,35.399239923992,1354239.5545095,1713.8222596259,2731792.4373414,40.599239923992,0,0
-144.71930825619,-154.26037029504,35.403670367037,1354239.5545095,1713.8222596259,2731792.4373414,40.603670367037,0,0
-144.71930814886,-154.27472439767,35.408100810081,1354239.5545095,1713.8222596259,2731792.4373414,40.608100810081,0,0
-144.71930804154,-154.28907850029,35.412531253125,1354239.5545095,1713.8222596259,2731792.4373414,40.612531253125,0,0
-144.71930793421,-154.30343260291,35.41696169617,1354239.5545095,1713.8222596259,2731792.4373414,40.61696169617,0,0
-144.71930782689,-154.31778670554,35.421392139214,1354239.5545095,1713.8222596259,2731792.4373414,40.621392139214,0,0
-144.71930771957,-154.33214080816,35.425822582258,1354239.5545095,1713.8222596259,2731792.4373414,40.625822582258,0,0
-144.71930761224,-154.34649491079,35.430253025303,1354239.5545095,1713.8222596259,2731792.4373414,40.630253025303,0,0
-144.71930750492,-154.36084901341,35.434683468347,1354239.5545095,1713.8222596259,2731792.4373414,40.634683468347,0,0
-144.71930739759,-154.37520311603,35.439113911391,1354239.5545095,1713.8222596259,2731792.4373414,40.639113911391,0,0
-144.71930729027,-154.38955721866,35.443544354435,1354239.5545095,1713.8222596259,2731792.4373414,40.643544354435,0,0
-144.71930718294,-154.40391132128,35.44797479748,1354239.5545095,1713.8222596259,2731792.4373414,40.64797479748,0,0
-144.71930707562,-154.41826542391,35.452405240524,1354239.5545095,1713.8222596259,2731792.4373414,40.652405240524,0,0
-144.71930696829,-154.43261952653,35.456835683568,1354239.5545095,1713.8222596259,2731792.4373414,40.656835683568,0,0
-144.71930686097,-154.44697362915,35.461266126613,1354239.5545095,1713.8222596259,2731792.4373414,40.661266126613,0,0
-144.71930675365,-154.46132773178,35.465696569657,1354239.5545095,1713.8222596259,2731792.4373414,40.665696569657,0,0
-144.71930664632,-154.4756818344,35.470127012701,1354239.5545095,1713.8222596259,2731792.4373414,40.670127012701,0,0
-144.719306539,-154.49003593703,35.474557455746,1354239.5545095,1713.8222596259,2731792.4373414,40.674557455746,0,0
-144.71930643167,-154.50439003965,35.47898789879,1354239.5545095,1713.8222596259,2731792.4373414,40.67898789879,0,0
-144.71930632435,-154.51874414228,35.483418341834,1354239.5545095,1713.8222596259,2731792.4373414,40.683418341834,0,0
-144.71930621702,-154.5330982449,35.487848784878,1354239.5545095,1713.8222596259,2731792.4373414,40.687848784878,0,0
-144.7193061097,-154.54745234752,35.492279227923,1354239.5545095,1713.8222596259,2731792.4373414,40.692279227923,0,0
-144.71930600237,-154.56180645015,35.496709670967,1354239.5545095,1713.8222596259,2731792.4373414,40.696709670967,0,0
-144.71930589505,-154.57616055277,35.501140114011,1354239.5545095,1713.8222596259,2731792.4373414,40.701140114011,0,0
-144.71930578773,-154.5905146554,35.505570557056,1354239.5545095,1713.8222596259,2731792.4373414,40.705570557056,0,0
-144.7193056804,-154.60486875802,35.5100010001,1354239.5545095,1713.8222596259,2731792.4373414,40.7100010001,0,0
-144.71930557308,-154.61922286064,35.514431443144,1354239.5545095,1713.8222596259,2731792.4373414,40.714431443144,0,0
-144.71930546575,-154.63357696327,35.518861886189,1354239.5545095,1713.8222596259,2731792.4373414,40.718861886189,0,0
-144.71930535843,-154.64793106589,35.523292329233,1354239.5545095,1713.8222596259,2731792.4373414,40.723292329233,0,0
-144.7193052511,-154.66228516852,35.527722772277,1354239.5545095,1713.8222596259,2731792.4373414,40.727722772277,0,0
-144.71930514378,-154.67663927114,35.532153215322,1354239.5545095,1713.8222596259,2731792.4373414,40.732153215322,0,0
-144.71930503645,-154.69099337377,35.536583658366,1354239.5545095,1713.8222596259,2731792.4373414,40.736583658366,0,0
-144.71930492913,-154.70534747639,35.54101410141,1354239.5545095,1713.8222596259,2731792.4373414,40.74101410141,0,0
-144.7193048218,-154.71970157901,35.545444544454,1354239.5545095,1713.8222596259,2731792.4373414,40.745444544454,0,0
-144.71930471448,-154.73405568164,35.549874987499,1354239.5545095,1713.8222596259,2731792.4373414,40.749874987499,0,0
-144.71930460716,-154.74840978426,35.554305430543,1354239.5545095,1713.8222596259,2731792.4373414,40.754305430543,0,0
-144.71930449983,-154.76276388689,35.558735873587,1354239.5545095,1713.8222596259,2731792.4373414,40.758735873587,0,0
-144.71930439251,-154.77711798951,35.563166316632,1354239.5545095,1713.8222596259,2731792.4373414,40.763166316632,0,0
-144.71930428518,-154.79147209213,35.567596759676,1354239.5545095,1713.8222596259,2731792.4373414,40.767596759676,0,0
-144.71930417786,-154.80582619476,35.57202720272,1354239.5545095,1713.8222596259,2731792.4373414,40.77202720272,0,0
-144.71930407053,-154.82018029738,35.576457645765,1354239.5545095,1713.8222596259,2731792.4373414,40.776457645765,0,0
-144.71930396321,-154.83453440001,35.580888088809,1354239.5545095,1713.8222596259,2731792.4373414,40.780888088809,0,0
-144.71930385588,-154.84888850263,35.585318531853,1354239.5545095,1713.8222596259,2731792.4373414,40.785318531853,0,0
-144.71930374856,-154.86324260526,35.589748974897,1354239.5545095,1713.8222596259,2731792.4373414,40.789748974897,0,0
-144.71930364124,-154.87759670788,35.594179417942,1354239.5545095,1713.8222596259,2731792.4373414,40.794179417942,0,0
-144.71930353391,-154.8919508105,35.598609860986,1354239.5545095,1713.8222596259,2731792.4373414,40.798609860986,0,0
-144.71930342659,-154.90630491313,35.60304030403,1354239.5545095,1713.8222596259,2731792.4373414,40.80304030403,0,0
-144.71930331926,-154.92065901575,35.607470747075,1354239.5545095,1713.8222596259,2731792.4373414,40.807470747075,0,0
-144.71930321194,-154.93501311838,35.611901190119,1354239.5545095,1713.8222596259,2731792.4373414,40.811901190119,0,0
-144.71930310461,-154.949367221,35.616331633163,1354239.5545095,1713.8222596259,2731792.4373414,40.816331633163,0,0
-144.71930299729,-154.96372132362,35.620762076208,1354239.5545095,1713.8222596259,2731792.4373414,40.820762076208,0,0
-144.71930288996,-154.97807542625,35.625192519252,1354239.5545095,1713.8222596259,2731792.4373414,40.825192519252,0,0
-144.71930278264,-154.99242952887,35.629622962296,1354239.5545095,1713.8222596259,2731792.4373414,40.829622962296,0,0
-144.71930267532,-155.0067836315,35.634053405341,1354239.5545095,1713.8222596259,2731792.4373414,40.834053405341,0,0
-144.71930256799,-155.02113773412,35.638483848385,1354239.5545095,1713.8222596259,2731792.4373414,40.838483848385,0,0
-144.71930246067,-155.03549183675,35.642914291429,1354239.5545095,1713.8222596259,2731792.4373414,40.842914291429,0,0
-144.71930235334,-155.04984593937,35.647344734473,1354239.5545095,1713.8222596259,2731792.4373414,40.847344734473,0,0
-144.71930224602,-155.06420004199,35.651775177518,1354239.5545095,1713.8222596259,2731792.4373414,40.851775177518,0,0
-144.71930213869,-155.07855414462,35.656205620562,1354239.5545095,1713.8222596259,2731792.4373414,40.856205620562,0,0
-144.71930203137,-155.09290824724,35.660636063606,1354239.5545095,1713.8222596259,2731792.4373414,40.860636063606,0,0
-144.71930192404,-155.10726234987,35.665066506651,1354239.5545095,1713.8222596259,2731792.4373414,40.865066506651,0,0
-144.71930181672,-155.12161645249,35.669496949695,1354239.5545095,1713.8222596259,2731792.4373414,40.869496949695,0,0
-144.7193017094,-155.13597055511,35.673927392739,1354239.5545095,1713.8222596259,2731792.4373414,40.873927392739,0,0
-144.71930160207,-155.15032465774,35.678357835784,1354239.5545095,1713.8222596259,2731792.4373414,40.878357835784,0,0
-144.71930149475,-155.16467876036,35.682788278828,1354239.5545095,1713.8222596259,2731792.4373414,40.882788278828,0,0
-144.71930138742,-155.17903286299,35.687218721872,1354239.5545095,1713.8222596259,2731792.4373414,40.887218721872,0,0
-144.7193012801,-155.19338696561,35.691649164916,1354239.5545095,1713.8222596259,2731792.4373414,40.891649164916,0,0
-144.71930117277,-155.20774106824,35.696079607961,1354239.5545095,1713.8222596259,2731792.4373414,40.896079607961,0,0
-144.71930106545,-155.22209517086,35.700510051005,1354239.5545095,1713.8222596259,2731792.4373414,40.900510051005,0,0
-144.71930095812,-155.23644927348,35.704940494049,1354239.5545095,1713.8222596259,2731792.4373414,40.904940494049,0,0
-144.7193008508,-155.25080337611,35.709370937094,1354239.5545095,1713.8222596259,2731792.4373414,40.909370937094,0,0
-144.71930074348,-155.26515747873,35.713801380138,1354239.5545095,1713.8222596259,2731792.4373414,40.913801380138,0,0
-144.71930063615,-155.27951158136,35.718231823182,1354239.5545095,1713.8222596259,2731792.4373414,40.918231823182,0,0
-144.71930052883,-155.29386568398,35.722662266227,1354239.5545095,1713.8222596259,2731792.4373414,40.922662266227,0,0
-144.7193004215,-155.3082197866,35.727092709271,1354239.5545095,1713.8222596259,2731792.4373414,40.927092709271,0,0
-144.71930031418,-155.32257388923,35.731523152315,1354239.5545095,1713.8222596259,2731792.4373414,40.931523152315,0,0
-144.71930020685,-155.33692799185,35.73595359536,1354239.5545095,1713.8222596259,2731792.4373414,40.93595359536,0,0
-144.71930009953,-155.35128209448,35.740384038404,1354239.5545095,1713.8222596259,2731792.4373414,40.940384038404,0,0
-144.7192999922,-155.3656361971,35.744814481448,1354239.5545095,1713.8222596259,2731792.4373414,40.944814481448,0,0
-144.71929988488,-155.37999029973,35.749244924492,1354239.5545095,1713.8222596259,2731792.4373414,40.949244924492,0,0
-144.71929977756,-155.39434440235,35.753675367537,1354239.5545095,1713.8222596259,2731792.4373414,40.953675367537,0,0
-144.71929967023,-155.40869850497,35.758105810581,1354239.5545095,1713.8222596259,2731792.4373414,40.958105810581,0,0
-144.71929956291,-155.4230526076,35.762536253625,1354239.5545095,1713.8222596259,2731792.4373414,40.962536253625,0,0
-144.71929945558,-155.43740671022,35.76696669667,1354239.5545095,1713.8222596259,2731792.4373414,40.96696669667,0,0
-144.71929934826,-155.45176081285,35.771397139714,1354239.5545095,1713.8222596259,2731792.4373414,40.971397139714,0,0
-144.71929924093,-155.46611491547,35.775827582758,1354239.5545095,1713.8222596259,2731792.4373414,40.975827582758,0,0
-144.71929913361,-155.48046901809,35.780258025803,1354239.5545095,1713.8222596259,2731792.4373414,40.980258025803,0,0
-144.71929902628,-155.49482312072,35.784688468847,1354239.5545095,1713.8222596259,2731792.4373414,40.984688468847,0,0
-144.71929891896,-155.50917722334,35.789118911891,1354239.5545095,1713.8222596259,2731792.4373414,40.989118911891,0,0
-144.71929881164,-155.52353132597,35.793549354935,1354239.5545095,1713.8222596259,2731792.4373414,40.993549354935,0,0
-144.71929870431,-155.53788542859,35.79797979798,1354239.5545095,1713.8222596259,2731792.4373414,40.99797979798,0,0
-144.71929859699,-155.55223953122,35.802410241024,1354239.5545095,1713.8222596259,2731792.4373414,41.002410241024,0,0
-144.71929848966,-155.56659363384,35.806840684068,1354239.5545095,1713.8222596259,2731792.4373414,41.006840684068,0,0
-144.71929838234,-155.58094773646,35.811271127113,1354239.5545095,1713.8222596259,2731792.4373414,41.011271127113,0,0
-144.71929827501,-155.59530183909,35.815701570157,1354239.5545095,1713.8222596259,2731792.4373414,41.015701570157,0,0
-144.71929816769,-155.60965594171,35.820132013201,1354239.5545095,1713.8222596259,2731792.4373414,41.020132013201,0,0
-144.71929806036,-155.62401004434,35.824562456246,1354239.5545095,1713.8222596259,2731792.4373414,41.024562456246,0,0
-144.71929795304,-155.63836414696,35.82899289929,1354239.5545095,1713.8222596259,2731792.4373414,41.02899289929,0,0
-144.71929784572,-155.65271824958,35.833423342334,1354239.5545095,1713.8222596259,2731792.4373414,41.033423342334,0,0
-144.71929773839,-155.66707235221,35.837853785379,1354239.5545095,1713.8222596259,2731792.4373414,41.037853785379,0,0
-144.71929763107,-155.68142645483,35.842284228423,1354239.5545095,1713.8222596259,2731792.4373414,41.042284228423,0,0
-144.71929752374,-155.69578055746,35.846714671467,1354239.5545095,1713.8222596259,2731792.4373414,41.046714671467,0,0
-144.71929741642,-155.71013466008,35.851145114511,1354239.5545095,1713.8222596259,2731792.4373414,41.051145114511,0,0
-144.71929730909,-155.72448876271,35.855575557556,1354239.5545095,1713.8222596259,2731792.4373414,41.055575557556,0,0
-144.71929720177,-155.73884286533,35.8600060006,1354239.5545095,1713.8222596259,2731792.4373414,41.0600060006,0,0
-144.71929709444,-155.75319696795,35.864436443644,1354239.5545095,1713.8222596259,2731792.4373414,41.064436443644,0,0
-144.71929698712,-155.76755107058,35.868866886689,1354239.5545095,1713.8222596259,2731792.4373414,41.068866886689,0,0
-144.7192968798,-155.7819051732,35.873297329733,1354239.5545095,1713.8222596259,2731792.4373414,41.073297329733,0,0
-144.71929677247,-155.79625927583,35.877727772777,1354239.5545095,1713.8222596259,2731792.4373414,41.077727772777,0,0
-144.71929666515,-155.81061337845,35.882158215822,1354239.5545095,1713.8222596259,2731792.4373414,41.082158215822,0,0
-144.71929655782,-155.82496748107,35.886588658866,1354239.5545095,1713.8222596259,2731792.4373414,41.086588658866,0,0
-144.7192964505,-155.8393215837,35.89101910191,1354239.5545095,1713.8222596259,2731792.4373414,41.09101910191,0,0
-144.71929634317,-155.85367568632,35.895449544954,1354239.5545095,1713.8222596259,2731792.4373414,41.095449544954,0,0
-144.71929623585,-155.86802978895,35.899879987999,1354239.5545095,1713.8222596259,2731792.4373414,41.099879987999,0,0
-144.71929612852,-155.88238389157,35.904310431043,1354239.5545095,1713.8222596259,2731792.4373414,41.104310431043,0,0
-144.7192960212,-155.8967379942,35.908740874087,1354239.5545095,1713.8222596259,2731792.4373414,41.108740874087,0,0
-144.71929591388,-155.91109209682,35.913171317132,1354239.5545095,1713.8222596259,2731792.4373414,41.113171317132,0,0
-144.71929580655,-155.92544619944,35.917601760176,1354239.5545095,1713.8222596259,2731792.4373414,41.117601760176,0,0
-144.71929569923,-155.93980030207,35.92203220322,1354239.5545095,1713.8222596259,2731792.4373414,41.12203220322,0,0
-144.7192955919,-155.95415440469,35.926462646265,1354239.5545095,1713.8222596259,2731792.4373414,41.126462646265,0,0
-144.71929548458,-155.96850850732,35.930893089309,1354239.5545095,1713.8222596259,2731792.4373414,41.130893089309,0,0
-144.71929537725,-155.98286260994,35.935323532353,1354239.5545095,1713.8222596259,2731792.4373414,41.135323532353,0,0
-144.71929526993,-155.99721671256,35.939753975398,1354239.5545095,1713.8222596259,2731792.4373414,41.139753975398,0,0
-144.7192951626,-156.01157081519,35.944184418442,1354239.5545095,1713.8222596259,2731792.4373414,41.144184418442,0,0
-144.71929505528,-156.02592491781,35.948614861486,1354239.5545095,1713.8222596259,2731792.4373414,41.148614861486,0,0
-144.71929494796,-156.04027902044,35.95304530453,1354239.5545095,1713.8222596259,2731792.4373414,41.15304530453,0,0
-144.71929484063,-156.05463312306,35.957475747575,1354239.5545095,1713.8222596259,2731792.4373414,41.157475747575,0,0
-144.71929473331,-156.06898722569,35.961906190619,1354239.5545095,1713.8222596259,2731792.4373414,41.161906190619,0,0
-144.71929462598,-156.08334132831,35.966336633663,1354239.5545095,1713.8222596259,2731792.4373414,41.166336633663,0,0
-144.71929451866,-156.09769543093,35.970767076708,1354239.5545095,1713.8222596259,2731792.4373414,41.170767076708,0,0
-144.71929441133,-156.11204953356,35.975197519752,1354239.5545095,1713.8222596259,2731792.4373414,41.175197519752,0,0
-144.71929430401,-156.12640363618,35.979627962796,1354239.5545095,1713.8222596259,2731792.4373414,41.179627962796,0,0
-144.71929419668,-156.14075773881,35.984058405841,1354239.5545095,1713.8222596259,2731792.4373414,41.184058405841,0,0
-144.71929408936,-156.15511184143,35.988488848885,1354239.5545095,1713.8222596259,2731792.4373414,41.188488848885,0,0
-144.71929398204,-156.16946594405,35.992919291929,1354239.5545095,1713.8222596259,2731792.4373414,41.192919291929,0,0
-144.71929387471,-156.18382004668,35.997349734973,1354239.5545095,1713.8222596259,2731792.4373414,41.197349734973,0,0
-144.71929376739,-156.1981741493,36.001780178018,1354239.5545095,1713.8222596259,2731792.4373414,41.201780178018,0,0
-144.71929366006,-156.21252825193,36.006210621062,1354239.5545095,1713.8222596259,2731792.4373414,41.206210621062,0,0
-144.71929355274,-156.22688235455,36.010641064106,1354239.5545095,1713.8222596259,2731792.4373414,41.210641064106,0,0
-144.71929344541,-156.24123645718,36.015071507151,1354239.5545095,1713.8222596259,2731792.4373414,41.215071507151,0,0
-144.71929333809,-156.2555905598,36.019501950195,1354239.5545095,1713.8222596259,2731792.4373414,41.219501950195,0,0
-144.71929323076,-156.26994466242,36.023932393239,1354239.5545095,1713.8222596259,2731792.4373414,41.223932393239,0,0
-144.71929312344,-156.28429876505,36.028362836284,1354239.5545095,1713.8222596259,2731792.4373414,41.228362836284,0,0
-144.71929301612,-156.29865286767,36.032793279328,1354239.5545095,1713.8222596259,2731792.4373414,41.232793279328,0,0
-144.71929290879,-156.3130069703,36.037223722372,1354239.5545095,1713.8222596259,2731792.4373414,41.237223722372,0,0
-144.71929280147,-156.32736107292,36.041654165417,1354239.5545095,1713.8222596259,2731792.4373414,41.241654165417,0,0
-144.71929269414,-156.34171517554,36.046084608461,1354239.5545095,1713.8222596259,2731792.4373414,41.246084608461,0,0
-144.71929258682,-156.35606927817,36.050515051505,1354239.5545095,1713.8222596259,2731792.4373414,41.250515051505,0,0
-144.71929247949,-156.37042338079,36.054945494549,1354239.5545095,1713.8222596259,2731792.4373414,41.254945494549,0,0
-144.71929237217,-156.38477748342,36.059375937594,1354239.5545095,1713.8222596259,2731792.4373414,41.259375937594,0,0
-144.71929226484,-156.39913158604,36.063806380638,1354239.5545095,1713.8222596259,2731792.4373414,41.263806380638,0,0
-144.71929215752,-156.41348568867,36.068236823682,1354239.5545095,1713.8222596259,2731792.4373414,41.268236823682,0,0
-144.7192920502,-156.42783979129,36.072667266727,1354239.5545095,1713.8222596259,2731792.4373414,41.272667266727,0,0
-144.71929194287,-156.44219389391,36.077097709771,1354239.5545095,1713.8222596259,2731792.4373414,41.277097709771,0,0
-144.71929183555,-156.45654799654,36.081528152815,1354239.5545095,1713.8222596259,2731792.4373414,41.281528152815,0,0
-144.71929172822,-156.47090209916,36.08595859586,1354239.5545095,1713.8222596259,2731792.4373414,41.28595859586,0,0
-144.7192916209,-156.48525620179,36.090389038904,1354239.5545095,1713.8222596259,2731792.4373414,41.290389038904,0,0
-144.71929151357,-156.49961030441,36.094819481948,1354239.5545095,1713.8222596259,2731792.4373414,41.294819481948,0,0
-144.71929140625,-156.51396440703,36.099249924992,1354239.5545095,1713.8222596259,2731792.4373414,41.299249924992,0,0
-144.71929129892,-156.52831850966,36.103680368037,1354239.5545095,1713.8222596259,2731792.4373414,41.303680368037,0,0
-144.7192911916,-156.54267261228,36.108110811081,1354239.5545095,1713.8222596259,2731792.4373414,41.308110811081,0,0
-144.71929108427,-156.55702671491,36.112541254125,1354239.5545095,1713.8222596259,2731792.4373414,41.312541254125,0,0
-144.71929097695,-156.57138081753,36.11697169717,1354239.5545095,1713.8222596259,2731792.4373414,41.31697169717,0,0
-144.71929086963,-156.58573492015,36.121402140214,1354239.5545095,1713.8222596259,2731792.4373414,41.321402140214,0,0
-144.7192907623,-156.60008902278,36.125832583258,1354239.5545095,1713.8222596259,2731792.4373414,41.325832583258,0,0
-144.71929065498,-156.6144431254,36.130263026303,1354239.5545095,1713.8222596259,2731792.4373414,41.330263026303,0,0
-144.71929054765,-156.62879722803,36.134693469347,1354239.5545095,1713.8222596259,2731792.4373414,41.334693469347,0,0
-144.71929044033,-156.64315133065,36.139123912391,1354239.5545095,1713.8222596259,2731792.4373414,41.339123912391,0,0
-144.719290333,-156.65750543328,36.143554355436,1354239.5545095,1713.8222596259,2731792.4373414,41.343554355436,0,0
-144.71929022568,-156.6718595359,36.14798479848,1354239.5545095,1713.8222596259,2731792.4373414,41.34798479848,0,0
-144.71929011834,-156.68621363861,36.152415241524,1354041.8801903,-633.6942738926,2726717.8243982,41.352415241524,0,0
-144.71929001089,-156.70056774181,36.156845684568,1354041.8801903,-633.6942738926,2726717.8243982,41.356845684568,0,0
-144.71928990345,-156.71492184502,36.161276127613,1354041.8801903,-633.6942738926,2726717.8243982,41.361276127613,0,0
-144.71928979601,-156.72927594823,36.165706570657,1354041.8801903,-633.6942738926,2726717.8243982,41.365706570657,0,0
-144.71928968856,-156.74363005143,36.170137013701,1354041.8801903,-633.6942738926,2726717.8243982,41.370137013701,0,0
-144.71928958112,-156.75798415464,36.174567456746,1354041.8801903,-633.6942738926,2726717.8243982,41.374567456746,0,0
-144.71928947367,-156.77233825785,36.17899789979,1354041.8801903,-633.6942738926,2726717.8243982,41.37899789979,0,0
-144.71928936623,-156.78669236105,36.183428342834,1354041.8801903,-633.6942738926,2726717.8243982,41.383428342834,0,0
-144.71928925879,-156.80104646426,36.187858785879,1354041.8801903,-633.6942738926,2726717.8243982,41.387858785879,0,0
-144.71928915134,-156.81540056746,36.192289228923,1354041.8801903,-633.6942738926,2726717.8243982,41.392289228923,0,0
-144.7192890439,-156.82975467067,36.196719671967,1354041.8801903,-633.6942738926,2726717.8243982,41.396719671967,0,0
-144.71928893646,-156.84410877388,36.201150115011,1354041.8801903,-633.6942738926,2726717.8243982,41.401150115011,0,0
-144.71928882901,-156.85846287708,36.205580558056,1354041.8801903,-633.6942738926,2726717.8243982,41.405580558056,0,0
-144.71928872157,-156.87281698029,36.2100110011,1354041.8801903,-633.6942738926,2726717.8243982,41.4100110011,0,0
-144.71928861412,-156.8871710835,36.214441444144,1354041.8801903,-633.6942738926,2726717.8243982,41.414441444144,0,0
-144.71928850668,-156.9015251867,36.218871887189,1354041.8801903,-633.6942738926,2726717.8243982,41.418871887189,0,0
-144.71928839924,-156.91587928991,36.223302330233,1354041.8801903,-633.6942738926,2726717.8243982,41.423302330233,0,0
-144.71928829179,-156.93023339311,36.227732773277,1354041.8801903,-633.6942738926,2726717.8243982,41.427732773277,0,0
-144.71928818435,-156.94458749632,36.232163216322,1354041.8801903,-633.6942738926,2726717.8243982,41.432163216322,0,0
-144.71928807691,-156.95894159953,36.236593659366,1354041.8801903,-633.6942738926,2726717.8243982,41.436593659366,0,0
-144.71928796946,-156.97329570273,36.24102410241,1354041.8801903,-633.6942738926,2726717.8243982,41.44102410241,0,0
-144.71928786202,-156.98764980594,36.245454545455,1354041.8801903,-633.6942738926,2726717.8243982,41.445454545455,0,0
-144.71928775457,-157.00200390914,36.249884988499,1354041.8801903,-633.6942738926,2726717.8243982,41.449884988499,0,0
-144.71928764713,-157.01635801235,36.254315431543,1354041.8801903,-633.6942738926,2726717.8243982,41.454315431543,0,0
-144.71928753969,-157.03071211556,36.258745874587,1354041.8801903,-633.6942738926,2726717.8243982,41.458745874587,0,0
-144.71928743224,-157.04506621876,36.263176317632,1354041.8801903,-633.6942738926,2726717.8243982,41.463176317632,0,0
-144.7192873248,-157.05942032197,36.267606760676,1354041.8801903,-633.6942738926,2726717.8243982,41.467606760676,0,0
-144.71928721736,-157.07377442518,36.27203720372,1354041.8801903,-633.6942738926,2726717.8243982,41.47203720372,0,0
-144.71928710991,-157.08812852838,36.276467646765,1354041.8801903,-633.6942738926,2726717.8243982,41.476467646765,0,0
-144.71928700247,-157.10248263159,36.280898089809,1354041.8801903,-633.6942738926,2726717.8243982,41.480898089809,0,0
-144.71928689502,-157.11683673479,36.285328532853,1354041.8801903,-633.6942738926,2726717.8243982,41.485328532853,0,0
-144.71928678758,-157.131190838,36.289758975898,1354041.8801903,-633.6942738926,2726717.8243982,41.489758975898,0,0
-144.71928668014,-157.14554494121,36.294189418942,1354041.8801903,-633.6942738926,2726717.8243982,41.494189418942,0,0
-144.71928657269,-157.15989904441,36.298619861986,1354041.8801903,-633.6942738926,2726717.8243982,41.498619861986,0,0
-144.71928646525,-157.17425314762,36.30305030503,1354041.8801903,-633.6942738926,2726717.8243982,41.50305030503,0,0
-144.71928635781,-157.18860725083,36.307480748075,1354041.8801903,-633.6942738926,2726717.8243982,41.507480748075,0,0
-144.71928625036,-157.20296135403,36.311911191119,1354041.8801903,-633.6942738926,2726717.8243982,41.511911191119,0,0
-144.71928614292,-157.21731545724,36.316341634163,1354041.8801903,-633.6942738926,2726717.8243982,41.516341634163,0,0
-144.71928603547,-157.23166956044,36.320772077208,1354041.8801903,-633.6942738926,2726717.8243982,41.520772077208,0,0
-144.71928592803,-157.24602366365,36.325202520252,1354041.8801903,-633.6942738926,2726717.8243982,41.525202520252,0,0
-144.71928582059,-157.26037776686,36.329632963296,1354041.8801903,-633.6942738926,2726717.8243982,41.529632963296,0,0
-144.71928571314,-157.27473187006,36.334063406341,1354041.8801903,-633.6942738926,2726717.8243982,41.534063406341,0,0
-144.7192856057,-157.28908597327,36.338493849385,1354041.8801903,-633.6942738926,2726717.8243982,41.538493849385,0,0
-144.71928549826,-157.30344007648,36.342924292429,1354041.8801903,-633.6942738926,2726717.8243982,41.542924292429,0,0
-144.71928539081,-157.31779417968,36.347354735474,1354041.8801903,-633.6942738926,2726717.8243982,41.547354735474,0,0
-144.71928528337,-157.33214828289,36.351785178518,1354041.8801903,-633.6942738926,2726717.8243982,41.551785178518,0,0
-144.71928517592,-157.34650238609,36.356215621562,1354041.8801903,-633.6942738926,2726717.8243982,41.556215621562,0,0
-144.71928506848,-157.3608564893,36.360646064606,1354041.8801903,-633.6942738926,2726717.8243982,41.560646064606,0,0
-144.71928496104,-157.37521059251,36.365076507651,1354041.8801903,-633.6942738926,2726717.8243982,41.565076507651,0,0
-144.71928485359,-157.38956469571,36.369506950695,1354041.8801903,-633.6942738926,2726717.8243982,41.569506950695,0,0
-144.71928474615,-157.40391879892,36.373937393739,1354041.8801903,-633.6942738926,2726717.8243982,41.573937393739,0,0
-144.7192846387,-157.41827290212,36.378367836784,1354041.8801903,-633.6942738926,2726717.8243982,41.578367836784,0,0
-144.71928453126,-157.43262700533,36.382798279828,1354041.8801903,-633.6942738926,2726717.8243982,41.582798279828,0,0
-144.71928442382,-157.44698110854,36.387228722872,1354041.8801903,-633.6942738926,2726717.8243982,41.587228722872,0,0
-144.71928431637,-157.46133521174,36.391659165917,1354041.8801903,-633.6942738926,2726717.8243982,41.591659165917,0,0
-144.71928420893,-157.47568931495,36.396089608961,1354041.8801903,-633.6942738926,2726717.8243982,41.596089608961,0,0
-144.71928410149,-157.49004341816,36.400520052005,1354041.8801903,-633.6942738926,2726717.8243982,41.600520052005,0,0
-144.71928399404,-157.50439752136,36.404950495049,1354041.8801903,-633.6942738926,2726717.8243982,41.60495049505,0,0
-144.7192838866,-157.51875162457,36.409380938094,1354041.8801903,-633.6942738926,2726717.8243982,41.609380938094,0,0
-144.71928377915,-157.53310572777,36.413811381138,1354041.8801903,-633.6942738926,2726717.8243982,41.613811381138,0,0
-144.71928367171,-157.54745983098,36.418241824182,1354041.8801903,-633.6942738926,2726717.8243982,41.618241824182,0,0
-144.71928356427,-157.56181393419,36.422672267227,1354041.8801903,-633.6942738926,2726717.8243982,41.622672267227,0,0
-144.71928345682,-157.57616803739,36.427102710271,1354041.8801903,-633.6942738926,2726717.8243982,41.627102710271,0,0
-144.71928334938,-157.5905221406,36.431533153315,1354041.8801903,-633.6942738926,2726717.8243982,41.631533153315,0,0
-144.71928324194,-157.60487624381,36.43596359636,1354041.8801903,-633.6942738926,2726717.8243982,41.63596359636,0,0
-144.71928313449,-157.61923034701,36.440394039404,1354041.8801903,-633.6942738926,2726717.8243982,41.640394039404,0,0
-144.71928302705,-157.63358445022,36.444824482448,1354041.8801903,-633.6942738926,2726717.8243982,41.644824482448,0,0
-144.7192829196,-157.64793855342,36.449254925493,1354041.8801903,-633.6942738926,2726717.8243982,41.649254925493,0,0
-144.71928281216,-157.66229265663,36.453685368537,1354041.8801903,-633.6942738926,2726717.8243982,41.653685368537,0,0
-144.71928270472,-157.67664675984,36.458115811581,1354041.8801903,-633.6942738926,2726717.8243982,41.658115811581,0,0
-144.71928259727,-157.69100086304,36.462546254625,1354041.8801903,-633.6942738926,2726717.8243982,41.662546254625,0,0
-144.71928248983,-157.70535496625,36.46697669767,1354041.8801903,-633.6942738926,2726717.8243982,41.66697669767,0,0
-144.71928238239,-157.71970906946,36.471407140714,1354041.8801903,-633.6942738926,2726717.8243982,41.671407140714,0,0
-144.71928227494,-157.73406317266,36.475837583758,1354041.8801903,-633.6942738926,2726717.8243982,41.675837583758,0,0
-144.7192821675,-157.74841727587,36.480268026803,1354041.8801903,-633.6942738926,2726717.8243982,41.680268026803,0,0
-144.71928206005,-157.76277137907,36.484698469847,1354041.8801903,-633.6942738926,2726717.8243982,41.684698469847,0,0
-144.71928195261,-157.77712548228,36.489128912891,1354041.8801903,-633.6942738926,2726717.8243982,41.689128912891,0,0
-144.71928184517,-157.79147958549,36.493559355936,1354041.8801903,-633.6942738926,2726717.8243982,41.693559355936,0,0
-144.71928173772,-157.80583368869,36.49798979898,1354041.8801903,-633.6942738926,2726717.8243982,41.69798979898,0,0
-144.71928163028,-157.8201877919,36.502420242024,1354041.8801903,-633.6942738926,2726717.8243982,41.702420242024,0,0
-144.71928152284,-157.8345418951,36.506850685068,1354041.8801903,-633.6942738926,2726717.8243982,41.706850685069,0,0
-144.71928141539,-157.84889599831,36.511281128113,1354041.8801903,-633.6942738926,2726717.8243982,41.711281128113,0,0
-144.71928130795,-157.86325010152,36.515711571157,1354041.8801903,-633.6942738926,2726717.8243982,41.715711571157,0,0
-144.7192812005,-157.87760420472,36.520142014201,1354041.8801903,-633.6942738926,2726717.8243982,41.720142014201,0,0
-144.71928109306,-157.89195830793,36.524572457246,1354041.8801903,-633.6942738926,2726717.8243982,41.724572457246,0,0
-144.71928098562,-157.90631241114,36.52900290029,1354041.8801903,-633.6942738926,2726717.8243982,41.72900290029,0,0
-144.71928087817,-157.92066651434,36.533433343334,1354041.8801903,-633.6942738926,2726717.8243982,41.733433343334,0,0
-144.71928077073,-157.93502061755,36.537863786379,1354041.8801903,-633.6942738926,2726717.8243982,41.737863786379,0,0
-144.71928066329,-157.94937472075,36.542294229423,1354041.8801903,-633.6942738926,2726717.8243982,41.742294229423,0,0
-144.71928055584,-157.96372882396,36.546724672467,1354041.8801903,-633.6942738926,2726717.8243982,41.746724672467,0,0
-144.71928044841,-157.97808292708,36.551155115512,1352269.9228894,1831.4585269309,2723596.9860805,41.751155115512,0,0
-144.71928034102,-157.99243702978,36.555585558556,1352269.9228894,1831.4585269309,2723596.9860805,41.755585558556,0,0
-144.71928023364,-158.00679113249,36.5600160016,1352269.9228894,1831.4585269309,2723596.9860805,41.7600160016,0,0
-144.71928012625,-158.02114523519,36.564446444644,1352269.9228894,1831.4585269309,2723596.9860805,41.764446444644,0,0
-144.71928001887,-158.0354993379,36.568876887689,1352269.9228894,1831.4585269309,2723596.9860805,41.768876887689,0,0
-144.71927991148,-158.0498534406,36.573307330733,1352269.9228894,1831.4585269309,2723596.9860805,41.773307330733,0,0
-144.7192798041,-158.06420754331,36.577737773777,1352269.9228894,1831.4585269309,2723596.9860805,41.777737773777,0,0
-144.71927969671,-158.07856164601,36.582168216822,1352269.9228894,1831.4585269309,2723596.9860805,41.782168216822,0,0
-144.71927958933,-158.09291574872,36.586598659866,1352269.9228894,1831.4585269309,2723596.9860805,41.786598659866,0,0
-144.71927948194,-158.10726985142,36.59102910291,1352269.9228894,1831.4585269309,2723596.9860805,41.79102910291,0,0
-144.71927937455,-158.12162395412,36.595459545955,1352269.9228894,1831.4585269309,2723596.9860805,41.795459545955,0,0
-144.71927926717,-158.13597805683,36.599889988999,1352269.9228894,1831.4585269309,2723596.9860805,41.799889988999,0,0
-144.71927915978,-158.15033215953,36.604320432043,1352269.9228894,1831.4585269309,2723596.9860805,41.804320432043,0,0
-144.7192790524,-158.16468626224,36.608750875088,1352269.9228894,1831.4585269309,2723596.9860805,41.808750875088,0,0
-144.71927894501,-158.17904036494,36.613181318132,1352269.9228894,1831.4585269309,2723596.9860805,41.813181318132,0,0
-144.71927883763,-158.19339446765,36.617611761176,1352269.9228894,1831.4585269309,2723596.9860805,41.817611761176,0,0
-144.71927873024,-158.20774857035,36.62204220422,1352269.9228894,1831.4585269309,2723596.9860805,41.82204220422,0,0
-144.71927862286,-158.22210267306,36.626472647265,1352269.9228894,1831.4585269309,2723596.9860805,41.826472647265,0,0
-144.71927851547,-158.23645677576,36.630903090309,1352269.9228894,1831.4585269309,2723596.9860805,41.830903090309,0,0
-144.71927840809,-158.25081087847,36.635333533353,1352269.9228894,1831.4585269309,2723596.9860805,41.835333533353,0,0
-144.7192783007,-158.26516498117,36.639763976398,1352269.9228894,1831.4585269309,2723596.9860805,41.839763976398,0,0
-144.71927819332,-158.27951908388,36.644194419442,1352269.9228894,1831.4585269309,2723596.9860805,41.844194419442,0,0
-144.71927808593,-158.29387318658,36.648624862486,1352269.9228894,1831.4585269309,2723596.9860805,41.848624862486,0,0
-144.71927797855,-158.30822728929,36.653055305531,1352269.9228894,1831.4585269309,2723596.9860805,41.853055305531,0,0
-144.71927787116,-158.32258139199,36.657485748575,1352269.9228894,1831.4585269309,2723596.9860805,41.857485748575,0,0
-144.71927776377,-158.33693549469,36.661916191619,1352269.9228894,1831.4585269309,2723596.9860805,41.861916191619,0,0
-144.71927765639,-158.3512895974,36.666346634663,1352269.9228894,1831.4585269309,2723596.9860805,41.866346634663,0,0
-144.719277549,-158.3656437001,36.670777077708,1352269.9228894,1831.4585269309,2723596.9860805,41.870777077708,0,0
-144.71927744162,-158.37999780281,36.675207520752,1352269.9228894,1831.4585269309,2723596.9860805,41.875207520752,0,0
-144.71927733423,-158.39435190551,36.679637963796,1352269.9228894,1831.4585269309,2723596.9860805,41.879637963796,0,0
-144.71927722685,-158.40870600822,36.684068406841,1352269.9228894,1831.4585269309,2723596.9860805,41.884068406841,0,0
-144.71927711946,-158.42306011092,36.688498849885,1352269.9228894,1831.4585269309,2723596.9860805,41.888498849885,0,0
-144.71927701208,-158.43741421363,36.692929292929,1352269.9228894,1831.4585269309,2723596.9860805,41.892929292929,0,0
-144.71927690469,-158.45176831633,36.697359735974,1352269.9228894,1831.4585269309,2723596.9860805,41.897359735974,0,0
-144.71927679731,-158.46612241904,36.701790179018,1352269.9228894,1831.4585269309,2723596.9860805,41.901790179018,0,0
-144.71927668992,-158.48047652174,36.706220622062,1352269.9228894,1831.4585269309,2723596.9860805,41.906220622062,0,0
-144.71927658254,-158.49483062445,36.710651065107,1352269.9228894,1831.4585269309,2723596.9860805,41.910651065107,0,0
-144.71927647515,-158.50918472715,36.715081508151,1352269.9228894,1831.4585269309,2723596.9860805,41.915081508151,0,0
-144.71927636777,-158.52353882986,36.719511951195,1352269.9228894,1831.4585269309,2723596.9860805,41.919511951195,0,0
-144.71927626038,-158.53789293256,36.723942394239,1352269.9228894,1831.4585269309,2723596.9860805,41.923942394239,0,0
-144.71927615299,-158.55224703526,36.728372837284,1352269.9228894,1831.4585269309,2723596.9860805,41.928372837284,0,0
-144.71927604561,-158.56660113797,36.732803280328,1352269.9228894,1831.4585269309,2723596.9860805,41.932803280328,0,0
-144.71927593822,-158.58095524067,36.737233723372,1352269.9228894,1831.4585269309,2723596.9860805,41.937233723372,0,0
-144.71927583084,-158.59530934338,36.741664166417,1352269.9228894,1831.4585269309,2723596.9860805,41.941664166417,0,0
-144.71927572345,-158.60966344608,36.746094609461,1352269.9228894,1831.4585269309,2723596.9860805,41.946094609461,0,0
-144.71927561607,-158.62401754879,36.750525052505,1352269.9228894,1831.4585269309,2723596.9860805,41.950525052505,0,0
-144.71927550868,-158.63837165149,36.75495549555,1352269.9228894,1831.4585269309,2723596.9860805,41.95495549555,0,0
-144.7192754013,-158.6527257542,36.759385938594,1352269.9228894,1831.4585269309,2723596.9860805,41.959385938594,0,0
-144.71927529391,-158.6670798569,36.763816381638,1352269.9228894,1831.4585269309,2723596.9860805,41.963816381638,0,0
-144.71927518653,-158.68143395961,36.768246824682,1352269.9228894,1831.4585269309,2723596.9860805,41.968246824682,0,0
-144.71927507914,-158.69578806231,36.772677267727,1352269.9228894,1831.4585269309,2723596.9860805,41.972677267727,0,0
-144.71927497176,-158.71014216502,36.777107710771,1352269.9228894,1831.4585269309,2723596.9860805,41.977107710771,0,0
-144.71927486437,-158.72449626772,36.781538153815,1352269.9228894,1831.4585269309,2723596.9860805,41.981538153815,0,0
-144.71927475699,-158.73885037043,36.78596859686,1352269.9228894,1831.4585269309,2723596.9860805,41.98596859686,0,0
-144.7192746496,-158.75320447313,36.790399039904,1352269.9228894,1831.4585269309,2723596.9860805,41.990399039904,0,0
-144.71927454221,-158.76755857583,36.794829482948,1352269.9228894,1831.4585269309,2723596.9860805,41.994829482948,0,0
-144.71927443483,-158.78191267854,36.799259925993,1352269.9228894,1831.4585269309,2723596.9860805,41.999259925993,0,0
-144.71927432744,-158.79626678124,36.803690369037,1352269.9228894,1831.4585269309,2723596.9860805,42.003690369037,0,0
-144.71927422006,-158.81062088395,36.808120812081,1352269.9228894,1831.4585269309,2723596.9860805,42.008120812081,0,0
-144.71927411267,-158.82497498665,36.812551255126,1352269.9228894,1831.4585269309,2723596.9860805,42.012551255126,0,0
-144.71927400529,-158.83932908936,36.81698169817,1352269.9228894,1831.4585269309,2723596.9860805,42.01698169817,0,0
-144.7192738979,-158.85368319206,36.821412141214,1352269.9228894,1831.4585269309,2723596.9860805,42.021412141214,0,0
-144.71927379052,-158.86803729477,36.825842584258,1352269.9228894,1831.4585269309,2723596.9860805,42.025842584258,0,0
-144.71927368313,-158.88239139747,36.830273027303,1352269.9228894,1831.4585269309,2723596.9860805,42.030273027303,0,0
-144.71927357575,-158.89674550018,36.834703470347,1352269.9228894,1831.4585269309,2723596.9860805,42.034703470347,0,0
-144.71927346836,-158.91109960288,36.839133913391,1352269.9228894,1831.4585269309,2723596.9860805,42.039133913391,0,0
-144.71927336098,-158.92545370559,36.843564356436,1352269.9228894,1831.4585269309,2723596.9860805,42.043564356436,0,0
-144.71927325359,-158.93980780829,36.84799479948,1352269.9228894,1831.4585269309,2723596.9860805,42.04799479948,0,0
-144.71927314621,-158.954161911,36.852425242524,1352269.9228894,1831.4585269309,2723596.9860805,42.052425242524,0,0
-144.71927303882,-158.9685160137,36.856855685569,1352269.9228894,1831.4585269309,2723596.9860805,42.056855685569,0,0
-144.71927293143,-158.9828701164,36.861286128613,1352269.9228894,1831.4585269309,2723596.9860805,42.061286128613,0,0
-144.71927282405,-158.99722421911,36.865716571657,1352269.9228894,1831.4585269309,2723596.9860805,42.065716571657,0,0
-144.71927271666,-159.01157832181,36.870147014701,1352269.9228894,1831.4585269309,2723596.9860805,42.070147014701,0,0
-144.71927260928,-159.02593242452,36.874577457746,1352269.9228894,1831.4585269309,2723596.9860805,42.074577457746,0,0
-144.71927250189,-159.04028652722,36.87900790079,1352269.9228894,1831.4585269309,2723596.9860805,42.07900790079,0,0
-144.71927239451,-159.05464062993,36.883438343834,1352269.9228894,1831.4585269309,2723596.9860805,42.083438343834,0,0
-144.71927228712,-159.06899473263,36.887868786879,1352269.9228894,1831.4585269309,2723596.9860805,42.087868786879,0,0
-144.71927217974,-159.08334883534,36.892299229923,1352269.9228894,1831.4585269309,2723596.9860805,42.092299229923,0,0
-144.71927207235,-159.09770293804,36.896729672967,1352269.9228894,1831.4585269309,2723596.9860805,42.096729672967,0,0
-144.71927196497,-159.11205704075,36.901160116012,1352269.9228894,1831.4585269309,2723596.9860805,42.101160116012,0,0
-144.71927185758,-159.12641114345,36.905590559056,1352269.9228894,1831.4585269309,2723596.9860805,42.105590559056,0,0
-144.7192717502,-159.14076524616,36.9100210021,1352269.9228894,1831.4585269309,2723596.9860805,42.1100210021,0,0
-144.71927164281,-159.15511934886,36.914451445145,1352269.9228894,1831.4585269309,2723596.9860805,42.114451445145,0,0
-144.71927153543,-159.16947345157,36.918881888189,1352269.9228894,1831.4585269309,2723596.9860805,42.118881888189,0,0
-144.71927142804,-159.18382755427,36.923312331233,1352269.9228894,1831.4585269309,2723596.9860805,42.123312331233,0,0
-144.71927132065,-159.19818165697,36.927742774277,1352269.9228894,1831.4585269309,2723596.9860805,42.127742774277,0,0
-144.71927121327,-159.21253575968,36.932173217322,1352269.9228894,1831.4585269309,2723596.9860805,42.132173217322,0,0
-144.71927110588,-159.22688986238,36.936603660366,1352269.9228894,1831.4585269309,2723596.9860805,42.136603660366,0,0
-144.7192709985,-159.24124396509,36.94103410341,1352269.9228894,1831.4585269309,2723596.9860805,42.14103410341,0,0
-144.71927089111,-159.25559806779,36.945464546455,1352269.9228894,1831.4585269309,2723596.9860805,42.145464546455,0,0
-144.71927078373,-159.2699521705,36.949894989499,1352269.9228894,1831.4585269309,2723596.9860805,42.149894989499,0,0
-144.71927067634,-159.2843062732,36.954325432543,1352269.9228894,1831.4585269309,2723596.9860805,42.154325432543,0,0
-144.71927056896,-159.29866037591,36.958755875588,1352269.9228894,1831.4585269309,2723596.9860805,42.158755875588,0,0
-144.71927046157,-159.31301447861,36.963186318632,1352269.9228894,1831.4585269309,2723596.9860805,42.163186318632,0,0
-144.71927035419,-159.32736858132,36.967616761676,1352269.9228894,1831.4585269309,2723596.9860805,42.167616761676,0,0
-144.7192702468,-159.34172268402,36.97204720472,1352269.9228894,1831.4585269309,2723596.9860805,42.17204720472,0,0
-144.71927013942,-159.35607678673,36.976477647765,1352269.9228894,1831.4585269309,2723596.9860805,42.176477647765,0,0
-144.71927003203,-159.37043088943,36.980908090809,1352269.9228894,1831.4585269309,2723596.9860805,42.180908090809,0,0
-144.71926992465,-159.38478499214,36.985338533853,1352269.9228894,1831.4585269309,2723596.9860805,42.185338533853,0,0
-144.71926981726,-159.39913909484,36.989768976898,1352269.9228894,1831.4585269309,2723596.9860805,42.189768976898,0,0
-144.71926970987,-159.41349319755,36.994199419942,1352269.9228894,1831.4585269309,2723596.9860805,42.194199419942,0,0
-144.71926960249,-159.42784730025,36.998629862986,1352269.9228894,1831.4585269309,2723596.9860805,42.198629862986,0,0
-144.7192694951,-159.44220140295,37.003060306031,1352269.9228894,1831.4585269309,2723596.9860805,42.203060306031,0,0
-144.71926938772,-159.45655550566,37.007490749075,1352269.9228894,1831.4585269309,2723596.9860805,42.207490749075,0,0
-144.71926928033,-159.47090960836,37.011921192119,1352269.9228894,1831.4585269309,2723596.9860805,42.211921192119,0,0
-144.71926917295,-159.48526371107,37.016351635164,1352269.9228894,1831.4585269309,2723596.9860805,42.216351635164,0,0
-144.71926906556,-159.49961781377,37.020782078208,1352269.9228894,1831.4585269309,2723596.9860805,42.220782078208,0,0
-144.71926895818,-159.51397191648,37.025212521252,1352269.9228894,1831.4585269309,2723596.9860805,42.225212521252,0,0
-144.71926885079,-159.52832601918,37.029642964296,1352269.9228894,1831.4585269309,2723596.9860805,42.229642964296,0,0
-144.71926874341,-159.54268012189,37.034073407341,1352269.9228894,1831.4585269309,2723596.9860805,42.234073407341,0,0
-144.71926863602,-159.55703422459,37.038503850385,1352269.9228894,1831.4585269309,2723596.9860805,42.238503850385,0,0
-144.71926852864,-159.5713883273,37.042934293429,1352269.9228894,1831.4585269309,2723596.9860805,42.242934293429,0,0
-144.71926842125,-159.58574243,37.047364736474,1352269.9228894,1831.4585269309,2723596.9860805,42.247364736474,0,0
-144.71926831387,-159.60009653271,37.051795179518,1352269.9228894,1831.4585269309,2723596.9860805,42.251795179518,0,0
-144.71926820648,-159.61445063541,37.056225622562,1352269.9228894,1831.4585269309,2723596.9860805,42.256225622562,0,0
-144.71926809909,-159.62880473812,37.060656065607,1352269.9228894,1831.4585269309,2723596.9860805,42.260656065607,0,0
-144.71926799171,-159.64315884082,37.065086508651,1352269.9228894,1831.4585269309,2723596.9860805,42.265086508651,0,0
-144.71926788432,-159.65751294352,37.069516951695,1352269.9228894,1831.4585269309,2723596.9860805,42.269516951695,0,0
-144.71926777694,-159.67186704623,37.073947394739,1352269.9228894,1831.4585269309,2723596.9860805,42.273947394739,0,0
-144.71926766955,-159.68622114893,37.078377837784,1352269.9228894,1831.4585269309,2723596.9860805,42.278377837784,0,0
-144.71926756217,-159.70057525164,37.082808280828,1352269.9228894,1831.4585269309,2723596.9860805,42.282808280828,0,0
-144.71926745478,-159.71492935434,37.087238723872,1352269.9228894,1831.4585269309,2723596.9860805,42.287238723872,0,0
-144.7192673474,-159.72928345705,37.091669166917,1352269.9228894,1831.4585269309,2723596.9860805,42.291669166917,0,0
-144.71926724001,-159.74363755975,37.096099609961,1352269.9228894,1831.4585269309,2723596.9860805,42.296099609961,0,0
-144.71926713263,-159.75799166246,37.100530053005,1352269.9228894,1831.4585269309,2723596.9860805,42.300530053005,0,0
-144.71926702524,-159.77234576516,37.10496049605,1352269.9228894,1831.4585269309,2723596.9860805,42.30496049605,0,0
-144.71926691786,-159.78669986787,37.109390939094,1352269.9228894,1831.4585269309,2723596.9860805,42.309390939094,0,0
-144.71926681047,-159.80105397057,37.113821382138,1352269.9228894,1831.4585269309,2723596.9860805,42.313821382138,0,0
-144.71926670309,-159.81540807328,37.118251825183,1352269.9228894,1831.4585269309,2723596.9860805,42.318251825183,0,0
-144.7192665957,-159.82976217598,37.122682268227,1352269.9228894,1831.4585269309,2723596.9860805,42.322682268227,0,0
-144.71926648831,-159.84411627869,37.127112711271,1352269.9228894,1831.4585269309,2723596.9860805,42.327112711271,0,0
-144.71926638093,-159.85847038139,37.131543154315,1352269.9228894,1831.4585269309,2723596.9860805,42.331543154315,0,0
-144.71926627354,-159.87282448409,37.13597359736,1352269.9228894,1831.4585269309,2723596.9860805,42.33597359736,0,0
-144.71926616616,-159.8871785868,37.140404040404,1352269.9228894,1831.4585269309,2723596.9860805,42.340404040404,0,0
-144.71926605877,-159.9015326895,37.144834483448,1352269.9228894,1831.4585269309,2723596.9860805,42.344834483448,0,0
-144.71926595139,-159.91588679221,37.149264926493,1352269.9228894,1831.4585269309,2723596.9860805,42.349264926493,0,0
-144.719265844,-159.93024089491,37.153695369537,1352269.9228894,1831.4585269309,2723596.9860805,42.353695369537,0,0
-144.71926573662,-159.94459499762,37.158125812581,1352269.9228894,1831.4585269309,2723596.9860805,42.358125812581,0,0
-144.71926562923,-159.95894910032,37.162556255626,1352269.9228894,1831.4585269309,2723596.9860805,42.362556255626,0,0
-144.71926552185,-159.97330320303,37.16698669867,1352269.9228894,1831.4585269309,2723596.9860805,42.36698669867,0,0
-144.71926541446,-159.98765730573,37.171417141714,1352269.9228894,1831.4585269309,2723596.9860805,42.371417141714,0,0
-144.71926530708,-160.00201140844,37.175847584758,1352269.9228894,1831.4585269309,2723596.9860805,42.375847584758,0,0
-144.71926519969,-160.01636551114,37.180278027803,1352269.9228894,1831.4585269309,2723596.9860805,42.380278027803,0,0
-144.71926509231,-160.03071961385,37.184708470847,1352269.9228894,1831.4585269309,2723596.9860805,42.384708470847,0,0
-144.71926498492,-160.04507371655,37.189138913891,1352269.9228894,1831.4585269309,2723596.9860805,42.389138913891,0,0
-144.71926487753,-160.05942781926,37.193569356936,1352269.9228894,1831.4585269309,2723596.9860805,42.393569356936,0,0
-144.71926477015,-160.07378192196,37.19799979998,1352269.9228894,1831.4585269309,2723596.9860805,42.39799979998,0,0
-144.71926466276,-160.08813602466,37.202430243024,1352269.9228894,1831.4585269309,2723596.9860805,42.402430243024,0,0
-144.71926455538,-160.10249012737,37.206860686069,1352269.9228894,1831.4585269309,2723596.9860805,42.406860686069,0,0
-144.71926444799,-160.11684423007,37.211291129113,1352269.9228894,1831.4585269309,2723596.9860805,42.411291129113,0,0
-144.71926434061,-160.13119833278,37.215721572157,1352269.9228894,1831.4585269309,2723596.9860805,42.415721572157,0,0
-144.71926423322,-160.14555243548,37.220152015202,1352269.9228894,1831.4585269309,2723596.9860805,42.420152015202,0,0
-144.71926412584,-160.15990653819,37.224582458246,1352269.9228894,1831.4585269309,2723596.9860805,42.424582458246,0,0
-144.71926401845,-160.17426064089,37.22901290129,1352269.9228894,1831.4585269309,2723596.9860805,42.42901290129,0,0
-144.71926391107,-160.1886147436,37.233443344334,1352269.9228894,1831.4585269309,2723596.9860805,42.433443344334,0,0
-144.71926380368,-160.2029688463,37.237873787379,1352269.9228894,1831.4585269309,2723596.9860805,42.437873787379,0,0
-144.7192636963,-160.21732294901,37.242304230423,1352269.9228894,1831.4585269309,2723596.9860805,42.442304230423,0,0
-144.71926358891,-160.23167705171,37.246734673467,1352269.9228894,1831.4585269309,2723596.9860805,42.446734673467,0,0
-144.71926348153,-160.24603115442,37.251165116512,1352269.9228894,1831.4585269309,2723596.9860805,42.451165116512,0,0
-144.71926337414,-160.26038525712,37.255595559556,1352269.9228894,1831.4585269309,2723596.9860805,42.455595559556,0,0
-144.71926326675,-160.27473935983,37.2600260026,1352269.9228894,1831.4585269309,2723596.9860805,42.4600260026,0,0
-144.71926315937,-160.28909346253,37.264456445645,1352269.9228894,1831.4585269309,2723596.9860805,42.464456445645,0,0
-144.71926305198,-160.30344756523,37.268886888689,1352269.9228894,1831.4585269309,2723596.9860805,42.468886888689,0,0
-144.7192629446,-160.31780166794,37.273317331733,1352269.9228894,1831.4585269309,2723596.9860805,42.473317331733,0,0
-144.71926283721,-160.33215577064,37.277747774777,1352269.9228894,1831.4585269309,2723596.9860805,42.477747774777,0,0
-144.71926272983,-160.34650987335,37.282178217822,1352269.9228894,1831.4585269309,2723596.9860805,42.482178217822,0,0
-144.71926262244,-160.36086397605,37.286608660866,1352269.9228894,1831.4585269309,2723596.9860805,42.486608660866,0,0
-144.71926251506,-160.37521807876,37.29103910391,1352269.9228894,1831.4585269309,2723596.9860805,42.49103910391,0,0
-144.71926240767,-160.38957218146,37.295469546955,1352269.9228894,1831.4585269309,2723596.9860805,42.495469546955,0,0
-144.71926230029,-160.40392628417,37.299899989999,1352269.9228894,1831.4585269309,2723596.9860805,42.499899989999,0,0
-144.7192621929,-160.41828038687,37.304330433043,1352269.9228894,1831.4585269309,2723596.9860805,42.504330433043,0,0
-144.71926208552,-160.43263448958,37.308760876088,1352269.9228894,1831.4585269309,2723596.9860805,42.508760876088,0,0
-144.71926197813,-160.44698859228,37.313191319132,1352269.9228894,1831.4585269309,2723596.9860805,42.513191319132,0,0
-144.71926187075,-160.46134269499,37.317621762176,1352269.9228894,1831.4585269309,2723596.9860805,42.517621762176,0,0
-144.71926176336,-160.47569679769,37.322052205221,1352269.9228894,1831.4585269309,2723596.9860805,42.522052205221,0,0
-144.71926165597,-160.4900509004,37.326482648265,1352269.9228894,1831.4585269309,2723596.9860805,42.526482648265,0,0
-144.71926154859,-160.5044050031,37.330913091309,1352269.9228894,1831.4585269309,2723596.9860805,42.530913091309,0,0
-144.7192614412,-160.5187591058,37.335343534353,1352269.9228894,1831.4585269309,2723596.9860805,42.535343534353,0,0
-144.71926133382,-160.53311320851,37.339773977398,1352269.9228894,1831.4585269309,2723596.9860805,42.539773977398,0,0
-144.71926122643,-160.54746731121,37.344204420442,1352269.9228894,1831.4585269309,2723596.9860805,42.544204420442,0,0
-144.71926111905,-160.56182141392,37.348634863486,1352269.9228894,1831.4585269309,2723596.9860805,42.548634863486,0,0
-144.71926101166,-160.57617551662,37.353065306531,1352269.9228894,1831.4585269309,2723596.9860805,42.553065306531,0,0
-144.71926090428,-160.59052961933,37.357495749575,1352269.9228894,1831.4585269309,2723596.9860805,42.557495749575,0,0
-144.71926079689,-160.60488372203,37.361926192619,1352269.9228894,1831.4585269309,2723596.9860805,42.561926192619,0,0
-144.71926068951,-160.61923782474,37.366356635664,1352269.9228894,1831.4585269309,2723596.9860805,42.566356635664,0,0
-144.71926058212,-160.63359192744,37.370787078708,1352269.9228894,1831.4585269309,2723596.9860805,42.570787078708,0,0
-144.71926047474,-160.64794603015,37.375217521752,1352269.9228894,1831.4585269309,2723596.9860805,42.575217521752,0,0
-144.71926036735,-160.66230013285,37.379647964796,1352269.9228894,1831.4585269309,2723596.9860805,42.579647964796,0,0
-144.71926025997,-160.67665423556,37.384078407841,1352269.9228894,1831.4585269309,2723596.9860805,42.584078407841,0,0
-144.71926015258,-160.69100833826,37.388508850885,1352269.9228894,1831.4585269309,2723596.9860805,42.588508850885,0,0
-144.71926004519,-160.70536244097,37.392939293929,1352269.9228894,1831.4585269309,2723596.9860805,42.592939293929,0,0
-144.71925993781,-160.71971654367,37.397369736974,1352269.9228894,1831.4585269309,2723596.9860805,42.597369736974,0,0
-144.71925983042,-160.73407064637,37.401800180018,1352269.9228894,1831.4585269309,2723596.9860805,42.601800180018,0,0
-144.71925972304,-160.74842474908,37.406230623062,1352269.9228894,1831.4585269309,2723596.9860805,42.606230623062,0,0
-144.71925961565,-160.76277885178,37.410661066107,1352269.9228894,1831.4585269309,2723596.9860805,42.610661066107,0,0
-144.71925950827,-160.77713295449,37.415091509151,1352269.9228894,1831.4585269309,2723596.9860805,42.615091509151,0,0
-144.71925940088,-160.79148705719,37.419521952195,1352269.9228894,1831.4585269309,2723596.9860805,42.619521952195,0,0
-144.7192592935,-160.8058411599,37.42395239524,1352269.9228894,1831.4585269309,2723596.9860805,42.62395239524,0,0
-144.71925918611,-160.8201952626,37.428382838284,1352269.9228894,1831.4585269309,2723596.9860805,42.628382838284,0,0
-144.71925907873,-160.83454936531,37.432813281328,1352269.9228894,1831.4585269309,2723596.9860805,42.632813281328,0,0
-144.71925897134,-160.84890346801,37.437243724372,1352269.9228894,1831.4585269309,2723596.9860805,42.637243724372,0,0
-144.71925886396,-160.86325757072,37.441674167417,1352269.9228894,1831.4585269309,2723596.9860805,42.641674167417,0,0
-144.71925875657,-160.87761167342,37.446104610461,1352269.9228894,1831.4585269309,2723596.9860805,42.646104610461,0,0
-144.71925864919,-160.89196577613,37.450535053505,1352269.9228894,1831.4585269309,2723596.9860805,42.650535053505,0,0
-144.7192585418,-160.90631987883,37.45496549655,1352269.9228894,1831.4585269309,2723596.9860805,42.65496549655,0,0
-144.71925843441,-160.92067398154,37.459395939594,1352269.9228894,1831.4585269309,2723596.9860805,42.659395939594,0,0
-144.71925832703,-160.93502808424,37.463826382638,1352269.9228894,1831.4585269309,2723596.9860805,42.663826382638,0,0
-144.71925821964,-160.94938218695,37.468256825683,1352269.9228894,1831.4585269309,2723596.9860805,42.668256825683,0,0
-144.71925811226,-160.96373628965,37.472687268727,1352269.9228894,1831.4585269309,2723596.9860805,42.672687268727,0,0
-144.71925800487,-160.97809039235,37.477117711771,1352269.9228894,1831.4585269309,2723596.9860805,42.677117711771,0,0
-144.71925789749,-160.99244449506,37.481548154815,1352269.9228894,1831.4585269309,2723596.9860805,42.681548154815,0,0
-144.7192577901,-161.00679859776,37.48597859786,1352269.9228894,1831.4585269309,2723596.9860805,42.68597859786,0,0
-144.71925768272,-161.02115270047,37.490409040904,1352269.9228894,1831.4585269309,2723596.9860805,42.690409040904,0,0
-144.71925757533,-161.03550680317,37.494839483948,1352269.9228894,1831.4585269309,2723596.9860805,42.694839483948,0,0
-144.71925746795,-161.04986090588,37.499269926993,1352269.9228894,1831.4585269309,2723596.9860805,42.699269926993,0,0
-144.71925736056,-161.06421500858,37.503700370037,1352269.9228894,1831.4585269309,2723596.9860805,42.703700370037,0,0
-144.71925725318,-161.07856911129,37.508130813081,1352269.9228894,1831.4585269309,2723596.9860805,42.708130813081,0,0
-144.71925714579,-161.09292321399,37.512561256126,1352269.9228894,1831.4585269309,2723596.9860805,42.712561256126,0,0
-144.71925703841,-161.1072773167,37.51699169917,1352269.9228894,1831.4585269309,2723596.9860805,42.71699169917,0,0
-144.71925693102,-161.1216314194,37.521422142214,1352269.9228894,1831.4585269309,2723596.9860805,42.721422142214,0,0
-144.71925682363,-161.13598552211,37.525852585259,1352269.9228894,1831.4585269309,2723596.9860805,42.725852585259,0,0
-144.71925671625,-161.15033962481,37.530283028303,1352269.9228894,1831.4585269309,2723596.9860805,42.730283028303,0,0
-144.71925660886,-161.16469372752,37.534713471347,1352269.9228894,1831.4585269309,2723596.9860805,42.734713471347,0,0
-144.71925650148,-161.17904783022,37.539143914391,1352269.9228894,1831.4585269309,2723596.9860805,42.739143914391,0,0
-144.71925639409,-161.19340193292,37.543574357436,1352269.9228894,1831.4585269309,2723596.9860805,42.743574357436,0,0
-144.71925628671,-161.20775603563,37.54800480048,1352269.9228894,1831.4585269309,2723596.9860805,42.74800480048,0,0
-144.71925617932,-161.22211013833,37.552435243524,1352269.9228894,1831.4585269309,2723596.9860805,42.752435243524,0,0
-144.71925607194,-161.23646424104,37.556865686569,1352269.9228894,1831.4585269309,2723596.9860805,42.756865686569,0,0
-144.71925596455,-161.25081834374,37.561296129613,1352269.9228894,1831.4585269309,2723596.9860805,42.761296129613,0,0
-144.71925585717,-161.26517244645,37.565726572657,1352269.9228894,1831.4585269309,2723596.9860805,42.765726572657,0,0
-144.71925574978,-161.27952654915,37.570157015702,1352269.9228894,1831.4585269309,2723596.9860805,42.770157015702,0,0
-144.7192556424,-161.29388065186,37.574587458746,1352269.9228894,1831.4585269309,2723596.9860805,42.774587458746,0,0
-144.71925553501,-161.30823475456,37.57901790179,1352269.9228894,1831.4585269309,2723596.9860805,42.77901790179,0,0
-144.71925542763,-161.32258885727,37.583448344834,1352269.9228894,1831.4585269309,2723596.9860805,42.783448344834,0,0
-144.71925532024,-161.33694295997,37.587878787879,1352269.9228894,1831.4585269309,2723596.9860805,42.787878787879,0,0
-144.71925521285,-161.35129706268,37.592309230923,1352269.9228894,1831.4585269309,2723596.9860805,42.792309230923,0,0
-144.71925510547,-161.36565116538,37.596739673967,1352269.9228894,1831.4585269309,2723596.9860805,42.796739673967,0,0
-144.71925499808,-161.38000526809,37.601170117012,1352269.9228894,1831.4585269309,2723596.9860805,42.801170117012,0,0
-144.7192548907,-161.39435937079,37.605600560056,1352269.9228894,1831.4585269309,2723596.9860805,42.805600560056,0,0
-144.71925478331,-161.40871347349,37.6100310031,1352269.9228894,1831.4585269309,2723596.9860805,42.8100310031,0,0
-144.71925467593,-161.4230675762,37.614461446145,1352269.9228894,1831.4585269309,2723596.9860805,42.814461446145,0,0
-144.71925456854,-161.4374216789,37.618891889189,1352269.9228894,1831.4585269309,2723596.9860805,42.818891889189,0,0
-144.71925446116,-161.45177578161,37.623322332233,1352269.9228894,1831.4585269309,2723596.9860805,42.823322332233,0,0
-144.71925435377,-161.46612988431,37.627752775278,1352269.9228894,1831.4585269309,2723596.9860805,42.827752775278,0,0
-144.71925424639,-161.48048398702,37.632183218322,1352269.9228894,1831.4585269309,2723596.9860805,42.832183218322,0,0
-144.719254139,-161.49483808972,37.636613661366,1352269.9228894,1831.4585269309,2723596.9860805,42.836613661366,0,0
-144.71925403162,-161.50919219243,37.64104410441,1352269.9228894,1831.4585269309,2723596.9860805,42.84104410441,0,0
-144.71925392423,-161.52354629513,37.645474547455,1352269.9228894,1831.4585269309,2723596.9860805,42.845474547455,0,0
-144.71925381685,-161.53790039784,37.649904990499,1352269.9228894,1831.4585269309,2723596.9860805,42.849904990499,0,0
-144.71925370946,-161.55225450054,37.654335433543,1352269.9228894,1831.4585269309,2723596.9860805,42.854335433543,0,0
-144.71925360207,-161.56660860325,37.658765876588,1352269.9228894,1831.4585269309,2723596.9860805,42.858765876588,0,0
-144.71925349469,-161.58096270595,37.663196319632,1352269.9228894,1831.4585269309,2723596.9860805,42.863196319632,0,0
-144.7192533873,-161.59531680866,37.667626762676,1352269.9228894,1831.4585269309,2723596.9860805,42.867626762676,0,0
-144.71925327992,-161.60967091136,37.672057205721,1352269.9228894,1831.4585269309,2723596.9860805,42.872057205721,0,0
-144.71925317253,-161.62402501406,37.676487648765,1352269.9228894,1831.4585269309,2723596.9860805,42.876487648765,0,0
-144.71925306515,-161.63837911677,37.680918091809,1352269.9228894,1831.4585269309,2723596.9860805,42.880918091809,0,0
-144.71925295776,-161.65273321947,37.685348534853,1352269.9228894,1831.4585269309,2723596.9860805,42.885348534853,0,0
-144.71925285038,-161.66708732218,37.689778977898,1352269.9228894,1831.4585269309,2723596.9860805,42.889778977898,0,0
-144.71925274299,-161.68144142488,37.694209420942,1352269.9228894,1831.4585269309,2723596.9860805,42.894209420942,0,0
-144.71925263561,-161.69579552759,37.698639863986,1352269.9228894,1831.4585269309,2723596.9860805,42.898639863986,0,0
-144.71925252822,-161.71014963029,37.703070307031,1352269.9228894,1831.4585269309,2723596.9860805,42.903070307031,0,0
-144.71925242084,-161.724503733,37.707500750075,1352269.9228894,1831.4585269309,2723596.9860805,42.907500750075,0,0
-144.71925231345,-161.7388578357,37.711931193119,1352269.9228894,1831.4585269309,2723596.9860805,42.911931193119,0,0
-144.71925220607,-161.75321193841,37.716361636164,1352269.9228894,1831.4585269309,2723596.9860805,42.916361636164,0,0
-144.71925209868,-161.76756604111,37.720792079208,1352269.9228894,1831.4585269309,2723596.9860805,42.920792079208,0,0
-144.71925199129,-161.78192014382,37.725222522252,1352269.9228894,1831.4585269309,2723596.9860805,42.925222522252,0,0
-144.71925188391,-161.79627424652,37.729652965297,1352269.9228894,1831.4585269309,2723596.9860805,42.929652965297,0,0
-144.71925177652,-161.81062834923,37.734083408341,1352269.9228894,1831.4585269309,2723596.9860805,42.934083408341,0,0
-144.71925166914,-161.82498245193,37.738513851385,1352269.9228894,1831.4585269309,2723596.9860805,42.938513851385,0,0
-144.71925156175,-161.83933655463,37.742944294429,1352269.9228894,1831.4585269309,2723596.9860805,42.942944294429,0,0
-144.71925145437,-161.85369065734,37.747374737474,1352269.9228894,1831.4585269309,2723596.9860805,42.947374737474,0,0
-144.71925134698,-161.86804476004,37.751805180518,1352269.9228894,1831.4585269309,2723596.9860805,42.951805180518,0,0
-144.7192512396,-161.88239886275,37.756235623562,1352269.9228894,1831.4585269309,2723596.9860805,42.956235623562,0,0
-144.71925113221,-161.89675296545,37.760666066607,1352269.9228894,1831.4585269309,2723596.9860805,42.960666066607,0,0
-144.71925102483,-161.91110706816,37.765096509651,1352269.9228894,1831.4585269309,2723596.9860805,42.965096509651,0,0
-144.71925091744,-161.92546117086,37.769526952695,1352269.9228894,1831.4585269309,2723596.9860805,42.969526952695,0,0
-144.71925081006,-161.93981527357,37.77395739574,1352269.9228894,1831.4585269309,2723596.9860805,42.97395739574,0,0
-144.71925070267,-161.95416937627,37.778387838784,1352269.9228894,1831.4585269309,2723596.9860805,42.978387838784,0,0
-144.71925059529,-161.96852347898,37.782818281828,1352269.9228894,1831.4585269309,2723596.9860805,42.982818281828,0,0
-144.7192504879,-161.98287758168,37.787248724872,1352269.9228894,1831.4585269309,2723596.9860805,42.987248724872,0,0
-144.71925038051,-161.99723168439,37.791679167917,1352269.9228894,1831.4585269309,2723596.9860805,42.991679167917,0,0
-144.71925027313,-162.01158578709,37.796109610961,1352269.9228894,1831.4585269309,2723596.9860805,42.996109610961,0,0
-144.71925016574,-162.0259398898,37.800540054005,1352269.9228894,1831.4585269309,2723596.9860805,43.000540054005,0,0
-144.71925005836,-162.0402939925,37.80497049705,1352269.9228894,1831.4585269309,2723596.9860805,43.00497049705,0,0
-144.71924995097,-162.0546480952,37.809400940094,1352269.9228894,1831.4585269309,2723596.9860805,43.009400940094,0,0
-144.71924984359,-162.06900219791,37.813831383138,1352269.9228894,1831.4585269309,2723596.9860805,43.013831383138,0,0
-144.7192497362,-162.08335630061,37.818261826183,1352269.9228894,1831.4585269309,2723596.9860805,43.018261826183,0,0
-144.71924962882,-162.09771040332,37.822692269227,1352269.9228894,1831.4585269309,2723596.9860805,43.022692269227,0,0
-144.71924952143,-162.11206450602,37.827122712271,1352269.9228894,1831.4585269309,2723596.9860805,43.027122712271,0,0
-144.71924941405,-162.12641860873,37.831553155316,1352269.9228894,1831.4585269309,2723596.9860805,43.031553155316,0,0
-144.71924930666,-162.14077271143,37.83598359836,1352269.9228894,1831.4585269309,2723596.9860805,43.03598359836,0,0
-144.71924919928,-162.15512681414,37.840414041404,1352269.9228894,1831.4585269309,2723596.9860805,43.040414041404,0,0
-144.71924909189,-162.16948091684,37.844844484448,1352269.9228894,1831.4585269309,2723596.9860805,43.044844484448,0,0
-144.71924898451,-162.18383501955,37.849274927493,1352269.9228894,1831.4585269309,2723596.9860805,43.049274927493,0,0
-144.71924887712,-162.19818912225,37.853705370537,1352269.9228894,1831.4585269309,2723596.9860805,43.053705370537,0,0
-144.71924876973,-162.21254322496,37.858135813581,1352269.9228894,1831.4585269309,2723596.9860805,43.058135813581,0,0
-144.71924866235,-162.22689732766,37.862566256626,1352269.9228894,1831.4585269309,2723596.9860805,43.062566256626,0,0
-144.71924855496,-162.24125143037,37.86699669967,1352269.9228894,1831.4585269309,2723596.9860805,43.06699669967,0,0
-144.71924844758,-162.25560553307,37.871427142714,1352269.9228894,1831.4585269309,2723596.9860805,43.071427142714,0,0
-144.71924834019,-162.26995963578,37.875857585759,1352269.9228894,1831.4585269309,2723596.9860805,43.075857585759,0,0
-144.71924823281,-162.28431373848,37.880288028803,1352269.9228894,1831.4585269309,2723596.9860805,43.080288028803,0,0
-144.71924812542,-162.29866784118,37.884718471847,1352269.9228894,1831.4585269309,2723596.9860805,43.084718471847,0,0
-144.71924801804,-162.31302194389,37.889148914891,1352269.9228894,1831.4585269309,2723596.9860805,43.089148914891,0,0
-144.71924791065,-162.32737604659,37.893579357936,1352269.9228894,1831.4585269309,2723596.9860805,43.093579357936,0,0
-144.71924780327,-162.3417301493,37.89800980098,1352269.9228894,1831.4585269309,2723596.9860805,43.09800980098,0,0
-144.71924769588,-162.356084252,37.902440244024,1352269.9228894,1831.4585269309,2723596.9860805,43.102440244024,0,0
-144.7192475885,-162.37043835471,37.906870687069,1352269.9228894,1831.4585269309,2723596.9860805,43.106870687069,0,0
-144.71924748111,-162.38479245741,37.911301130113,1352269.9228894,1831.4585269309,2723596.9860805,43.111301130113,0,0
-144.71924737373,-162.39914656012,37.915731573157,1352269.9228894,1831.4585269309,2723596.9860805,43.115731573157,0,0
-144.71924726634,-162.41350066282,37.920162016202,1352269.9228894,1831.4585269309,2723596.9860805,43.120162016202,0,0
-144.71924715895,-162.42785476553,37.924592459246,1352269.9228894,1831.4585269309,2723596.9860805,43.124592459246,0,0
-144.71924705157,-162.44220886823,37.92902290229,1352269.9228894,1831.4585269309,2723596.9860805,43.12902290229,0,0
-144.71924694418,-162.45656297094,37.933453345335,1352269.9228894,1831.4585269309,2723596.9860805,43.133453345335,0,0
-144.7192468368,-162.47091707364,37.937883788379,1352269.9228894,1831.4585269309,2723596.9860805,43.137883788379,0,0
-144.71924672941,-162.48527117635,37.942314231423,1352269.9228894,1831.4585269309,2723596.9860805,43.142314231423,0,0
-144.71924662203,-162.49962527905,37.946744674467,1352269.9228894,1831.4585269309,2723596.9860805,43.146744674467,0,0
-144.71924651464,-162.51397938175,37.951175117512,1352269.9228894,1831.4585269309,2723596.9860805,43.151175117512,0,0
-144.71924640726,-162.52833348446,37.955605560556,1352269.9228894,1831.4585269309,2723596.9860805,43.155605560556,0,0
-144.71924629987,-162.54268758716,37.9600360036,1352269.9228894,1831.4585269309,2723596.9860805,43.1600360036,0,0
-144.71924619249,-162.55704168987,37.964466446645,1352269.9228894,1831.4585269309,2723596.9860805,43.164466446645,0,0
-144.7192460851,-162.57139579257,37.968896889689,1352269.9228894,1831.4585269309,2723596.9860805,43.168896889689,0,0
-144.71924597772,-162.58574989528,37.973327332733,1352269.9228894,1831.4585269309,2723596.9860805,43.173327332733,0,0
-144.71924587033,-162.60010399798,37.977757775778,1352269.9228894,1831.4585269309,2723596.9860805,43.177757775778,0,0
-144.71924576295,-162.61445810069,37.982188218822,1352269.9228894,1831.4585269309,2723596.9860805,43.182188218822,0,0
-144.71924565556,-162.62881220339,37.986618661866,1352269.9228894,1831.4585269309,2723596.9860805,43.186618661866,0,0
-144.71924554817,-162.6431663061,37.99104910491,1352269.9228894,1831.4585269309,2723596.9860805,43.19104910491,0,0
-144.71924544079,-162.6575204088,37.995479547955,1352269.9228894,1831.4585269309,2723596.9860805,43.195479547955,0,0
-144.7192453334,-162.67187451151,37.999909990999,1352269.9228894,1831.4585269309,2723596.9860805,43.199909990999,0,0
-144.71924522602,-162.68622861421,38.004340434043,1352269.9228894,1831.4585269309,2723596.9860805,43.204340434043,0,0
-144.71924511863,-162.70058271692,38.008770877088,1352269.9228894,1831.4585269309,2723596.9860805,43.208770877088,0,0
-144.71924501125,-162.71493681962,38.013201320132,1352269.9228894,1831.4585269309,2723596.9860805,43.213201320132,0,0
-144.71924490386,-162.72929092232,38.017631763176,1352269.9228894,1831.4585269309,2723596.9860805,43.217631763176,0,0
-144.71924479648,-162.74364502503,38.022062206221,1352269.9228894,1831.4585269309,2723596.9860805,43.222062206221,0,0
-144.71924468909,-162.75799912773,38.026492649265,1352269.9228894,1831.4585269309,2723596.9860805,43.226492649265,0,0
-144.71924458171,-162.77235323044,38.030923092309,1352269.9228894,1831.4585269309,2723596.9860805,43.230923092309,0,0
-144.71924447432,-162.78670733314,38.035353535354,1352269.9228894,1831.4585269309,2723596.9860805,43.235353535354,0,0
-144.71924436694,-162.80106143585,38.039783978398,1352269.9228894,1831.4585269309,2723596.9860805,43.239783978398,0,0
-144.71924425955,-162.81541553855,38.044214421442,1352269.9228894,1831.4585269309,2723596.9860805,43.244214421442,0,0
-144.71924415217,-162.82976964126,38.048644864486,1352269.9228894,1831.4585269309,2723596.9860805,43.248644864486,0,0
-144.71924404478,-162.84412374396,38.053075307531,1352269.9228894,1831.4585269309,2723596.9860805,43.253075307531,0,0
-144.71924393739,-162.85847784667,38.057505750575,1352269.9228894,1831.4585269309,2723596.9860805,43.257505750575,0,0
-144.71924383001,-162.87283194937,38.061936193619,1352269.9228894,1831.4585269309,2723596.9860805,43.261936193619,0,0
-144.71924372262,-162.88718605208,38.066366636664,1352269.9228894,1831.4585269309,2723596.9860805,43.266366636664,0,0
-144.71924361524,-162.90154015478,38.070797079708,1352269.9228894,1831.4585269309,2723596.9860805,43.270797079708,0,0
-144.71924350785,-162.91589425749,38.075227522752,1352269.9228894,1831.4585269309,2723596.9860805,43.275227522752,0,0
-144.71924340047,-162.93024836019,38.079657965797,1352269.9228894,1831.4585269309,2723596.9860805,43.279657965797,0,0
-144.71924329308,-162.94460246289,38.084088408841,1352269.9228894,1831.4585269309,2723596.9860805,43.284088408841,0,0
-144.7192431857,-162.9589565656,38.088518851885,1352269.9228894,1831.4585269309,2723596.9860805,43.288518851885,0,0
-144.71924307831,-162.9733106683,38.092949294929,1352269.9228894,1831.4585269309,2723596.9860805,43.292949294929,0,0
-144.71924297093,-162.98766477101,38.097379737974,1352269.9228894,1831.4585269309,2723596.9860805,43.297379737974,0,0
-144.71924286354,-163.00201887371,38.101810181018,1352269.9228894,1831.4585269309,2723596.9860805,43.301810181018,0,0
-144.71924275616,-163.01637297642,38.106240624062,1352269.9228894,1831.4585269309,2723596.9860805,43.306240624062,0,0
-144.71924264877,-163.03072707912,38.110671067107,1352269.9228894,1831.4585269309,2723596.9860805,43.310671067107,0,0
-144.71924254139,-163.04508118183,38.115101510151,1352269.9228894,1831.4585269309,2723596.9860805,43.315101510151,0,0
-144.719242434,-163.05943528453,38.119531953195,1352269.9228894,1831.4585269309,2723596.9860805,43.319531953195,0,0
-144.71924232661,-163.07378938724,38.12396239624,1352269.9228894,1831.4585269309,2723596.9860805,43.32396239624,0,0
-144.71924221923,-163.08814348994,38.128392839284,1352269.9228894,1831.4585269309,2723596.9860805,43.328392839284,0,0
-144.71924211184,-163.10249759265,38.132823282328,1352269.9228894,1831.4585269309,2723596.9860805,43.332823282328,0,0
-144.71924200446,-163.11685169535,38.137253725373,1352269.9228894,1831.4585269309,2723596.9860805,43.337253725373,0,0
-144.71924189707,-163.13120579806,38.141684168417,1352269.9228894,1831.4585269309,2723596.9860805,43.341684168417,0,0
-144.71924178969,-163.14555990076,38.146114611461,1352269.9228894,1831.4585269309,2723596.9860805,43.346114611461,0,0
-144.7192416823,-163.15991400346,38.150545054505,1352269.9228894,1831.4585269309,2723596.9860805,43.350545054505,0,0
-144.71924157492,-163.17426810617,38.15497549755,1352269.9228894,1831.4585269309,2723596.9860805,43.35497549755,0,0
-144.71924146753,-163.18862220887,38.159405940594,1352269.9228894,1831.4585269309,2723596.9860805,43.359405940594,0,0
-144.71924136015,-163.20297631158,38.163836383638,1352269.9228894,1831.4585269309,2723596.9860805,43.363836383638,0,0
-144.71924125276,-163.21733041428,38.168266826683,1352269.9228894,1831.4585269309,2723596.9860805,43.368266826683,0,0
-144.71924114538,-163.23168451699,38.172697269727,1352269.9228894,1831.4585269309,2723596.9860805,43.372697269727,0,0
-144.71924103799,-163.24603861969,38.177127712771,1352269.9228894,1831.4585269309,2723596.9860805,43.377127712771,0,0
-144.71924093061,-163.2603927224,38.181558155816,1352269.9228894,1831.4585269309,2723596.9860805,43.381558155816,0,0
-144.71924082322,-163.2747468251,38.18598859886,1352269.9228894,1831.4585269309,2723596.9860805,43.38598859886,0,0
-144.71924071583,-163.28910092781,38.190419041904,1352269.9228894,1831.4585269309,2723596.9860805,43.390419041904,0,0
-144.71924060845,-163.30345503051,38.194849484948,1352269.9228894,1831.4585269309,2723596.9860805,43.394849484948,0,0
-144.71924050106,-163.31780913322,38.199279927993,1352269.9228894,1831.4585269309,2723596.9860805,43.399279927993,0,0
-144.71924039368,-163.33216323592,38.203710371037,1352269.9228894,1831.4585269309,2723596.9860805,43.403710371037,0,0
-144.71924028629,-163.34651733863,38.208140814081,1352269.9228894,1831.4585269309,2723596.9860805,43.408140814081,0,0
-144.71924017891,-163.36087144133,38.212571257126,1352269.9228894,1831.4585269309,2723596.9860805,43.412571257126,0,0
-144.71924007152,-163.37522554403,38.21700170017,1352269.9228894,1831.4585269309,2723596.9860805,43.41700170017,0,0
-144.71923996414,-163.38957964674,38.221432143214,1352269.9228894,1831.4585269309,2723596.9860805,43.421432143214,0,0
-144.71923985675,-163.40393374944,38.225862586259,1352269.9228894,1831.4585269309,2723596.9860805,43.425862586259,0,0
-144.71923974937,-163.41828785215,38.230293029303,1352269.9228894,1831.4585269309,2723596.9860805,43.430293029303,0,0
-144.71923964198,-163.43264195485,38.234723472347,1352269.9228894,1831.4585269309,2723596.9860805,43.434723472347,0,0
-144.7192395346,-163.44699605756,38.239153915392,1352269.9228894,1831.4585269309,2723596.9860805,43.439153915392,0,0
-144.71923942721,-163.46135016026,38.243584358436,1352269.9228894,1831.4585269309,2723596.9860805,43.443584358436,0,0
-144.71923931983,-163.47570426297,38.24801480148,1352269.9228894,1831.4585269309,2723596.9860805,43.44801480148,0,0
-144.71923921244,-163.49005836567,38.252445244524,1352269.9228894,1831.4585269309,2723596.9860805,43.452445244524,0,0
-144.71923910505,-163.50441246838,38.256875687569,1352269.9228894,1831.4585269309,2723596.9860805,43.456875687569,0,0
-144.71923899767,-163.51876657108,38.261306130613,1352269.9228894,1831.4585269309,2723596.9860805,43.461306130613,0,0
-144.71923889028,-163.53312067379,38.265736573657,1352269.9228894,1831.4585269309,2723596.9860805,43.465736573657,0,0
-144.7192387829,-163.54747477649,38.270167016702,1352269.9228894,1831.4585269309,2723596.9860805,43.470167016702,0,0
-144.71923867551,-163.5618288792,38.274597459746,1352269.9228894,1831.4585269309,2723596.9860805,43.474597459746,0,0
-144.71923856813,-163.5761829819,38.27902790279,1352269.9228894,1831.4585269309,2723596.9860805,43.47902790279,0,0
-144.71923846074,-163.5905370846,38.283458345835,1352269.9228894,1831.4585269309,2723596.9860805,43.483458345835,0,0
-144.71923835336,-163.60489118731,38.287888788879,1352269.9228894,1831.4585269309,2723596.9860805,43.487888788879,0,0
-144.71923824597,-163.61924529001,38.292319231923,1352269.9228894,1831.4585269309,2723596.9860805,43.492319231923,0,0
-144.71923813859,-163.63359939272,38.296749674967,1352269.9228894,1831.4585269309,2723596.9860805,43.496749674967,0,0
-144.7192380312,-163.64795349542,38.301180118012,1352269.9228894,1831.4585269309,2723596.9860805,43.501180118012,0,0
-144.71923792382,-163.66230759813,38.305610561056,1352269.9228894,1831.4585269309,2723596.9860805,43.505610561056,0,0
-144.71923781643,-163.67666170083,38.3100410041,1352269.9228894,1831.4585269309,2723596.9860805,43.5100410041,0,0
-144.71923770905,-163.69101580354,38.314471447145,1352269.9228894,1831.4585269309,2723596.9860805,43.514471447145,0,0
-144.71923760166,-163.70536990624,38.318901890189,1352269.9228894,1831.4585269309,2723596.9860805,43.518901890189,0,0
-144.71923749427,-163.71972400895,38.323332333233,1352269.9228894,1831.4585269309,2723596.9860805,43.523332333233,0,0
-144.71923738689,-163.73407811165,38.327762776278,1352269.9228894,1831.4585269309,2723596.9860805,43.527762776278,0,0
-144.7192372795,-163.74843221436,38.332193219322,1352269.9228894,1831.4585269309,2723596.9860805,43.532193219322,0,0
-144.71923717212,-163.76278631706,38.336623662366,1352269.9228894,1831.4585269309,2723596.9860805,43.536623662366,0,0
-144.71923706473,-163.77714041977,38.341054105411,1352269.9228894,1831.4585269309,2723596.9860805,43.541054105411,0,0
-144.71923695735,-163.79149452247,38.345484548455,1352269.9228894,1831.4585269309,2723596.9860805,43.545484548455,0,0
-144.71923684996,-163.80584862518,38.349914991499,1352269.9228894,1831.4585269309,2723596.9860805,43.549914991499,0,0
-144.71923674258,-163.82020272788,38.354345434543,1352269.9228894,1831.4585269309,2723596.9860805,43.554345434543,0,0
-144.71923663519,-163.83455683058,38.358775877588,1352269.9228894,1831.4585269309,2723596.9860805,43.558775877588,0,0
-144.71923652781,-163.84891093329,38.363206320632,1352269.9228894,1831.4585269309,2723596.9860805,43.563206320632,0,0
-144.71923642042,-163.86326503599,38.367636763676,1352269.9228894,1831.4585269309,2723596.9860805,43.567636763676,0,0
-144.71923631304,-163.8776191387,38.372067206721,1352269.9228894,1831.4585269309,2723596.9860805,43.572067206721,0,0
-144.71923620565,-163.8919732414,38.376497649765,1352269.9228894,1831.4585269309,2723596.9860805,43.576497649765,0,0
-144.71923609827,-163.90632734411,38.380928092809,1352269.9228894,1831.4585269309,2723596.9860805,43.580928092809,0,0
-144.71923599088,-163.92068144681,38.385358535854,1352269.9228894,1831.4585269309,2723596.9860805,43.585358535854,0,0
-144.71923588349,-163.93503554952,38.389788978898,1352269.9228894,1831.4585269309,2723596.9860805,43.589788978898,0,0
-144.71923577611,-163.94938965222,38.394219421942,1352269.9228894,1831.4585269309,2723596.9860805,43.594219421942,0,0
-144.71923566872,-163.96374375493,38.398649864986,1352269.9228894,1831.4585269309,2723596.9860805,43.598649864986,0,0
-144.71923556134,-163.97809785763,38.403080308031,1352269.9228894,1831.4585269309,2723596.9860805,43.603080308031,0,0
-144.71923545395,-163.99245196034,38.407510751075,1352269.9228894,1831.4585269309,2723596.9860805,43.607510751075,0,0
-144.71923534657,-164.00680606304,38.411941194119,1352269.9228894,1831.4585269309,2723596.9860805,43.611941194119,0,0
-144.71923523918,-164.02116016575,38.416371637164,1352269.9228894,1831.4585269309,2723596.9860805,43.616371637164,0,0
-144.7192351318,-164.03551426845,38.420802080208,1352269.9228894,1831.4585269309,2723596.9860805,43.620802080208,0,0
-144.71923502441,-164.04986837115,38.425232523252,1352269.9228894,1831.4585269309,2723596.9860805,43.625232523252,0,0
-144.71923491703,-164.06422247386,38.429662966297,1352269.9228894,1831.4585269309,2723596.9860805,43.629662966297,0,0
-144.71923480964,-164.07857657656,38.434093409341,1352269.9228894,1831.4585269309,2723596.9860805,43.634093409341,0,0
-144.71923470226,-164.09293067927,38.438523852385,1352269.9228894,1831.4585269309,2723596.9860805,43.638523852385,0,0
-144.71923459487,-164.10728478197,38.44295429543,1352269.9228894,1831.4585269309,2723596.9860805,43.64295429543,0,0
-144.71923448749,-164.12163888468,38.447384738474,1352269.9228894,1831.4585269309,2723596.9860805,43.647384738474,0,0
-144.7192343801,-164.13599298738,38.451815181518,1352269.9228894,1831.4585269309,2723596.9860805,43.651815181518,0,0
-144.71923427271,-164.15034709009,38.456245624562,1352269.9228894,1831.4585269309,2723596.9860805,43.656245624562,0,0
-144.71923416533,-164.16470119279,38.460676067607,1352269.9228894,1831.4585269309,2723596.9860805,43.660676067607,0,0
-144.71923405794,-164.1790552955,38.465106510651,1352269.9228894,1831.4585269309,2723596.9860805,43.665106510651,0,0
-144.71923395056,-164.1934093982,38.469536953695,1352269.9228894,1831.4585269309,2723596.9860805,43.669536953695,0,0
-144.71923384317,-164.20776350091,38.47396739674,1352269.9228894,1831.4585269309,2723596.9860805,43.67396739674,0,0
-144.71923373579,-164.22211760361,38.478397839784,1352269.9228894,1831.4585269309,2723596.9860805,43.678397839784,0,0
-144.7192336284,-164.23647170632,38.482828282828,1352269.9228894,1831.4585269309,2723596.9860805,43.682828282828,0,0
-144.71923352102,-164.25082580902,38.487258725873,1352269.9228894,1831.4585269309,2723596.9860805,43.687258725873,0,0
-144.71923341363,-164.26517991172,38.491689168917,1352269.9228894,1831.4585269309,2723596.9860805,43.691689168917,0,0
-144.71923330625,-164.27953401443,38.496119611961,1352269.9228894,1831.4585269309,2723596.9860805,43.696119611961,0,0
-144.71923319886,-164.29388811713,38.500550055005,1352269.9228894,1831.4585269309,2723596.9860805,43.700550055006,0,0
-144.71923309148,-164.30824221984,38.50498049805,1352269.9228894,1831.4585269309,2723596.9860805,43.70498049805,0,0
-144.71923298409,-164.32259632254,38.509410941094,1352269.9228894,1831.4585269309,2723596.9860805,43.709410941094,0,0
-144.71923287671,-164.33695042525,38.513841384138,1352269.9228894,1831.4585269309,2723596.9860805,43.713841384138,0,0
-144.71923276932,-164.35130452795,38.518271827183,1352269.9228894,1831.4585269309,2723596.9860805,43.718271827183,0,0
-144.71923266193,-164.36565863066,38.522702270227,1352269.9228894,1831.4585269309,2723596.9860805,43.722702270227,0,0
-144.71923255455,-164.38001273336,38.527132713271,1352269.9228894,1831.4585269309,2723596.9860805,43.727132713271,0,0
-144.71923244716,-164.39436683607,38.531563156316,1352269.9228894,1831.4585269309,2723596.9860805,43.731563156316,0,0
-144.71923233978,-164.40872093877,38.53599359936,1352269.9228894,1831.4585269309,2723596.9860805,43.73599359936,0,0
-144.71923223239,-164.42307504148,38.540424042404,1352269.9228894,1831.4585269309,2723596.9860805,43.740424042404,0,0
-144.71923212501,-164.43742914418,38.544854485449,1352269.9228894,1831.4585269309,2723596.9860805,43.744854485449,0,0
-144.71923201762,-164.45178324689,38.549284928493,1352269.9228894,1831.4585269309,2723596.9860805,43.749284928493,0,0
-144.71923191024,-164.46613734959,38.553715371537,1352269.9228894,1831.4585269309,2723596.9860805,43.753715371537,0,0
-144.71923180285,-164.48049145229,38.558145814581,1352269.9228894,1831.4585269309,2723596.9860805,43.758145814581,0,0
-144.71923169547,-164.494845555,38.562576257626,1352269.9228894,1831.4585269309,2723596.9860805,43.762576257626,0,0
-144.71923158808,-164.5091996577,38.56700670067,1352269.9228894,1831.4585269309,2723596.9860805,43.76700670067,0,0
-144.7192314807,-164.52355376041,38.571437143714,1352269.9228894,1831.4585269309,2723596.9860805,43.771437143714,0,0
-144.71923137331,-164.53790786311,38.575867586759,1352269.9228894,1831.4585269309,2723596.9860805,43.775867586759,0,0
-144.71923126593,-164.55226196582,38.580298029803,1352269.9228894,1831.4585269309,2723596.9860805,43.780298029803,0,0
-144.71923115854,-164.56661606852,38.584728472847,1352269.9228894,1831.4585269309,2723596.9860805,43.784728472847,0,0
-144.71923105115,-164.58097017123,38.589158915892,1352269.9228894,1831.4585269309,2723596.9860805,43.789158915892,0,0
-144.71923094377,-164.59532427393,38.593589358936,1352269.9228894,1831.4585269309,2723596.9860805,43.793589358936,0,0
-144.71923083638,-164.60967837664,38.59801980198,1352269.9228894,1831.4585269309,2723596.9860805,43.79801980198,0,0
-144.719230729,-164.62403247934,38.602450245024,1352269.9228894,1831.4585269309,2723596.9860805,43.802450245025,0,0
-144.71923062161,-164.63838658205,38.606880688069,1352269.9228894,1831.4585269309,2723596.9860805,43.806880688069,0,0
-144.71923051423,-164.65274068475,38.611311131113,1352269.9228894,1831.4585269309,2723596.9860805,43.811311131113,0,0
-144.71923040684,-164.66709478746,38.615741574157,1352269.9228894,1831.4585269309,2723596.9860805,43.815741574157,0,0
-144.71923029946,-164.68144889016,38.620172017202,1352269.9228894,1831.4585269309,2723596.9860805,43.820172017202,0,0
-144.71923019207,-164.69580299286,38.624602460246,1352269.9228894,1831.4585269309,2723596.9860805,43.824602460246,0,0
-144.71923008469,-164.71015709557,38.62903290329,1352269.9228894,1831.4585269309,2723596.9860805,43.82903290329,0,0
-144.7192299773,-164.72451119827,38.633463346335,1352269.9228894,1831.4585269309,2723596.9860805,43.833463346335,0,0
-144.71922986992,-164.73886530098,38.637893789379,1352269.9228894,1831.4585269309,2723596.9860805,43.837893789379,0,0
-144.71922976253,-164.75321940368,38.642324232423,1352269.9228894,1831.4585269309,2723596.9860805,43.842324232423,0,0
-144.71922965515,-164.76757350639,38.646754675468,1352269.9228894,1831.4585269309,2723596.9860805,43.846754675468,0,0
-144.71922954776,-164.78192760909,38.651185118512,1352269.9228894,1831.4585269309,2723596.9860805,43.851185118512,0,0
-144.71922944037,-164.7962817118,38.655615561556,1352269.9228894,1831.4585269309,2723596.9860805,43.855615561556,0,0
-144.71922933299,-164.8106358145,38.6600460046,1352269.9228894,1831.4585269309,2723596.9860805,43.8600460046,0,0
-144.7192292256,-164.82498991721,38.664476447645,1352269.9228894,1831.4585269309,2723596.9860805,43.864476447645,0,0
-144.71922911822,-164.83934401991,38.668906890689,1352269.9228894,1831.4585269309,2723596.9860805,43.868906890689,0,0
-144.71922901083,-164.85369812262,38.673337333733,1352269.9228894,1831.4585269309,2723596.9860805,43.873337333733,0,0
-144.71922890345,-164.86805222532,38.677767776778,1352269.9228894,1831.4585269309,2723596.9860805,43.877767776778,0,0
-144.71922879606,-164.88240632803,38.682198219822,1352269.9228894,1831.4585269309,2723596.9860805,43.882198219822,0,0
-144.71922868868,-164.89676043073,38.686628662866,1352269.9228894,1831.4585269309,2723596.9860805,43.886628662866,0,0
-144.71922858129,-164.91111453343,38.691059105911,1352269.9228894,1831.4585269309,2723596.9860805,43.891059105911,0,0
-144.71922847391,-164.92546863614,38.695489548955,1352269.9228894,1831.4585269309,2723596.9860805,43.895489548955,0,0
-144.71922836652,-164.93982273884,38.699919991999,1352269.9228894,1831.4585269309,2723596.9860805,43.899919991999,0,0
-144.71922825914,-164.95417684155,38.704350435044,1352269.9228894,1831.4585269309,2723596.9860805,43.904350435044,0,0
-144.71922815175,-164.96853094425,38.708780878088,1352269.9228894,1831.4585269309,2723596.9860805,43.908780878088,0,0
-144.71922804437,-164.98288504696,38.713211321132,1352269.9228894,1831.4585269309,2723596.9860805,43.913211321132,0,0
-144.71922793694,-164.99723914982,38.717641764176,1352548.2752038,-712.71728425016,2718212.9732318,43.917641764176,0,0
-144.71922782939,-165.01159325318,38.722072207221,1352548.2752038,-712.71728425016,2718212.9732318,43.922072207221,0,0
-144.71922772184,-165.02594735654,38.726502650265,1352548.2752038,-712.71728425016,2718212.9732318,43.926502650265,0,0
-144.71922761429,-165.04030145989,38.730933093309,1352548.2752038,-712.71728425016,2718212.9732318,43.930933093309,0,0
-144.71922750674,-165.05465556325,38.735363536354,1352548.2752038,-712.71728425016,2718212.9732318,43.935363536354,0,0
-144.71922739919,-165.06900966661,38.739793979398,1352548.2752038,-712.71728425016,2718212.9732318,43.939793979398,0,0
-144.7192272916,-165.08336376948,38.744224422442,1351759.1488175,1990.468896247,2714501.7227916,43.944224422442,0,0
-144.71922718402,-165.09771787225,38.748654865487,1351759.1488175,1990.468896247,2714501.7227916,43.948654865487,0,0
-144.71922707643,-165.11207197501,38.753085308531,1351759.1488175,1990.468896247,2714501.7227916,43.953085308531,0,0
-144.71922696884,-165.12642607778,38.757515751575,1351759.1488175,1990.468896247,2714501.7227916,43.957515751575,0,0
-144.71922686126,-165.14078018054,38.761946194619,1351759.1488175,1990.468896247,2714501.7227916,43.961946194619,0,0
-144.71922675367,-165.15513428331,38.766376637664,1351759.1488175,1990.468896247,2714501.7227916,43.966376637664,0,0
-144.71922664608,-165.16948838607,38.770807080708,1351759.1488175,1990.468896247,2714501.7227916,43.970807080708,0,0
-144.7192265385,-165.18384248884,38.775237523752,1351759.1488175,1990.468896247,2714501.7227916,43.975237523752,0,0
-144.71922643091,-165.1981965916,38.779667966797,1351759.1488175,1990.468896247,2714501.7227916,43.979667966797,0,0
-144.71922632332,-165.21255069437,38.784098409841,1351759.1488175,1990.468896247,2714501.7227916,43.984098409841,0,0
-144.71922621574,-165.22690479713,38.788528852885,1351759.1488175,1990.468896247,2714501.7227916,43.988528852885,0,0
-144.71922610815,-165.2412588999,38.79295929593,1351759.1488175,1990.468896247,2714501.7227916,43.99295929593,0,0
-144.71922600056,-165.25561300266,38.797389738974,1351759.1488175,1990.468896247,2714501.7227916,43.997389738974,0,0
-144.71922589298,-165.26996710543,38.801820182018,1351759.1488175,1990.468896247,2714501.7227916,44.001820182018,0,0
-144.71922578539,-165.28432120819,38.806250625063,1351759.1488175,1990.468896247,2714501.7227916,44.006250625063,0,0
-144.7192256778,-165.29867531096,38.810681068107,1351759.1488175,1990.468896247,2714501.7227916,44.010681068107,0,0
-144.71922557022,-165.31302941373,38.815111511151,1351759.1488175,1990.468896247,2714501.7227916,44.015111511151,0,0
-144.71922546263,-165.32738351649,38.819541954195,1351759.1488175,1990.468896247,2714501.7227916,44.019541954195,0,0
-144.71922535504,-165.34173761926,38.82397239724,1351759.1488175,1990.468896247,2714501.7227916,44.02397239724,0,0
-144.71922524746,-165.35609172202,38.828402840284,1351759.1488175,1990.468896247,2714501.7227916,44.028402840284,0,0
-144.71922513987,-165.37044582479,38.832833283328,1351759.1488175,1990.468896247,2714501.7227916,44.032833283328,0,0
-144.71922503228,-165.38479992755,38.837263726373,1351759.1488175,1990.468896247,2714501.7227916,44.037263726373,0,0
-144.7192249247,-165.39915403032,38.841694169417,1351759.1488175,1990.468896247,2714501.7227916,44.041694169417,0,0
-144.71922481711,-165.41350813308,38.846124612461,1351759.1488175,1990.468896247,2714501.7227916,44.046124612461,0,0
-144.71922470952,-165.42786223585,38.850555055506,1351759.1488175,1990.468896247,2714501.7227916,44.050555055506,0,0
-144.71922460194,-165.44221633861,38.85498549855,1351759.1488175,1990.468896247,2714501.7227916,44.05498549855,0,0
-144.71922449435,-165.45657044138,38.859415941594,1351759.1488175,1990.468896247,2714501.7227916,44.059415941594,0,0
-144.71922438676,-165.47092454414,38.863846384638,1351759.1488175,1990.468896247,2714501.7227916,44.063846384638,0,0
-144.71922427918,-165.48527864691,38.868276827683,1351759.1488175,1990.468896247,2714501.7227916,44.068276827683,0,0
-144.71922417159,-165.49963274967,38.872707270727,1351759.1488175,1990.468896247,2714501.7227916,44.072707270727,0,0
-144.719224064,-165.51398685244,38.877137713771,1351759.1488175,1990.468896247,2714501.7227916,44.077137713771,0,0
-144.71922395642,-165.5283409552,38.881568156816,1351759.1488175,1990.468896247,2714501.7227916,44.081568156816,0,0
-144.71922384883,-165.54269505797,38.88599859986,1351759.1488175,1990.468896247,2714501.7227916,44.08599859986,0,0
-144.71922374124,-165.55704916073,38.890429042904,1351759.1488175,1990.468896247,2714501.7227916,44.090429042904,0,0
-144.71922363366,-165.5714032635,38.894859485949,1351759.1488175,1990.468896247,2714501.7227916,44.094859485949,0,0
-144.71922352607,-165.58575736626,38.899289928993,1351759.1488175,1990.468896247,2714501.7227916,44.099289928993,0,0
-144.71922341848,-165.60011146903,38.903720372037,1351759.1488175,1990.468896247,2714501.7227916,44.103720372037,0,0
-144.7192233109,-165.61446557179,38.908150815082,1351759.1488175,1990.468896247,2714501.7227916,44.108150815082,0,0
-144.71922320331,-165.62881967456,38.912581258126,1351759.1488175,1990.468896247,2714501.7227916,44.112581258126,0,0
-144.71922309572,-165.64317377732,38.91701170117,1351759.1488175,1990.468896247,2714501.7227916,44.11701170117,0,0
-144.71922298814,-165.65752788009,38.921442144214,1351759.1488175,1990.468896247,2714501.7227916,44.121442144214,0,0
-144.71922288055,-165.67188198285,38.925872587259,1351759.1488175,1990.468896247,2714501.7227916,44.125872587259,0,0
-144.71922277296,-165.68623608562,38.930303030303,1351759.1488175,1990.468896247,2714501.7227916,44.130303030303,0,0
-144.71922266538,-165.70059018838,38.934733473347,1351759.1488175,1990.468896247,2714501.7227916,44.134733473347,0,0
-144.71922255779,-165.71494429115,38.939163916392,1351759.1488175,1990.468896247,2714501.7227916,44.139163916392,0,0
-144.7192224502,-165.72929839391,38.943594359436,1351759.1488175,1990.468896247,2714501.7227916,44.143594359436,0,0
-144.71922234262,-165.74365249668,38.94802480248,1351759.1488175,1990.468896247,2714501.7227916,44.14802480248,0,0
-144.71922223503,-165.75800659944,38.952455245525,1351759.1488175,1990.468896247,2714501.7227916,44.152455245525,0,0
-144.71922212744,-165.77236070221,38.956885688569,1351759.1488175,1990.468896247,2714501.7227916,44.156885688569,0,0
-144.71922201986,-165.78671480497,38.961316131613,1351759.1488175,1990.468896247,2714501.7227916,44.161316131613,0,0
-144.71922191227,-165.80106890774,38.965746574657,1351759.1488175,1990.468896247,2714501.7227916,44.165746574657,0,0
-144.71922180468,-165.8154230105,38.970177017702,1351759.1488175,1990.468896247,2714501.7227916,44.170177017702,0,0
-144.7192216971,-165.82977711327,38.974607460746,1351759.1488175,1990.468896247,2714501.7227916,44.174607460746,0,0
-144.71922158951,-165.84413121603,38.97903790379,1351759.1488175,1990.468896247,2714501.7227916,44.17903790379,0,0
-144.71922148192,-165.8584853188,38.983468346835,1351759.1488175,1990.468896247,2714501.7227916,44.183468346835,0,0
-144.71922137434,-165.87283942156,38.987898789879,1351759.1488175,1990.468896247,2714501.7227916,44.187898789879,0,0
-144.71922126675,-165.88719352433,38.992329232923,1351759.1488175,1990.468896247,2714501.7227916,44.192329232923,0,0
-144.71922115916,-165.9015476271,38.996759675968,1351759.1488175,1990.468896247,2714501.7227916,44.196759675968,0,0
-144.71922105158,-165.91590172986,39.001190119012,1351759.1488175,1990.468896247,2714501.7227916,44.201190119012,0,0
-144.71922094399,-165.93025583263,39.005620562056,1351759.1488175,1990.468896247,2714501.7227916,44.205620562056,0,0
-144.7192208364,-165.94460993539,39.010051005101,1351759.1488175,1990.468896247,2714501.7227916,44.210051005101,0,0
-144.71922072882,-165.95896403816,39.014481448145,1351759.1488175,1990.468896247,2714501.7227916,44.214481448145,0,0
-144.71922062123,-165.97331814092,39.018911891189,1351759.1488175,1990.468896247,2714501.7227916,44.218911891189,0,0
-144.71922051364,-165.98767224369,39.023342334233,1351759.1488175,1990.468896247,2714501.7227916,44.223342334233,0,0
-144.71922040606,-166.00202634645,39.027772777278,1351759.1488175,1990.468896247,2714501.7227916,44.227772777278,0,0
-144.71922029847,-166.01638044922,39.032203220322,1351759.1488175,1990.468896247,2714501.7227916,44.232203220322,0,0
-144.71922019088,-166.03073455198,39.036633663366,1351759.1488175,1990.468896247,2714501.7227916,44.236633663366,0,0
-144.7192200833,-166.04508865475,39.041064106411,1351759.1488175,1990.468896247,2714501.7227916,44.241064106411,0,0
-144.71921997571,-166.05944275751,39.045494549455,1351759.1488175,1990.468896247,2714501.7227916,44.245494549455,0,0
-144.71921986812,-166.07379686028,39.049924992499,1351759.1488175,1990.468896247,2714501.7227916,44.249924992499,0,0
-144.71921976054,-166.08815096304,39.054355435544,1351759.1488175,1990.468896247,2714501.7227916,44.254355435544,0,0
-144.71921965295,-166.10250506581,39.058785878588,1351759.1488175,1990.468896247,2714501.7227916,44.258785878588,0,0
-144.71921954536,-166.11685916857,39.063216321632,1351759.1488175,1990.468896247,2714501.7227916,44.263216321632,0,0
-144.71921943778,-166.13121327134,39.067646764676,1351759.1488175,1990.468896247,2714501.7227916,44.267646764676,0,0
-144.71921933019,-166.1455673741,39.072077207721,1351759.1488175,1990.468896247,2714501.7227916,44.272077207721,0,0
-144.7192192226,-166.15992147687,39.076507650765,1351759.1488175,1990.468896247,2714501.7227916,44.276507650765,0,0
-144.71921911502,-166.17427557963,39.080938093809,1351759.1488175,1990.468896247,2714501.7227916,44.280938093809,0,0
-144.71921900743,-166.1886296824,39.085368536854,1351759.1488175,1990.468896247,2714501.7227916,44.285368536854,0,0
-144.71921889984,-166.20298378516,39.089798979898,1351759.1488175,1990.468896247,2714501.7227916,44.289798979898,0,0
-144.71921879226,-166.21733788793,39.094229422942,1351759.1488175,1990.468896247,2714501.7227916,44.294229422942,0,0
-144.71921868467,-166.23169199069,39.098659865987,1351759.1488175,1990.468896247,2714501.7227916,44.298659865987,0,0
-144.71921857708,-166.24604609346,39.103090309031,1351759.1488175,1990.468896247,2714501.7227916,44.303090309031,0,0
-144.7192184695,-166.26040019622,39.107520752075,1351759.1488175,1990.468896247,2714501.7227916,44.307520752075,0,0
-144.71921836191,-166.27475429899,39.11195119512,1351759.1488175,1990.468896247,2714501.7227916,44.31195119512,0,0
-144.71921825432,-166.28910840175,39.116381638164,1351759.1488175,1990.468896247,2714501.7227916,44.316381638164,0,0
-144.71921814674,-166.30346250452,39.120812081208,1351759.1488175,1990.468896247,2714501.7227916,44.320812081208,0,0
-144.71921803915,-166.31781660728,39.125242524252,1351759.1488175,1990.468896247,2714501.7227916,44.325242524252,0,0
-144.71921793156,-166.33217071005,39.129672967297,1351759.1488175,1990.468896247,2714501.7227916,44.329672967297,0,0
-144.71921782398,-166.34652481281,39.134103410341,1351759.1488175,1990.468896247,2714501.7227916,44.334103410341,0,0
-144.71921771639,-166.36087891558,39.138533853385,1351759.1488175,1990.468896247,2714501.7227916,44.338533853385,0,0
-144.7192176088,-166.37523301834,39.14296429643,1351759.1488175,1990.468896247,2714501.7227916,44.34296429643,0,0
-144.71921750122,-166.38958712111,39.147394739474,1351759.1488175,1990.468896247,2714501.7227916,44.347394739474,0,0
-144.71921739363,-166.40394122387,39.151825182518,1351759.1488175,1990.468896247,2714501.7227916,44.351825182518,0,0
-144.71921728604,-166.41829532664,39.156255625563,1351759.1488175,1990.468896247,2714501.7227916,44.356255625563,0,0
-144.71921717846,-166.4326494294,39.160686068607,1351759.1488175,1990.468896247,2714501.7227916,44.360686068607,0,0
-144.71921707087,-166.44700353217,39.165116511651,1351759.1488175,1990.468896247,2714501.7227916,44.365116511651,0,0
-144.71921696328,-166.46135763493,39.169546954695,1351759.1488175,1990.468896247,2714501.7227916,44.369546954695,0,0
-144.7192168557,-166.4757117377,39.17397739774,1351759.1488175,1990.468896247,2714501.7227916,44.37397739774,0,0
-144.71921674811,-166.49006584047,39.178407840784,1351759.1488175,1990.468896247,2714501.7227916,44.378407840784,0,0
-144.71921664052,-166.50441994323,39.182838283828,1351759.1488175,1990.468896247,2714501.7227916,44.382838283828,0,0
-144.71921653294,-166.518774046,39.187268726873,1351759.1488175,1990.468896247,2714501.7227916,44.387268726873,0,0
-144.71921642535,-166.53312814876,39.191699169917,1351759.1488175,1990.468896247,2714501.7227916,44.391699169917,0,0
-144.71921631776,-166.54748225153,39.196129612961,1351759.1488175,1990.468896247,2714501.7227916,44.396129612961,0,0
-144.71921621017,-166.56183635429,39.200560056006,1351759.1488175,1990.468896247,2714501.7227916,44.400560056006,0,0
-144.71921610259,-166.57619045706,39.20499049905,1351759.1488175,1990.468896247,2714501.7227916,44.40499049905,0,0
-144.719215995,-166.59054455982,39.209420942094,1351759.1488175,1990.468896247,2714501.7227916,44.409420942094,0,0
-144.71921588741,-166.60489866259,39.213851385139,1351759.1488175,1990.468896247,2714501.7227916,44.413851385139,0,0
-144.71921577983,-166.61925276535,39.218281828183,1351759.1488175,1990.468896247,2714501.7227916,44.418281828183,0,0
-144.71921567224,-166.63360686812,39.222712271227,1351759.1488175,1990.468896247,2714501.7227916,44.422712271227,0,0
-144.71921556465,-166.64796097088,39.227142714271,1351759.1488175,1990.468896247,2714501.7227916,44.427142714271,0,0
-144.71921545707,-166.66231507365,39.231573157316,1351759.1488175,1990.468896247,2714501.7227916,44.431573157316,0,0
-144.71921534948,-166.67666917641,39.23600360036,1351759.1488175,1990.468896247,2714501.7227916,44.43600360036,0,0
-144.71921524189,-166.69102327918,39.240434043404,1351759.1488175,1990.468896247,2714501.7227916,44.440434043404,0,0
-144.71921513431,-166.70537738194,39.244864486449,1351759.1488175,1990.468896247,2714501.7227916,44.444864486449,0,0
-144.71921502672,-166.71973148471,39.249294929493,1351759.1488175,1990.468896247,2714501.7227916,44.449294929493,0,0
-144.71921491913,-166.73408558747,39.253725372537,1351759.1488175,1990.468896247,2714501.7227916,44.453725372537,0,0
-144.71921481155,-166.74843969024,39.258155815582,1351759.1488175,1990.468896247,2714501.7227916,44.458155815582,0,0
-144.71921470396,-166.762793793,39.262586258626,1351759.1488175,1990.468896247,2714501.7227916,44.462586258626,0,0
-144.71921459637,-166.77714789577,39.26701670167,1351759.1488175,1990.468896247,2714501.7227916,44.46701670167,0,0
-144.71921448879,-166.79150199853,39.271447144714,1351759.1488175,1990.468896247,2714501.7227916,44.471447144714,0,0
-144.7192143812,-166.8058561013,39.275877587759,1351759.1488175,1990.468896247,2714501.7227916,44.475877587759,0,0
-144.71921427361,-166.82021020406,39.280308030803,1351759.1488175,1990.468896247,2714501.7227916,44.480308030803,0,0
-144.71921416603,-166.83456430683,39.284738473847,1351759.1488175,1990.468896247,2714501.7227916,44.484738473847,0,0
-144.71921405844,-166.84891840959,39.289168916892,1351759.1488175,1990.468896247,2714501.7227916,44.489168916892,0,0
-144.71921395085,-166.86327251236,39.293599359936,1351759.1488175,1990.468896247,2714501.7227916,44.493599359936,0,0
-144.71921384327,-166.87762661512,39.29802980298,1351759.1488175,1990.468896247,2714501.7227916,44.49802980298,0,0
-144.71921373568,-166.89198071789,39.302460246025,1351759.1488175,1990.468896247,2714501.7227916,44.502460246025,0,0
-144.71921362809,-166.90633482065,39.306890689069,1351759.1488175,1990.468896247,2714501.7227916,44.506890689069,0,0
-144.71921352051,-166.92068892342,39.311321132113,1351759.1488175,1990.468896247,2714501.7227916,44.511321132113,0,0
-144.71921341292,-166.93504302618,39.315751575158,1351759.1488175,1990.468896247,2714501.7227916,44.515751575158,0,0
-144.71921330533,-166.94939712895,39.320182018202,1351759.1488175,1990.468896247,2714501.7227916,44.520182018202,0,0
-144.71921319775,-166.96375123171,39.324612461246,1351759.1488175,1990.468896247,2714501.7227916,44.524612461246,0,0
-144.71921309016,-166.97810533448,39.32904290429,1351759.1488175,1990.468896247,2714501.7227916,44.52904290429,0,0
-144.71921298255,-166.99245943724,39.333473347335,1351839.3178878,-1867.7852927794,2713647.1745529,44.533473347335,0,0
-144.71921287493,-167.00681354,39.337903790379,1351839.3178878,-1867.7852927794,2713647.1745529,44.537903790379,0,0
-144.71921276732,-167.02116764277,39.342334233423,1351839.3178878,-1867.7852927794,2713647.1745529,44.542334233423,0,0
-144.7192126597,-167.03552174553,39.346764676468,1351839.3178878,-1867.7852927794,2713647.1745529,44.546764676468,0,0
-144.71921255209,-167.04987584829,39.351195119512,1351839.3178878,-1867.7852927794,2713647.1745529,44.551195119512,0,0
-144.71921244447,-167.06422995106,39.355625562556,1351839.3178878,-1867.7852927794,2713647.1745529,44.555625562556,0,0
-144.71921233685,-167.07858405382,39.360056005601,1351839.3178878,-1867.7852927794,2713647.1745529,44.560056005601,0,0
-144.71921222924,-167.09293815658,39.364486448645,1351839.3178878,-1867.7852927794,2713647.1745529,44.564486448645,0,0
-144.71921212162,-167.10729225934,39.368916891689,1351839.3178878,-1867.7852927794,2713647.1745529,44.568916891689,0,0
-144.71921201401,-167.12164636211,39.373347334733,1351839.3178878,-1867.7852927794,2713647.1745529,44.573347334733,0,0
-144.71921190639,-167.13600046487,39.377777777778,1351839.3178878,-1867.7852927794,2713647.1745529,44.577777777778,0,0
-144.71921179877,-167.15035456763,39.382208220822,1351839.3178878,-1867.7852927794,2713647.1745529,44.582208220822,0,0
-144.71921169116,-167.16470867039,39.386638663866,1351839.3178878,-1867.7852927794,2713647.1745529,44.586638663866,0,0
-144.71921158354,-167.17906277316,39.391069106911,1351839.3178878,-1867.7852927794,2713647.1745529,44.591069106911,0,0
-144.71921147593,-167.19341687592,39.395499549955,1351839.3178878,-1867.7852927794,2713647.1745529,44.595499549955,0,0
-144.71921136831,-167.20777097868,39.399929992999,1351839.3178878,-1867.7852927794,2713647.1745529,44.599929992999,0,0
-144.7192112607,-167.22212508144,39.404360436044,1351839.3178878,-1867.7852927794,2713647.1745529,44.604360436044,0,0
-144.71921115308,-167.23647918421,39.408790879088,1351839.3178878,-1867.7852927794,2713647.1745529,44.608790879088,0,0
-144.71921104546,-167.25083328697,39.413221322132,1351839.3178878,-1867.7852927794,2713647.1745529,44.613221322132,0,0
-144.71921093785,-167.26518738973,39.417651765177,1351839.3178878,-1867.7852927794,2713647.1745529,44.617651765177,0,0
-144.71921083023,-167.27954149249,39.422082208221,1351839.3178878,-1867.7852927794,2713647.1745529,44.622082208221,0,0
-144.71921072262,-167.29389559526,39.426512651265,1351839.3178878,-1867.7852927794,2713647.1745529,44.626512651265,0,0
-144.719210615,-167.30824969802,39.430943094309,1351839.3178878,-1867.7852927794,2713647.1745529,44.630943094309,0,0
-144.71921050738,-167.32260380078,39.435373537354,1351839.3178878,-1867.7852927794,2713647.1745529,44.635373537354,0,0
-144.71921039977,-167.33695790355,39.439803980398,1351839.3178878,-1867.7852927794,2713647.1745529,44.639803980398,0,0
-144.71921029215,-167.35131200631,39.444234423442,1351839.3178878,-1867.7852927794,2713647.1745529,44.644234423442,0,0
-144.71921018454,-167.36566610907,39.448664866487,1351839.3178878,-1867.7852927794,2713647.1745529,44.648664866487,0,0
-144.71921007692,-167.38002021183,39.453095309531,1351839.3178878,-1867.7852927794,2713647.1745529,44.653095309531,0,0
-144.7192099693,-167.3943743146,39.457525752575,1351839.3178878,-1867.7852927794,2713647.1745529,44.657525752575,0,0
-144.71920986169,-167.40872841736,39.46195619562,1351839.3178878,-1867.7852927794,2713647.1745529,44.66195619562,0,0
-144.71920975407,-167.42308252012,39.466386638664,1351839.3178878,-1867.7852927794,2713647.1745529,44.666386638664,0,0
-144.71920964646,-167.43743662288,39.470817081708,1351839.3178878,-1867.7852927794,2713647.1745529,44.670817081708,0,0
-144.71920953884,-167.45179072565,39.475247524752,1351839.3178878,-1867.7852927794,2713647.1745529,44.675247524752,0,0
-144.71920943123,-167.46614482841,39.479677967797,1351839.3178878,-1867.7852927794,2713647.1745529,44.679677967797,0,0
-144.71920932361,-167.48049893117,39.484108410841,1351839.3178878,-1867.7852927794,2713647.1745529,44.684108410841,0,0
-144.71920921599,-167.49485303393,39.488538853885,1351839.3178878,-1867.7852927794,2713647.1745529,44.688538853885,0,0
-144.71920910838,-167.5092071367,39.49296929693,1351839.3178878,-1867.7852927794,2713647.1745529,44.69296929693,0,0
-144.71920900076,-167.52356123946,39.497399739974,1351839.3178878,-1867.7852927794,2713647.1745529,44.697399739974,0,0
-144.71920889315,-167.53791534222,39.501830183018,1351839.3178878,-1867.7852927794,2713647.1745529,44.701830183018,0,0
-144.71920878553,-167.55226944498,39.506260626063,1351839.3178878,-1867.7852927794,2713647.1745529,44.706260626063,0,0
-144.71920867791,-167.56662354775,39.510691069107,1351839.3178878,-1867.7852927794,2713647.1745529,44.710691069107,0,0
-144.7192085703,-167.58097765051,39.515121512151,1351839.3178878,-1867.7852927794,2713647.1745529,44.715121512151,0,0
-144.71920846268,-167.59533175327,39.519551955196,1351839.3178878,-1867.7852927794,2713647.1745529,44.719551955196,0,0
-144.71920835507,-167.60968585604,39.52398239824,1351839.3178878,-1867.7852927794,2713647.1745529,44.72398239824,0,0
-144.71920824745,-167.6240399588,39.528412841284,1351839.3178878,-1867.7852927794,2713647.1745529,44.728412841284,0,0
-144.71920813984,-167.63839406156,39.532843284328,1351839.3178878,-1867.7852927794,2713647.1745529,44.732843284328,0,0
-144.71920803222,-167.65274816432,39.537273727373,1351839.3178878,-1867.7852927794,2713647.1745529,44.737273727373,0,0
-144.7192079246,-167.66710226709,39.541704170417,1351839.3178878,-1867.7852927794,2713647.1745529,44.741704170417,0,0
-144.71920781699,-167.68145636985,39.546134613461,1351839.3178878,-1867.7852927794,2713647.1745529,44.746134613461,0,0
-144.71920770937,-167.69581047261,39.550565056506,1351839.3178878,-1867.7852927794,2713647.1745529,44.750565056506,0,0
-144.71920760176,-167.71016457537,39.55499549955,1351839.3178878,-1867.7852927794,2713647.1745529,44.75499549955,0,0
-144.71920749414,-167.72451867814,39.559425942594,1351839.3178878,-1867.7852927794,2713647.1745529,44.759425942594,0,0
-144.71920738652,-167.7388727809,39.563856385639,1351839.3178878,-1867.7852927794,2713647.1745529,44.763856385639,0,0
-144.71920727891,-167.75322688366,39.568286828683,1351839.3178878,-1867.7852927794,2713647.1745529,44.768286828683,0,0
-144.71920717129,-167.76758098642,39.572717271727,1351839.3178878,-1867.7852927794,2713647.1745529,44.772717271727,0,0
-144.71920706368,-167.78193508919,39.577147714771,1351839.3178878,-1867.7852927794,2713647.1745529,44.777147714771,0,0
-144.71920695606,-167.79628919195,39.581578157816,1351839.3178878,-1867.7852927794,2713647.1745529,44.781578157816,0,0
-144.71920684845,-167.81064329471,39.58600860086,1351839.3178878,-1867.7852927794,2713647.1745529,44.78600860086,0,0
-144.71920674083,-167.82499739747,39.590439043904,1351839.3178878,-1867.7852927794,2713647.1745529,44.790439043904,0,0
-144.71920663321,-167.83935150024,39.594869486949,1351839.3178878,-1867.7852927794,2713647.1745529,44.794869486949,0,0
-144.7192065256,-167.853705603,39.599299929993,1351839.3178878,-1867.7852927794,2713647.1745529,44.799299929993,0,0
-144.71920641798,-167.86805970576,39.603730373037,1351839.3178878,-1867.7852927794,2713647.1745529,44.803730373037,0,0
-144.71920631037,-167.88241380853,39.608160816082,1351839.3178878,-1867.7852927794,2713647.1745529,44.808160816082,0,0
-144.71920620275,-167.89676791129,39.612591259126,1351839.3178878,-1867.7852927794,2713647.1745529,44.812591259126,0,0
-144.71920609513,-167.91112201405,39.61702170217,1351839.3178878,-1867.7852927794,2713647.1745529,44.81702170217,0,0
-144.71920598752,-167.92547611681,39.621452145215,1351839.3178878,-1867.7852927794,2713647.1745529,44.821452145215,0,0
-144.7192058799,-167.93983021958,39.625882588259,1351839.3178878,-1867.7852927794,2713647.1745529,44.825882588259,0,0
-144.71920577229,-167.95418432234,39.630313031303,1351839.3178878,-1867.7852927794,2713647.1745529,44.830313031303,0,0
-144.71920566467,-167.9685384251,39.634743474347,1351839.3178878,-1867.7852927794,2713647.1745529,44.834743474347,0,0
-144.71920555705,-167.98289252786,39.639173917392,1351839.3178878,-1867.7852927794,2713647.1745529,44.839173917392,0,0
-144.71920544944,-167.99724663063,39.643604360436,1351839.3178878,-1867.7852927794,2713647.1745529,44.843604360436,0,0
-144.71920534182,-168.01160073339,39.64803480348,1351839.3178878,-1867.7852927794,2713647.1745529,44.84803480348,0,0
-144.71920523421,-168.02595483615,39.652465246525,1351839.3178878,-1867.7852927794,2713647.1745529,44.852465246525,0,0
-144.71920512659,-168.04030893891,39.656895689569,1351839.3178878,-1867.7852927794,2713647.1745529,44.856895689569,0,0
-144.71920501898,-168.05466304168,39.661326132613,1351839.3178878,-1867.7852927794,2713647.1745529,44.861326132613,0,0
-144.71920491136,-168.06901714444,39.665756575658,1351839.3178878,-1867.7852927794,2713647.1745529,44.865756575658,0,0
-144.71920480374,-168.0833712472,39.670187018702,1351839.3178878,-1867.7852927794,2713647.1745529,44.870187018702,0,0
-144.71920469613,-168.09772534996,39.674617461746,1351839.3178878,-1867.7852927794,2713647.1745529,44.874617461746,0,0
-144.71920458851,-168.11207945273,39.67904790479,1351839.3178878,-1867.7852927794,2713647.1745529,44.87904790479,0,0
-144.7192044809,-168.12643355549,39.683478347835,1351839.3178878,-1867.7852927794,2713647.1745529,44.883478347835,0,0
-144.71920437328,-168.14078765825,39.687908790879,1351839.3178878,-1867.7852927794,2713647.1745529,44.887908790879,0,0
-144.71920426566,-168.15514176102,39.692339233923,1351839.3178878,-1867.7852927794,2713647.1745529,44.892339233923,0,0
-144.71920415805,-168.16949586378,39.696769676968,1351839.3178878,-1867.7852927794,2713647.1745529,44.896769676968,0,0
-144.71920405043,-168.18384996654,39.701200120012,1351839.3178878,-1867.7852927794,2713647.1745529,44.901200120012,0,0
-144.71920394282,-168.1982040693,39.705630563056,1351839.3178878,-1867.7852927794,2713647.1745529,44.905630563056,0,0
-144.7192038352,-168.21255817207,39.710061006101,1351839.3178878,-1867.7852927794,2713647.1745529,44.910061006101,0,0
-144.71920372759,-168.22691227483,39.714491449145,1351839.3178878,-1867.7852927794,2713647.1745529,44.914491449145,0,0
-144.71920361997,-168.24126637759,39.718921892189,1351839.3178878,-1867.7852927794,2713647.1745529,44.918921892189,0,0
-144.71920351235,-168.25562048035,39.723352335234,1351839.3178878,-1867.7852927794,2713647.1745529,44.923352335234,0,0
-144.71920340474,-168.26997458312,39.727782778278,1351839.3178878,-1867.7852927794,2713647.1745529,44.927782778278,0,0
-144.71920329712,-168.28432868588,39.732213221322,1351839.3178878,-1867.7852927794,2713647.1745529,44.932213221322,0,0
-144.71920318951,-168.29868278864,39.736643664366,1351839.3178878,-1867.7852927794,2713647.1745529,44.936643664366,0,0
-144.71920308189,-168.3130368914,39.741074107411,1351839.3178878,-1867.7852927794,2713647.1745529,44.941074107411,0,0
-144.71920297427,-168.32739099417,39.745504550455,1351839.3178878,-1867.7852927794,2713647.1745529,44.945504550455,0,0
-144.71920286666,-168.34174509693,39.749934993499,1351839.3178878,-1867.7852927794,2713647.1745529,44.949934993499,0,0
-144.71920275904,-168.35609919969,39.754365436544,1351839.3178878,-1867.7852927794,2713647.1745529,44.954365436544,0,0
-144.71920265143,-168.37045330245,39.758795879588,1351839.3178878,-1867.7852927794,2713647.1745529,44.958795879588,0,0
-144.71920254381,-168.38480740522,39.763226322632,1351839.3178878,-1867.7852927794,2713647.1745529,44.963226322632,0,0
-144.7192024362,-168.39916150798,39.767656765677,1351839.3178878,-1867.7852927794,2713647.1745529,44.967656765677,0,0
-144.71920232858,-168.41351561074,39.772087208721,1351839.3178878,-1867.7852927794,2713647.1745529,44.972087208721,0,0
-144.71920222096,-168.42786971351,39.776517651765,1351839.3178878,-1867.7852927794,2713647.1745529,44.976517651765,0,0
-144.71920211335,-168.44222381627,39.780948094809,1351839.3178878,-1867.7852927794,2713647.1745529,44.980948094809,0,0
-144.71920200573,-168.45657791903,39.785378537854,1351839.3178878,-1867.7852927794,2713647.1745529,44.985378537854,0,0
-144.71920189812,-168.47093202179,39.789808980898,1351839.3178878,-1867.7852927794,2713647.1745529,44.989808980898,0,0
-144.7192017905,-168.48528612456,39.794239423942,1351839.3178878,-1867.7852927794,2713647.1745529,44.994239423942,0,0
-144.71920168288,-168.49964022732,39.798669866987,1351839.3178878,-1867.7852927794,2713647.1745529,44.998669866987,0,0
-144.71920157527,-168.51399433008,39.803100310031,1351839.3178878,-1867.7852927794,2713647.1745529,45.003100310031,0,0
-144.71920146765,-168.52834843284,39.807530753075,1351839.3178878,-1867.7852927794,2713647.1745529,45.007530753075,0,0
-144.71920136004,-168.54270253561,39.81196119612,1351839.3178878,-1867.7852927794,2713647.1745529,45.01196119612,0,0
-144.71920125242,-168.55705663837,39.816391639164,1351839.3178878,-1867.7852927794,2713647.1745529,45.016391639164,0,0
-144.7192011448,-168.57141074113,39.820822082208,1351839.3178878,-1867.7852927794,2713647.1745529,45.020822082208,0,0
-144.71920103719,-168.58576484389,39.825252525253,1351839.3178878,-1867.7852927794,2713647.1745529,45.025252525253,0,0
-144.71920092957,-168.60011894666,39.829682968297,1351839.3178878,-1867.7852927794,2713647.1745529,45.029682968297,0,0
-144.71920082196,-168.61447304942,39.834113411341,1351839.3178878,-1867.7852927794,2713647.1745529,45.034113411341,0,0
-144.71920071434,-168.62882715218,39.838543854385,1351839.3178878,-1867.7852927794,2713647.1745529,45.038543854385,0,0
-144.71920060673,-168.64318125494,39.84297429743,1351839.3178878,-1867.7852927794,2713647.1745529,45.04297429743,0,0
-144.71920049911,-168.65753535771,39.847404740474,1351839.3178878,-1867.7852927794,2713647.1745529,45.047404740474,0,0
-144.71920039149,-168.67188946047,39.851835183518,1351839.3178878,-1867.7852927794,2713647.1745529,45.051835183518,0,0
-144.71920028388,-168.68624356323,39.856265626563,1351839.3178878,-1867.7852927794,2713647.1745529,45.056265626563,0,0
-144.71920017626,-168.700597666,39.860696069607,1351839.3178878,-1867.7852927794,2713647.1745529,45.060696069607,0,0
-144.71920006865,-168.71495176876,39.865126512651,1351839.3178878,-1867.7852927794,2713647.1745529,45.065126512651,0,0
-144.71919996103,-168.72930587152,39.869556955696,1351839.3178878,-1867.7852927794,2713647.1745529,45.069556955696,0,0
-144.71919985341,-168.74365997428,39.87398739874,1351839.3178878,-1867.7852927794,2713647.1745529,45.07398739874,0,0
-144.7191997458,-168.75801407705,39.878417841784,1351839.3178878,-1867.7852927794,2713647.1745529,45.078417841784,0,0
-144.71919963818,-168.77236817981,39.882848284828,1351839.3178878,-1867.7852927794,2713647.1745529,45.082848284828,0,0
-144.71919953057,-168.78672228257,39.887278727873,1351839.3178878,-1867.7852927794,2713647.1745529,45.087278727873,0,0
-144.71919942295,-168.80107638533,39.891709170917,1351839.3178878,-1867.7852927794,2713647.1745529,45.091709170917,0,0
-144.71919931534,-168.8154304881,39.896139613961,1351839.3178878,-1867.7852927794,2713647.1745529,45.096139613961,0,0
-144.71919920772,-168.82978459086,39.900570057006,1351839.3178878,-1867.7852927794,2713647.1745529,45.100570057006,0,0
-144.7191991001,-168.84413869362,39.90500050005,1351839.3178878,-1867.7852927794,2713647.1745529,45.10500050005,0,0
-144.71919899249,-168.85849279638,39.909430943094,1351839.3178878,-1867.7852927794,2713647.1745529,45.109430943094,0,0
-144.71919888487,-168.87284689915,39.913861386139,1351839.3178878,-1867.7852927794,2713647.1745529,45.113861386139,0,0
-144.71919877726,-168.88720100191,39.918291829183,1351839.3178878,-1867.7852927794,2713647.1745529,45.118291829183,0,0
-144.71919866964,-168.90155510467,39.922722272227,1351839.3178878,-1867.7852927794,2713647.1745529,45.122722272227,0,0
-144.71919856202,-168.91590920743,39.927152715272,1351839.3178878,-1867.7852927794,2713647.1745529,45.127152715272,0,0
-144.71919845441,-168.9302633102,39.931583158316,1351839.3178878,-1867.7852927794,2713647.1745529,45.131583158316,0,0
-144.71919834679,-168.94461741296,39.93601360136,1351839.3178878,-1867.7852927794,2713647.1745529,45.13601360136,0,0
-144.71919823918,-168.95897151572,39.940444044404,1351839.3178878,-1867.7852927794,2713647.1745529,45.140444044404,0,0
-144.71919813156,-168.97332561849,39.944874487449,1351839.3178878,-1867.7852927794,2713647.1745529,45.144874487449,0,0
-144.71919802395,-168.98767972125,39.949304930493,1351839.3178878,-1867.7852927794,2713647.1745529,45.149304930493,0,0
-144.71919791633,-169.00203382401,39.953735373537,1351839.3178878,-1867.7852927794,2713647.1745529,45.153735373537,0,0
-144.71919780871,-169.01638792677,39.958165816582,1351839.3178878,-1867.7852927794,2713647.1745529,45.158165816582,0,0
-144.7191977011,-169.03074202954,39.962596259626,1351839.3178878,-1867.7852927794,2713647.1745529,45.162596259626,0,0
-144.71919759348,-169.0450961323,39.96702670267,1351839.3178878,-1867.7852927794,2713647.1745529,45.16702670267,0,0
-144.71919748587,-169.05945023506,39.971457145715,1351839.3178878,-1867.7852927794,2713647.1745529,45.171457145715,0,0
-144.71919737825,-169.07380433782,39.975887588759,1351839.3178878,-1867.7852927794,2713647.1745529,45.175887588759,0,0
-144.71919727063,-169.08815844059,39.980318031803,1351839.3178878,-1867.7852927794,2713647.1745529,45.180318031803,0,0
-144.71919716302,-169.10251254335,39.984748474847,1351839.3178878,-1867.7852927794,2713647.1745529,45.184748474847,0,0
-144.7191970554,-169.11686664611,39.989178917892,1351839.3178878,-1867.7852927794,2713647.1745529,45.189178917892,0,0
-144.71919694779,-169.13122074887,39.993609360936,1351839.3178878,-1867.7852927794,2713647.1745529,45.193609360936,0,0
-144.71919684017,-169.14557485164,39.99803980398,1351839.3178878,-1867.7852927794,2713647.1745529,45.19803980398,0,0
-144.71919673255,-169.1599289544,40.002470247025,1351839.3178878,-1867.7852927794,2713647.1745529,45.202470247025,0,0
-144.71919662494,-169.17428305716,40.006900690069,1351839.3178878,-1867.7852927794,2713647.1745529,45.206900690069,0,0
-144.71919651732,-169.18863715992,40.011331133113,1351839.3178878,-1867.7852927794,2713647.1745529,45.211331133113,0,0
-144.71919640971,-169.20299126269,40.015761576158,1351839.3178878,-1867.7852927794,2713647.1745529,45.215761576158,0,0
-144.71919630209,-169.21734536545,40.020192019202,1351839.3178878,-1867.7852927794,2713647.1745529,45.220192019202,0,0
-144.71919619448,-169.23169946821,40.024622462246,1351839.3178878,-1867.7852927794,2713647.1745529,45.224622462246,0,0
-144.71919608686,-169.24605357098,40.029052905291,1351839.3178878,-1867.7852927794,2713647.1745529,45.229052905291,0,0
-144.71919597924,-169.26040767374,40.033483348335,1351839.3178878,-1867.7852927794,2713647.1745529,45.233483348335,0,0
-144.71919587163,-169.2747617765,40.037913791379,1351839.3178878,-1867.7852927794,2713647.1745529,45.237913791379,0,0
-144.71919576401,-169.28911587926,40.042344234423,1351839.3178878,-1867.7852927794,2713647.1745529,45.242344234423,0,0
-144.7191956564,-169.30346998203,40.046774677468,1351839.3178878,-1867.7852927794,2713647.1745529,45.246774677468,0,0
-144.71919554878,-169.31782408479,40.051205120512,1351839.3178878,-1867.7852927794,2713647.1745529,45.251205120512,0,0
-144.71919544116,-169.33217818755,40.055635563556,1351839.3178878,-1867.7852927794,2713647.1745529,45.255635563556,0,0
-144.71919533355,-169.34653229031,40.060066006601,1351839.3178878,-1867.7852927794,2713647.1745529,45.260066006601,0,0
-144.71919522593,-169.36088639308,40.064496449645,1351839.3178878,-1867.7852927794,2713647.1745529,45.264496449645,0,0
-144.71919511832,-169.37524049584,40.068926892689,1351839.3178878,-1867.7852927794,2713647.1745529,45.268926892689,0,0
-144.7191950107,-169.3895945986,40.073357335734,1351839.3178878,-1867.7852927794,2713647.1745529,45.273357335734,0,0
-144.71919490309,-169.40394870136,40.077787778778,1351839.3178878,-1867.7852927794,2713647.1745529,45.277787778778,0,0
-144.71919479547,-169.41830280413,40.082218221822,1351839.3178878,-1867.7852927794,2713647.1745529,45.282218221822,0,0
-144.71919468785,-169.43265690689,40.086648664866,1351839.3178878,-1867.7852927794,2713647.1745529,45.286648664866,0,0
-144.71919458024,-169.44701100965,40.091079107911,1351839.3178878,-1867.7852927794,2713647.1745529,45.291079107911,0,0
-144.71919447262,-169.46136511241,40.095509550955,1351839.3178878,-1867.7852927794,2713647.1745529,45.295509550955,0,0
-144.71919436501,-169.47571921518,40.099939993999,1351839.3178878,-1867.7852927794,2713647.1745529,45.299939993999,0,0
-144.71919425739,-169.49007331794,40.104370437044,1351839.3178878,-1867.7852927794,2713647.1745529,45.304370437044,0,0
-144.71919414977,-169.5044274207,40.108800880088,1351839.3178878,-1867.7852927794,2713647.1745529,45.308800880088,0,0
-144.71919404216,-169.51878152347,40.113231323132,1351839.3178878,-1867.7852927794,2713647.1745529,45.313231323132,0,0
-144.71919393454,-169.53313562623,40.117661766177,1351839.3178878,-1867.7852927794,2713647.1745529,45.317661766177,0,0
-144.71919382693,-169.54748972899,40.122092209221,1351839.3178878,-1867.7852927794,2713647.1745529,45.322092209221,0,0
-144.71919371931,-169.56184383175,40.126522652265,1351839.3178878,-1867.7852927794,2713647.1745529,45.326522652265,0,0
-144.7191936117,-169.57619793452,40.13095309531,1351839.3178878,-1867.7852927794,2713647.1745529,45.33095309531,0,0
-144.71919350408,-169.59055203728,40.135383538354,1351839.3178878,-1867.7852927794,2713647.1745529,45.335383538354,0,0
-144.71919339646,-169.60490614004,40.139813981398,1351839.3178878,-1867.7852927794,2713647.1745529,45.339813981398,0,0
-144.71919328885,-169.6192602428,40.144244424442,1351839.3178878,-1867.7852927794,2713647.1745529,45.344244424442,0,0
-144.71919318123,-169.63361434557,40.148674867487,1351839.3178878,-1867.7852927794,2713647.1745529,45.348674867487,0,0
-144.71919307362,-169.64796844833,40.153105310531,1351839.3178878,-1867.7852927794,2713647.1745529,45.353105310531,0,0
-144.719192966,-169.66232255109,40.157535753575,1351839.3178878,-1867.7852927794,2713647.1745529,45.357535753575,0,0
-144.71919285838,-169.67667665385,40.16196619662,1351839.3178878,-1867.7852927794,2713647.1745529,45.36196619662,0,0
-144.71919275077,-169.69103075662,40.166396639664,1351839.3178878,-1867.7852927794,2713647.1745529,45.366396639664,0,0
-144.71919264315,-169.70538485938,40.170827082708,1351839.3178878,-1867.7852927794,2713647.1745529,45.370827082708,0,0
-144.71919253554,-169.71973896214,40.175257525753,1351839.3178878,-1867.7852927794,2713647.1745529,45.375257525753,0,0
-144.71919242792,-169.7340930649,40.179687968797,1351839.3178878,-1867.7852927794,2713647.1745529,45.379687968797,0,0
-144.7191923203,-169.74844716767,40.184118411841,1351839.3178878,-1867.7852927794,2713647.1745529,45.384118411841,0,0
-144.71919221269,-169.76280127043,40.188548854885,1351839.3178878,-1867.7852927794,2713647.1745529,45.388548854885,0,0
-144.71919210507,-169.77715537319,40.19297929793,1351839.3178878,-1867.7852927794,2713647.1745529,45.39297929793,0,0
-144.71919199746,-169.79150947596,40.197409740974,1351839.3178878,-1867.7852927794,2713647.1745529,45.397409740974,0,0
-144.71919188984,-169.80586357872,40.201840184018,1351839.3178878,-1867.7852927794,2713647.1745529,45.401840184018,0,0
-144.71919178223,-169.82021768148,40.206270627063,1351839.3178878,-1867.7852927794,2713647.1745529,45.406270627063,0,0
-144.71919167461,-169.83457178424,40.210701070107,1351839.3178878,-1867.7852927794,2713647.1745529,45.410701070107,0,0
-144.71919156699,-169.84892588701,40.215131513151,1351839.3178878,-1867.7852927794,2713647.1745529,45.415131513151,0,0
-144.71919145938,-169.86327998977,40.219561956196,1351839.3178878,-1867.7852927794,2713647.1745529,45.419561956196,0,0
-144.71919135176,-169.87763409253,40.22399239924,1351839.3178878,-1867.7852927794,2713647.1745529,45.42399239924,0,0
-144.71919124415,-169.89198819529,40.228422842284,1351839.3178878,-1867.7852927794,2713647.1745529,45.428422842284,0,0
-144.71919113653,-169.90634229806,40.232853285329,1351839.3178878,-1867.7852927794,2713647.1745529,45.432853285329,0,0
-144.71919102891,-169.92069640082,40.237283728373,1351839.3178878,-1867.7852927794,2713647.1745529,45.437283728373,0,0
-144.7191909213,-169.93505050358,40.241714171417,1351839.3178878,-1867.7852927794,2713647.1745529,45.441714171417,0,0
-144.71919081368,-169.94940460634,40.246144614461,1351839.3178878,-1867.7852927794,2713647.1745529,45.446144614461,0,0
-144.71919070607,-169.96375870911,40.250575057506,1351839.3178878,-1867.7852927794,2713647.1745529,45.450575057506,0,0
-144.71919059845,-169.97811281187,40.25500550055,1351839.3178878,-1867.7852927794,2713647.1745529,45.45500550055,0,0
-144.71919049084,-169.99246691463,40.259435943594,1351839.3178878,-1867.7852927794,2713647.1745529,45.459435943594,0,0
-144.71919038322,-170.00682101739,40.263866386639,1351839.3178878,-1867.7852927794,2713647.1745529,45.463866386639,0,0
-144.7191902756,-170.02117512016,40.268296829683,1351839.3178878,-1867.7852927794,2713647.1745529,45.468296829683,0,0
-144.71919016799,-170.03552922292,40.272727272727,1351839.3178878,-1867.7852927794,2713647.1745529,45.472727272727,0,0
-144.71919006037,-170.04988332568,40.277157715772,1351839.3178878,-1867.7852927794,2713647.1745529,45.477157715772,0,0
-144.71918995276,-170.06423742845,40.281588158816,1351839.3178878,-1867.7852927794,2713647.1745529,45.481588158816,0,0
-144.71918984514,-170.07859153121,40.28601860186,1351839.3178878,-1867.7852927794,2713647.1745529,45.48601860186,0,0
-144.71918973752,-170.09294563397,40.290449044904,1351839.3178878,-1867.7852927794,2713647.1745529,45.490449044904,0,0
-144.71918962991,-170.10729973673,40.294879487949,1351839.3178878,-1867.7852927794,2713647.1745529,45.494879487949,0,0
-144.71918952229,-170.1216538395,40.299309930993,1351839.3178878,-1867.7852927794,2713647.1745529,45.499309930993,0,0
-144.71918941468,-170.13600794226,40.303740374037,1351839.3178878,-1867.7852927794,2713647.1745529,45.503740374037,0,0
-144.71918930706,-170.15036204502,40.308170817082,1351839.3178878,-1867.7852927794,2713647.1745529,45.508170817082,0,0
-144.71918919944,-170.16471614778,40.312601260126,1351839.3178878,-1867.7852927794,2713647.1745529,45.512601260126,0,0
-144.71918909183,-170.17907025055,40.31703170317,1351839.3178878,-1867.7852927794,2713647.1745529,45.51703170317,0,0
-144.71918898421,-170.19342435331,40.321462146215,1351839.3178878,-1867.7852927794,2713647.1745529,45.521462146215,0,0
-144.7191888766,-170.20777845607,40.325892589259,1351839.3178878,-1867.7852927794,2713647.1745529,45.525892589259,0,0
-144.71918876898,-170.22213255883,40.330323032303,1351839.3178878,-1867.7852927794,2713647.1745529,45.530323032303,0,0
-144.71918866137,-170.2364866616,40.334753475348,1351839.3178878,-1867.7852927794,2713647.1745529,45.534753475348,0,0
-144.71918855375,-170.25084076436,40.339183918392,1351839.3178878,-1867.7852927794,2713647.1745529,45.539183918392,0,0
-144.71918844613,-170.26519486712,40.343614361436,1351839.3178878,-1867.7852927794,2713647.1745529,45.543614361436,0,0
-144.71918833852,-170.27954896988,40.34804480448,1351839.3178878,-1867.7852927794,2713647.1745529,45.54804480448,0,0
-144.7191882309,-170.29390307265,40.352475247525,1351839.3178878,-1867.7852927794,2713647.1745529,45.552475247525,0,0
-144.71918812329,-170.30825717541,40.356905690569,1351839.3178878,-1867.7852927794,2713647.1745529,45.556905690569,0,0
-144.71918801567,-170.32261127817,40.361336133613,1351839.3178878,-1867.7852927794,2713647.1745529,45.561336133613,0,0
-144.71918790805,-170.33696538094,40.365766576658,1351839.3178878,-1867.7852927794,2713647.1745529,45.565766576658,0,0
-144.71918780044,-170.3513194837,40.370197019702,1351839.3178878,-1867.7852927794,2713647.1745529,45.570197019702,0,0
-144.71918769282,-170.36567358646,40.374627462746,1351839.3178878,-1867.7852927794,2713647.1745529,45.574627462746,0,0
-144.71918758521,-170.38002768922,40.379057905791,1351839.3178878,-1867.7852927794,2713647.1745529,45.579057905791,0,0
-144.71918747759,-170.39438179199,40.383488348835,1351839.3178878,-1867.7852927794,2713647.1745529,45.583488348835,0,0
-144.71918736998,-170.40873589475,40.387918791879,1351839.3178878,-1867.7852927794,2713647.1745529,45.587918791879,0,0
-144.71918726236,-170.42308999751,40.392349234923,1351839.3178878,-1867.7852927794,2713647.1745529,45.592349234923,0,0
-144.71918715474,-170.43744410027,40.396779677968,1351839.3178878,-1867.7852927794,2713647.1745529,45.596779677968,0,0
-144.71918704713,-170.45179820304,40.401210121012,1351839.3178878,-1867.7852927794,2713647.1745529,45.601210121012,0,0
-144.71918693951,-170.4661523058,40.405640564056,1351839.3178878,-1867.7852927794,2713647.1745529,45.605640564056,0,0
-144.7191868319,-170.48050640856,40.410071007101,1351839.3178878,-1867.7852927794,2713647.1745529,45.610071007101,0,0
-144.71918672428,-170.49486051132,40.414501450145,1351839.3178878,-1867.7852927794,2713647.1745529,45.614501450145,0,0
-144.71918661666,-170.50921461409,40.418931893189,1351839.3178878,-1867.7852927794,2713647.1745529,45.618931893189,0,0
-144.71918650905,-170.52356871685,40.423362336234,1351839.3178878,-1867.7852927794,2713647.1745529,45.623362336234,0,0
-144.71918640143,-170.53792281961,40.427792779278,1351839.3178878,-1867.7852927794,2713647.1745529,45.627792779278,0,0
-144.71918629382,-170.55227692237,40.432223222322,1351839.3178878,-1867.7852927794,2713647.1745529,45.632223222322,0,0
-144.7191861862,-170.56663102514,40.436653665367,1351839.3178878,-1867.7852927794,2713647.1745529,45.636653665367,0,0
-144.71918607859,-170.5809851279,40.441084108411,1351839.3178878,-1867.7852927794,2713647.1745529,45.641084108411,0,0
-144.71918597097,-170.59533923066,40.445514551455,1351839.3178878,-1867.7852927794,2713647.1745529,45.645514551455,0,0
-144.71918586335,-170.60969333343,40.449944994499,1351839.3178878,-1867.7852927794,2713647.1745529,45.649944994499,0,0
-144.71918575574,-170.62404743619,40.454375437544,1351839.3178878,-1867.7852927794,2713647.1745529,45.654375437544,0,0
-144.71918564812,-170.63840153895,40.458805880588,1351839.3178878,-1867.7852927794,2713647.1745529,45.658805880588,0,0
-144.71918554051,-170.65275564171,40.463236323632,1351839.3178878,-1867.7852927794,2713647.1745529,45.663236323632,0,0
-144.71918543289,-170.66710974448,40.467666766677,1351839.3178878,-1867.7852927794,2713647.1745529,45.667666766677,0,0
-144.71918532527,-170.68146384724,40.472097209721,1351839.3178878,-1867.7852927794,2713647.1745529,45.672097209721,0,0
-144.71918521766,-170.69581795,40.476527652765,1351839.3178878,-1867.7852927794,2713647.1745529,45.676527652765,0,0
-144.71918511004,-170.71017205276,40.48095809581,1351839.3178878,-1867.7852927794,2713647.1745529,45.68095809581,0,0
-144.71918500243,-170.72452615553,40.485388538854,1351839.3178878,-1867.7852927794,2713647.1745529,45.685388538854,0,0
-144.71918489481,-170.73888025829,40.489818981898,1351839.3178878,-1867.7852927794,2713647.1745529,45.689818981898,0,0
-144.71918478719,-170.75323436105,40.494249424942,1351839.3178878,-1867.7852927794,2713647.1745529,45.694249424942,0,0
-144.71918467958,-170.76758846381,40.498679867987,1351839.3178878,-1867.7852927794,2713647.1745529,45.698679867987,0,0
-144.71918457196,-170.78194256658,40.503110311031,1351839.3178878,-1867.7852927794,2713647.1745529,45.703110311031,0,0
-144.71918446435,-170.79629666934,40.507540754075,1351839.3178878,-1867.7852927794,2713647.1745529,45.707540754075,0,0
-144.71918435673,-170.8106507721,40.51197119712,1351839.3178878,-1867.7852927794,2713647.1745529,45.71197119712,0,0
-144.71918424912,-170.82500487486,40.516401640164,1351839.3178878,-1867.7852927794,2713647.1745529,45.716401640164,0,0
-144.7191841415,-170.83935897763,40.520832083208,1351839.3178878,-1867.7852927794,2713647.1745529,45.720832083208,0,0
-144.71918403388,-170.85371308039,40.525262526253,1351839.3178878,-1867.7852927794,2713647.1745529,45.725262526253,0,0
-144.71918392627,-170.86806718315,40.529692969297,1351839.3178878,-1867.7852927794,2713647.1745529,45.729692969297,0,0
-144.71918381865,-170.88242128592,40.534123412341,1351839.3178878,-1867.7852927794,2713647.1745529,45.734123412341,0,0
-144.71918371104,-170.89677538868,40.538553855386,1351839.3178878,-1867.7852927794,2713647.1745529,45.738553855386,0,0
-144.71918360342,-170.91112949144,40.54298429843,1351839.3178878,-1867.7852927794,2713647.1745529,45.74298429843,0,0
-144.7191834958,-170.9254835942,40.547414741474,1351839.3178878,-1867.7852927794,2713647.1745529,45.747414741474,0,0
-144.71918338819,-170.93983769697,40.551845184518,1351839.3178878,-1867.7852927794,2713647.1745529,45.751845184518,0,0
-144.71918328057,-170.95419179973,40.556275627563,1351839.3178878,-1867.7852927794,2713647.1745529,45.756275627563,0,0
-144.71918317296,-170.96854590249,40.560706070607,1351839.3178878,-1867.7852927794,2713647.1745529,45.760706070607,0,0
-144.71918306534,-170.98290000525,40.565136513651,1351839.3178878,-1867.7852927794,2713647.1745529,45.765136513651,0,0
-144.71918295773,-170.99725410802,40.569566956696,1351839.3178878,-1867.7852927794,2713647.1745529,45.769566956696,0,0
-144.71918285011,-171.01160821078,40.57399739974,1351839.3178878,-1867.7852927794,2713647.1745529,45.77399739974,0,0
-144.71918274249,-171.02596231354,40.578427842784,1351839.3178878,-1867.7852927794,2713647.1745529,45.778427842784,0,0
-144.71918263488,-171.0403164163,40.582858285829,1351839.3178878,-1867.7852927794,2713647.1745529,45.782858285829,0,0
-144.71918252726,-171.05467051907,40.587288728873,1351839.3178878,-1867.7852927794,2713647.1745529,45.787288728873,0,0
-144.71918241965,-171.06902462183,40.591719171917,1351839.3178878,-1867.7852927794,2713647.1745529,45.791719171917,0,0
-144.71918231203,-171.08337872459,40.596149614961,1351839.3178878,-1867.7852927794,2713647.1745529,45.796149614961,0,0
-144.71918220441,-171.09773282735,40.600580058006,1351839.3178878,-1867.7852927794,2713647.1745529,45.800580058006,0,0
-144.7191820968,-171.11208693012,40.60501050105,1351839.3178878,-1867.7852927794,2713647.1745529,45.80501050105,0,0
-144.71918198918,-171.12644103288,40.609440944094,1351839.3178878,-1867.7852927794,2713647.1745529,45.809440944094,0,0
-144.71918188157,-171.14079513564,40.613871387139,1351839.3178878,-1867.7852927794,2713647.1745529,45.813871387139,0,0
-144.71918177395,-171.15514923841,40.618301830183,1351839.3178878,-1867.7852927794,2713647.1745529,45.818301830183,0,0
-144.71918166634,-171.16950334117,40.622732273227,1351839.3178878,-1867.7852927794,2713647.1745529,45.822732273227,0,0
-144.71918155872,-171.18385744393,40.627162716272,1351839.3178878,-1867.7852927794,2713647.1745529,45.827162716272,0,0
-144.7191814511,-171.19821154669,40.631593159316,1351839.3178878,-1867.7852927794,2713647.1745529,45.831593159316,0,0
-144.71918134349,-171.21256564946,40.63602360236,1351839.3178878,-1867.7852927794,2713647.1745529,45.83602360236,0,0
-144.71918123587,-171.22691975222,40.640454045405,1351839.3178878,-1867.7852927794,2713647.1745529,45.840454045405,0,0
-144.71918112826,-171.24127385498,40.644884488449,1351839.3178878,-1867.7852927794,2713647.1745529,45.844884488449,0,0
-144.71918102064,-171.25562795774,40.649314931493,1351839.3178878,-1867.7852927794,2713647.1745529,45.849314931493,0,0
-144.71918091302,-171.26998206051,40.653745374537,1351839.3178878,-1867.7852927794,2713647.1745529,45.853745374537,0,0
-144.71918080541,-171.28433616327,40.658175817582,1351839.3178878,-1867.7852927794,2713647.1745529,45.858175817582,0,0
-144.71918069779,-171.29869026603,40.662606260626,1351839.3178878,-1867.7852927794,2713647.1745529,45.862606260626,0,0
-144.71918059018,-171.31304436879,40.66703670367,1351839.3178878,-1867.7852927794,2713647.1745529,45.86703670367,0,0
-144.71918048256,-171.32739847156,40.671467146715,1351839.3178878,-1867.7852927794,2713647.1745529,45.871467146715,0,0
-144.71918037494,-171.34175257432,40.675897589759,1351839.3178878,-1867.7852927794,2713647.1745529,45.875897589759,0,0
-144.71918026733,-171.35610667708,40.680328032803,1351839.3178878,-1867.7852927794,2713647.1745529,45.880328032803,0,0
-144.71918015971,-171.37046077984,40.684758475848,1351839.3178878,-1867.7852927794,2713647.1745529,45.884758475848,0,0
-144.7191800521,-171.38481488261,40.689188918892,1351839.3178878,-1867.7852927794,2713647.1745529,45.889188918892,0,0
-144.71917994448,-171.39916898537,40.693619361936,1351839.3178878,-1867.7852927794,2713647.1745529,45.893619361936,0,0
-144.71917983687,-171.41352308813,40.69804980498,1351839.3178878,-1867.7852927794,2713647.1745529,45.89804980498,0,0
-144.71917972925,-171.4278771909,40.702480248025,1351839.3178878,-1867.7852927794,2713647.1745529,45.902480248025,0,0
-144.71917962163,-171.44223129366,40.706910691069,1351839.3178878,-1867.7852927794,2713647.1745529,45.906910691069,0,0
-144.71917951402,-171.45658539642,40.711341134113,1351839.3178878,-1867.7852927794,2713647.1745529,45.911341134113,0,0
-144.7191794064,-171.47093949918,40.715771577158,1351839.3178878,-1867.7852927794,2713647.1745529,45.915771577158,0,0
-144.71917929879,-171.48529360195,40.720202020202,1351839.3178878,-1867.7852927794,2713647.1745529,45.920202020202,0,0
-144.71917919117,-171.49964770471,40.724632463246,1351839.3178878,-1867.7852927794,2713647.1745529,45.924632463246,0,0
-144.71917908355,-171.51400180747,40.729062906291,1351839.3178878,-1867.7852927794,2713647.1745529,45.929062906291,0,0
-144.71917897594,-171.52835591023,40.733493349335,1351839.3178878,-1867.7852927794,2713647.1745529,45.933493349335,0,0
-144.71917886832,-171.542710013,40.737923792379,1351839.3178878,-1867.7852927794,2713647.1745529,45.937923792379,0,0
-144.71917876071,-171.55706411576,40.742354235424,1351839.3178878,-1867.7852927794,2713647.1745529,45.942354235424,0,0
-144.71917865309,-171.57141821852,40.746784678468,1351839.3178878,-1867.7852927794,2713647.1745529,45.946784678468,0,0
-144.71917854548,-171.58577232128,40.751215121512,1351839.3178878,-1867.7852927794,2713647.1745529,45.951215121512,0,0
-144.71917843786,-171.60012642405,40.755645564556,1351839.3178878,-1867.7852927794,2713647.1745529,45.955645564556,0,0
-144.71917833024,-171.61448052681,40.760076007601,1351839.3178878,-1867.7852927794,2713647.1745529,45.960076007601,0,0
-144.71917822263,-171.62883462957,40.764506450645,1351839.3178878,-1867.7852927794,2713647.1745529,45.964506450645,0,0
-144.71917811501,-171.64318873233,40.768936893689,1351839.3178878,-1867.7852927794,2713647.1745529,45.968936893689,0,0
-144.7191780074,-171.6575428351,40.773367336734,1351839.3178878,-1867.7852927794,2713647.1745529,45.973367336734,0,0
-144.71917789978,-171.67189693786,40.777797779778,1351839.3178878,-1867.7852927794,2713647.1745529,45.977797779778,0,0
-144.71917779216,-171.68625104062,40.782228222822,1351839.3178878,-1867.7852927794,2713647.1745529,45.982228222822,0,0
-144.71917768455,-171.70060514339,40.786658665867,1351839.3178878,-1867.7852927794,2713647.1745529,45.986658665867,0,0
-144.71917757693,-171.71495924615,40.791089108911,1351839.3178878,-1867.7852927794,2713647.1745529,45.991089108911,0,0
-144.71917746932,-171.72931334891,40.795519551955,1351839.3178878,-1867.7852927794,2713647.1745529,45.995519551955,0,0
-144.7191773617,-171.74366745167,40.799949994999,1351839.3178878,-1867.7852927794,2713647.1745529,45.999949994999,0,0
-144.71917725409,-171.75802155444,40.804380438044,1351839.3178878,-1867.7852927794,2713647.1745529,46.004380438044,0,0
-144.71917714647,-171.7723756572,40.808810881088,1351839.3178878,-1867.7852927794,2713647.1745529,46.008810881088,0,0
-144.71917703885,-171.78672975996,40.813241324132,1351839.3178878,-1867.7852927794,2713647.1745529,46.013241324132,0,0
-144.71917693124,-171.80108386272,40.817671767177,1351839.3178878,-1867.7852927794,2713647.1745529,46.017671767177,0,0
-144.71917682362,-171.81543796549,40.822102210221,1351839.3178878,-1867.7852927794,2713647.1745529,46.022102210221,0,0
-144.71917671601,-171.82979206825,40.826532653265,1351839.3178878,-1867.7852927794,2713647.1745529,46.026532653265,0,0
-144.71917660839,-171.84414617101,40.83096309631,1351839.3178878,-1867.7852927794,2713647.1745529,46.03096309631,0,0
-144.71917650077,-171.85850027377,40.835393539354,1351839.3178878,-1867.7852927794,2713647.1745529,46.035393539354,0,0
-144.71917639316,-171.87285437654,40.839823982398,1351839.3178878,-1867.7852927794,2713647.1745529,46.039823982398,0,0
-144.71917628554,-171.8872084793,40.844254425443,1351839.3178878,-1867.7852927794,2713647.1745529,46.044254425443,0,0
-144.71917617793,-171.90156258206,40.848684868487,1351839.3178878,-1867.7852927794,2713647.1745529,46.048684868487,0,0
-144.71917607031,-171.91591668482,40.853115311531,1351839.3178878,-1867.7852927794,2713647.1745529,46.053115311531,0,0
-144.71917596269,-171.93027078759,40.857545754575,1351839.3178878,-1867.7852927794,2713647.1745529,46.057545754575,0,0
-144.71917585508,-171.94462489035,40.86197619762,1351839.3178878,-1867.7852927794,2713647.1745529,46.06197619762,0,0
-144.71917574746,-171.95897899311,40.866406640664,1351839.3178878,-1867.7852927794,2713647.1745529,46.066406640664,0,0
-144.71917563985,-171.97333309588,40.870837083708,1351839.3178878,-1867.7852927794,2713647.1745529,46.070837083708,0,0
-144.71917553223,-171.98768719864,40.875267526753,1351839.3178878,-1867.7852927794,2713647.1745529,46.075267526753,0,0
-144.71917542462,-172.0020413014,40.879697969797,1351839.3178878,-1867.7852927794,2713647.1745529,46.079697969797,0,0
-144.719175317,-172.01639540416,40.884128412841,1351839.3178878,-1867.7852927794,2713647.1745529,46.084128412841,0,0
-144.71917520938,-172.03074950693,40.888558855886,1351839.3178878,-1867.7852927794,2713647.1745529,46.088558855886,0,0
-144.71917510181,-172.04510360945,40.89298929893,1349903.5380072,651.54934181921,2710888.4108565,46.09298929893,0,0
-144.71917499427,-172.05945771171,40.897419741974,1349903.5380072,651.54934181921,2710888.4108565,46.097419741974,0,0
-144.71917488674,-172.07381181396,40.901850185018,1349903.5380072,651.54934181921,2710888.4108565,46.101850185018,0,0
-144.7191747792,-172.08816591621,40.906280628063,1349903.5380072,651.54934181921,2710888.4108565,46.106280628063,0,0
-144.71917467167,-172.10252001847,40.910711071107,1349903.5380072,651.54934181921,2710888.4108565,46.110711071107,0,0
-144.71917456413,-172.11687412072,40.915141514151,1349903.5380072,651.54934181921,2710888.4108565,46.115141514151,0,0
-144.7191744566,-172.13122822297,40.919571957196,1349903.5380072,651.54934181921,2710888.4108565,46.119571957196,0,0
-144.71917434906,-172.14558232522,40.92400240024,1349903.5380072,651.54934181921,2710888.4108565,46.12400240024,0,0
-144.71917424153,-172.15993642748,40.928432843284,1349903.5380072,651.54934181921,2710888.4108565,46.128432843284,0,0
-144.71917413399,-172.17429052973,40.932863286329,1349903.5380072,651.54934181921,2710888.4108565,46.132863286329,0,0
-144.71917402646,-172.18864463198,40.937293729373,1349903.5380072,651.54934181921,2710888.4108565,46.137293729373,0,0
-144.71917391892,-172.20299873424,40.941724172417,1349903.5380072,651.54934181921,2710888.4108565,46.141724172417,0,0
-144.71917381139,-172.21735283649,40.946154615462,1349903.5380072,651.54934181921,2710888.4108565,46.146154615462,0,0
-144.71917370385,-172.23170693874,40.950585058506,1349903.5380072,651.54934181921,2710888.4108565,46.150585058506,0,0
-144.71917359632,-172.24606104099,40.95501550155,1349903.5380072,651.54934181921,2710888.4108565,46.15501550155,0,0
-144.71917348879,-172.26041514325,40.959445944594,1349903.5380072,651.54934181921,2710888.4108565,46.159445944594,0,0
-144.71917338125,-172.2747692455,40.963876387639,1349903.5380072,651.54934181921,2710888.4108565,46.163876387639,0,0
-144.71917327372,-172.28912334775,40.968306830683,1349903.5380072,651.54934181921,2710888.4108565,46.168306830683,0,0
-144.71917316618,-172.30347745001,40.972737273727,1349903.5380072,651.54934181921,2710888.4108565,46.172737273727,0,0
-144.71917305837,-172.31783155262,40.977167716772,1352456.6908139,380.9277040091,2704861.0665908,46.177167716772,0,0
-144.71917295047,-172.33218565535,40.981598159816,1352456.6908139,380.9277040091,2704861.0665908,46.181598159816,0,0
-144.71917284257,-172.34653975808,40.98602860286,1352456.6908139,380.9277040091,2704861.0665908,46.18602860286,0,0
-144.71917273467,-172.36089386081,40.990459045905,1352456.6908139,380.9277040091,2704861.0665908,46.190459045905,0,0
-144.71917262677,-172.37524796354,40.994889488949,1352456.6908139,380.9277040091,2704861.0665908,46.194889488949,0,0
-144.71917251887,-172.38960206627,40.999319931993,1352456.6908139,380.9277040091,2704861.0665908,46.199319931993,0,0
-144.71917241097,-172.403956169,41.003750375037,1352456.6908139,380.9277040091,2704861.0665908,46.203750375038,0,0
-144.71917230307,-172.41831027173,41.008180818082,1352456.6908139,380.9277040091,2704861.0665908,46.208180818082,0,0
-144.71917219518,-172.43266437446,41.012611261126,1352456.6908139,380.9277040091,2704861.0665908,46.212611261126,0,0
-144.71917208728,-172.44701847719,41.01704170417,1352456.6908139,380.9277040091,2704861.0665908,46.21704170417,0,0
-144.71917197938,-172.46137257992,41.021472147215,1352456.6908139,380.9277040091,2704861.0665908,46.221472147215,0,0
-144.71917187148,-172.47572668265,41.025902590259,1352456.6908139,380.9277040091,2704861.0665908,46.225902590259,0,0
-144.71917176358,-172.49008078538,41.030333033303,1352456.6908139,380.9277040091,2704861.0665908,46.230333033303,0,0
-144.71917165568,-172.50443488811,41.034763476348,1352456.6908139,380.9277040091,2704861.0665908,46.234763476348,0,0
-144.71917154778,-172.51878899084,41.039193919392,1352456.6908139,380.9277040091,2704861.0665908,46.239193919392,0,0
-144.71917143988,-172.53314309357,41.043624362436,1352456.6908139,380.9277040091,2704861.0665908,46.243624362436,0,0
-144.71917133198,-172.5474971963,41.048054805481,1352456.6908139,380.9277040091,2704861.0665908,46.248054805481,0,0
-144.71917122408,-172.56185129903,41.052485248525,1352456.6908139,380.9277040091,2704861.0665908,46.252485248525,0,0
-144.71917111618,-172.57620540176,41.056915691569,1352456.6908139,380.9277040091,2704861.0665908,46.256915691569,0,0
-144.71917100829,-172.59055950449,41.061346134613,1352456.6908139,380.9277040091,2704861.0665908,46.261346134613,0,0
-144.71917090039,-172.60491360722,41.065776577658,1352456.6908139,380.9277040091,2704861.0665908,46.265776577658,0,0
-144.71917079249,-172.61926770995,41.070207020702,1352456.6908139,380.9277040091,2704861.0665908,46.270207020702,0,0
-144.71917068459,-172.63362181268,41.074637463746,1352456.6908139,380.9277040091,2704861.0665908,46.274637463746,0,0
-144.71917057669,-172.64797591541,41.079067906791,1352456.6908139,380.9277040091,2704861.0665908,46.279067906791,0,0
-144.71917046879,-172.66233001814,41.083498349835,1352456.6908139,380.9277040091,2704861.0665908,46.283498349835,0,0
-144.71917036089,-172.67668412087,41.087928792879,1352456.6908139,380.9277040091,2704861.0665908,46.287928792879,0,0
-144.71917025299,-172.6910382236,41.092359235924,1352456.6908139,380.9277040091,2704861.0665908,46.292359235924,0,0
-144.71917014509,-172.70539232633,41.096789678968,1352456.6908139,380.9277040091,2704861.0665908,46.296789678968,0,0
-144.71917003719,-172.71974642907,41.101220122012,1352456.6908139,380.9277040091,2704861.0665908,46.301220122012,0,0
-144.71916992929,-172.7341005318,41.105650565057,1352456.6908139,380.9277040091,2704861.0665908,46.305650565057,0,0
-144.7191698214,-172.74845463453,41.110081008101,1352456.6908139,380.9277040091,2704861.0665908,46.310081008101,0,0
-144.7191697135,-172.76280873726,41.114511451145,1352456.6908139,380.9277040091,2704861.0665908,46.314511451145,0,0
-144.7191696056,-172.77716283999,41.118941894189,1352456.6908139,380.9277040091,2704861.0665908,46.318941894189,0,0
-144.7191694977,-172.79151694272,41.123372337234,1352456.6908139,380.9277040091,2704861.0665908,46.323372337234,0,0
-144.7191693898,-172.80587104545,41.127802780278,1352456.6908139,380.9277040091,2704861.0665908,46.327802780278,0,0
-144.7191692819,-172.82022514818,41.132233223322,1352456.6908139,380.9277040091,2704861.0665908,46.332233223322,0,0
-144.719169174,-172.83457925091,41.136663666367,1352456.6908139,380.9277040091,2704861.0665908,46.336663666367,0,0
-144.7191690661,-172.84893335364,41.141094109411,1352456.6908139,380.9277040091,2704861.0665908,46.341094109411,0,0
-144.7191689582,-172.86328745637,41.145524552455,1352456.6908139,380.9277040091,2704861.0665908,46.345524552455,0,0
-144.7191688503,-172.8776415591,41.1499549955,1352456.6908139,380.9277040091,2704861.0665908,46.3499549955,0,0
-144.7191687424,-172.89199566183,41.154385438544,1352456.6908139,380.9277040091,2704861.0665908,46.354385438544,0,0
-144.71916863451,-172.90634976456,41.158815881588,1352456.6908139,380.9277040091,2704861.0665908,46.358815881588,0,0
-144.71916852661,-172.92070386729,41.163246324632,1352456.6908139,380.9277040091,2704861.0665908,46.363246324632,0,0
-144.71916841871,-172.93505797002,41.167676767677,1352456.6908139,380.9277040091,2704861.0665908,46.367676767677,0,0
-144.71916831081,-172.94941207275,41.172107210721,1352456.6908139,380.9277040091,2704861.0665908,46.372107210721,0,0
-144.71916820291,-172.96376617548,41.176537653765,1352456.6908139,380.9277040091,2704861.0665908,46.376537653765,0,0
-144.71916809501,-172.97812027821,41.18096809681,1352456.6908139,380.9277040091,2704861.0665908,46.38096809681,0,0
-144.71916798711,-172.99247438094,41.185398539854,1352456.6908139,380.9277040091,2704861.0665908,46.385398539854,0,0
-144.71916787921,-173.00682848367,41.189828982898,1352456.6908139,380.9277040091,2704861.0665908,46.389828982898,0,0
-144.71916777131,-173.0211825864,41.194259425943,1352456.6908139,380.9277040091,2704861.0665908,46.394259425943,0,0
-144.71916766341,-173.03553668913,41.198689868987,1352456.6908139,380.9277040091,2704861.0665908,46.398689868987,0,0
-144.71916755551,-173.04989079186,41.203120312031,1352456.6908139,380.9277040091,2704861.0665908,46.403120312031,0,0
-144.71916744762,-173.06424489459,41.207550755076,1352456.6908139,380.9277040091,2704861.0665908,46.407550755076,0,0
-144.71916733972,-173.07859899732,41.21198119812,1352456.6908139,380.9277040091,2704861.0665908,46.41198119812,0,0
-144.71916723182,-173.09295310005,41.216411641164,1352456.6908139,380.9277040091,2704861.0665908,46.416411641164,0,0
-144.71916712392,-173.10730720278,41.220842084208,1352456.6908139,380.9277040091,2704861.0665908,46.420842084208,0,0
-144.71916701602,-173.12166130551,41.225272527253,1352456.6908139,380.9277040091,2704861.0665908,46.425272527253,0,0
-144.71916690812,-173.13601540824,41.229702970297,1352456.6908139,380.9277040091,2704861.0665908,46.429702970297,0,0
-144.71916680022,-173.15036951097,41.234133413341,1352456.6908139,380.9277040091,2704861.0665908,46.434133413341,0,0
-144.71916669232,-173.1647236137,41.238563856386,1352456.6908139,380.9277040091,2704861.0665908,46.438563856386,0,0
-144.71916658442,-173.17907771643,41.24299429943,1352456.6908139,380.9277040091,2704861.0665908,46.44299429943,0,0
-144.71916647652,-173.19343181916,41.247424742474,1352456.6908139,380.9277040091,2704861.0665908,46.447424742474,0,0
-144.71916636862,-173.20778592189,41.251855185519,1352456.6908139,380.9277040091,2704861.0665908,46.451855185519,0,0
-144.71916626073,-173.22214002462,41.256285628563,1352456.6908139,380.9277040091,2704861.0665908,46.456285628563,0,0
-144.71916615283,-173.23649412735,41.260716071607,1352456.6908139,380.9277040091,2704861.0665908,46.460716071607,0,0
-144.71916604493,-173.25084823008,41.265146514651,1352456.6908139,380.9277040091,2704861.0665908,46.465146514651,0,0
-144.71916593703,-173.26520233281,41.269576957696,1352456.6908139,380.9277040091,2704861.0665908,46.469576957696,0,0
-144.71916582913,-173.27955643554,41.27400740074,1352456.6908139,380.9277040091,2704861.0665908,46.47400740074,0,0
-144.71916572123,-173.29391053827,41.278437843784,1352456.6908139,380.9277040091,2704861.0665908,46.478437843784,0,0
-144.71916561333,-173.308264641,41.282868286829,1352456.6908139,380.9277040091,2704861.0665908,46.482868286829,0,0
-144.71916550543,-173.32261874373,41.287298729873,1352456.6908139,380.9277040091,2704861.0665908,46.487298729873,0,0
-144.71916539753,-173.33697284646,41.291729172917,1352456.6908139,380.9277040091,2704861.0665908,46.491729172917,0,0
-144.71916528963,-173.35132694919,41.296159615962,1352456.6908139,380.9277040091,2704861.0665908,46.496159615962,0,0
-144.71916518173,-173.36568105192,41.300590059006,1352456.6908139,380.9277040091,2704861.0665908,46.500590059006,0,0
-144.71916507383,-173.38003515465,41.30502050205,1352456.6908139,380.9277040091,2704861.0665908,46.50502050205,0,0
-144.71916496594,-173.39438925738,41.309450945095,1352456.6908139,380.9277040091,2704861.0665908,46.509450945095,0,0
-144.71916485804,-173.40874336011,41.313881388139,1352456.6908139,380.9277040091,2704861.0665908,46.513881388139,0,0
-144.71916475014,-173.42309746284,41.318311831183,1352456.6908139,380.9277040091,2704861.0665908,46.518311831183,0,0
-144.71916464224,-173.43745156557,41.322742274227,1352456.6908139,380.9277040091,2704861.0665908,46.522742274227,0,0
-144.71916453434,-173.4518056683,41.327172717272,1352456.6908139,380.9277040091,2704861.0665908,46.527172717272,0,0
-144.71916442644,-173.46615977103,41.331603160316,1352456.6908139,380.9277040091,2704861.0665908,46.531603160316,0,0
-144.71916431854,-173.48051387376,41.33603360336,1352456.6908139,380.9277040091,2704861.0665908,46.53603360336,0,0
-144.71916421064,-173.49486797649,41.340464046405,1352456.6908139,380.9277040091,2704861.0665908,46.540464046405,0,0
-144.71916410274,-173.50922207922,41.344894489449,1352456.6908139,380.9277040091,2704861.0665908,46.544894489449,0,0
-144.71916399484,-173.52357618195,41.349324932493,1352456.6908139,380.9277040091,2704861.0665908,46.549324932493,0,0
-144.71916388694,-173.53793028468,41.353755375538,1352456.6908139,380.9277040091,2704861.0665908,46.553755375538,0,0
-144.71916377905,-173.55228438741,41.358185818582,1352456.6908139,380.9277040091,2704861.0665908,46.558185818582,0,0
-144.71916367115,-173.56663849014,41.362616261626,1352456.6908139,380.9277040091,2704861.0665908,46.562616261626,0,0
-144.71916356325,-173.58099259287,41.36704670467,1352456.6908139,380.9277040091,2704861.0665908,46.56704670467,0,0
-144.71916345535,-173.5953466956,41.371477147715,1352456.6908139,380.9277040091,2704861.0665908,46.571477147715,0,0
-144.71916334745,-173.60970079833,41.375907590759,1352456.6908139,380.9277040091,2704861.0665908,46.575907590759,0,0
-144.71916323955,-173.62405490106,41.380338033803,1352456.6908139,380.9277040091,2704861.0665908,46.580338033803,0,0
-144.71916313165,-173.63840900379,41.384768476848,1352456.6908139,380.9277040091,2704861.0665908,46.584768476848,0,0
-144.71916302375,-173.65276310652,41.389198919892,1352456.6908139,380.9277040091,2704861.0665908,46.589198919892,0,0
-144.71916291585,-173.66711720925,41.393629362936,1352456.6908139,380.9277040091,2704861.0665908,46.593629362936,0,0
-144.71916280795,-173.68147131198,41.398059805981,1352456.6908139,380.9277040091,2704861.0665908,46.598059805981,0,0
-144.71916270005,-173.69582541471,41.402490249025,1352456.6908139,380.9277040091,2704861.0665908,46.602490249025,0,0
-144.71916259216,-173.71017951744,41.406920692069,1352456.6908139,380.9277040091,2704861.0665908,46.606920692069,0,0
-144.71916248426,-173.72453362017,41.411351135114,1352456.6908139,380.9277040091,2704861.0665908,46.611351135114,0,0
-144.71916237636,-173.7388877229,41.415781578158,1352456.6908139,380.9277040091,2704861.0665908,46.615781578158,0,0
-144.71916226846,-173.75324182563,41.420212021202,1352456.6908139,380.9277040091,2704861.0665908,46.620212021202,0,0
-144.71916216056,-173.76759592836,41.424642464246,1352456.6908139,380.9277040091,2704861.0665908,46.624642464246,0,0
-144.71916205266,-173.78195003109,41.429072907291,1352456.6908139,380.9277040091,2704861.0665908,46.629072907291,0,0
-144.71916194476,-173.79630413382,41.433503350335,1352456.6908139,380.9277040091,2704861.0665908,46.633503350335,0,0
-144.71916183686,-173.81065823655,41.437933793379,1352456.6908139,380.9277040091,2704861.0665908,46.637933793379,0,0
-144.71916172896,-173.82501233928,41.442364236424,1352456.6908139,380.9277040091,2704861.0665908,46.642364236424,0,0
-144.71916162106,-173.83936644201,41.446794679468,1352456.6908139,380.9277040091,2704861.0665908,46.646794679468,0,0
-144.71916151316,-173.85372054474,41.451225122512,1352456.6908139,380.9277040091,2704861.0665908,46.651225122512,0,0
-144.71916140527,-173.86807464747,41.455655565557,1352456.6908139,380.9277040091,2704861.0665908,46.655655565557,0,0
-144.71916129737,-173.8824287502,41.460086008601,1352456.6908139,380.9277040091,2704861.0665908,46.660086008601,0,0
-144.71916118947,-173.89678285293,41.464516451645,1352456.6908139,380.9277040091,2704861.0665908,46.664516451645,0,0
-144.71916108157,-173.91113695566,41.468946894689,1352456.6908139,380.9277040091,2704861.0665908,46.668946894689,0,0
-144.71916097367,-173.92549105839,41.473377337734,1352456.6908139,380.9277040091,2704861.0665908,46.673377337734,0,0
-144.71916086577,-173.93984516112,41.477807780778,1352456.6908139,380.9277040091,2704861.0665908,46.677807780778,0,0
-144.71916075787,-173.95419926385,41.482238223822,1352456.6908139,380.9277040091,2704861.0665908,46.682238223822,0,0
-144.71916064997,-173.96855336658,41.486668666867,1352456.6908139,380.9277040091,2704861.0665908,46.686668666867,0,0
-144.71916054207,-173.98290746931,41.491099109911,1352456.6908139,380.9277040091,2704861.0665908,46.691099109911,0,0
-144.71916043417,-173.99726157204,41.495529552955,1352456.6908139,380.9277040091,2704861.0665908,46.695529552955,0,0
-144.71916032627,-174.01161567477,41.499959996,1352456.6908139,380.9277040091,2704861.0665908,46.699959996,0,0
-144.71916021838,-174.0259697775,41.504390439044,1352456.6908139,380.9277040091,2704861.0665908,46.704390439044,0,0
-144.71916011048,-174.04032388023,41.508820882088,1352456.6908139,380.9277040091,2704861.0665908,46.708820882088,0,0
-144.71916000258,-174.05467798296,41.513251325133,1352456.6908139,380.9277040091,2704861.0665908,46.713251325133,0,0
-144.71915989468,-174.06903208569,41.517681768177,1352456.6908139,380.9277040091,2704861.0665908,46.717681768177,0,0
-144.71915978678,-174.08338618842,41.522112211221,1352456.6908139,380.9277040091,2704861.0665908,46.722112211221,0,0
-144.71915967888,-174.09774029115,41.526542654265,1352456.6908139,380.9277040091,2704861.0665908,46.726542654265,0,0
-144.71915957098,-174.11209439388,41.53097309731,1352456.6908139,380.9277040091,2704861.0665908,46.73097309731,0,0
-144.71915946308,-174.12644849661,41.535403540354,1352456.6908139,380.9277040091,2704861.0665908,46.735403540354,0,0
-144.71915935518,-174.14080259934,41.539833983398,1352456.6908139,380.9277040091,2704861.0665908,46.739833983398,0,0
-144.71915924728,-174.15515670207,41.544264426443,1352456.6908139,380.9277040091,2704861.0665908,46.744264426443,0,0
-144.71915913938,-174.1695108048,41.548694869487,1352456.6908139,380.9277040091,2704861.0665908,46.748694869487,0,0
-144.71915903149,-174.18386490753,41.553125312531,1352456.6908139,380.9277040091,2704861.0665908,46.753125312531,0,0
-144.71915892359,-174.19821901026,41.557555755576,1352456.6908139,380.9277040091,2704861.0665908,46.757555755576,0,0
-144.71915881569,-174.21257311299,41.56198619862,1352456.6908139,380.9277040091,2704861.0665908,46.76198619862,0,0
-144.71915870779,-174.22692721572,41.566416641664,1352456.6908139,380.9277040091,2704861.0665908,46.766416641664,0,0
-144.71915859989,-174.24128131845,41.570847084708,1352456.6908139,380.9277040091,2704861.0665908,46.770847084708,0,0
-144.71915849199,-174.25563542119,41.575277527753,1352456.6908139,380.9277040091,2704861.0665908,46.775277527753,0,0
-144.71915838409,-174.26998952392,41.579707970797,1352456.6908139,380.9277040091,2704861.0665908,46.779707970797,0,0
-144.71915827619,-174.28434362665,41.584138413841,1352456.6908139,380.9277040091,2704861.0665908,46.784138413841,0,0
-144.71915816829,-174.29869772938,41.588568856886,1352456.6908139,380.9277040091,2704861.0665908,46.788568856886,0,0
-144.71915806039,-174.31305183211,41.59299929993,1352456.6908139,380.9277040091,2704861.0665908,46.79299929993,0,0
-144.71915795249,-174.32740593484,41.597429742974,1352456.6908139,380.9277040091,2704861.0665908,46.797429742974,0,0
-144.7191578446,-174.34176003757,41.601860186019,1352456.6908139,380.9277040091,2704861.0665908,46.801860186019,0,0
-144.7191577367,-174.3561141403,41.606290629063,1352456.6908139,380.9277040091,2704861.0665908,46.806290629063,0,0
-144.7191576288,-174.37046824303,41.610721072107,1352456.6908139,380.9277040091,2704861.0665908,46.810721072107,0,0
-144.7191575209,-174.38482234576,41.615151515152,1352456.6908139,380.9277040091,2704861.0665908,46.815151515152,0,0
-144.719157413,-174.39917644849,41.619581958196,1352456.6908139,380.9277040091,2704861.0665908,46.819581958196,0,0
-144.7191573051,-174.41353055122,41.62401240124,1352456.6908139,380.9277040091,2704861.0665908,46.82401240124,0,0
-144.7191571972,-174.42788465395,41.628442844284,1352456.6908139,380.9277040091,2704861.0665908,46.828442844284,0,0
-144.7191570893,-174.44223875668,41.632873287329,1352456.6908139,380.9277040091,2704861.0665908,46.832873287329,0,0
-144.7191569814,-174.45659285941,41.637303730373,1352456.6908139,380.9277040091,2704861.0665908,46.837303730373,0,0
-144.7191568735,-174.47094696214,41.641734173417,1352456.6908139,380.9277040091,2704861.0665908,46.841734173417,0,0
-144.7191567656,-174.48530106487,41.646164616462,1352456.6908139,380.9277040091,2704861.0665908,46.846164616462,0,0
-144.71915665771,-174.4996551676,41.650595059506,1352456.6908139,380.9277040091,2704861.0665908,46.850595059506,0,0
-144.71915654981,-174.51400927033,41.65502550255,1352456.6908139,380.9277040091,2704861.0665908,46.85502550255,0,0
-144.71915644191,-174.52836337306,41.659455945595,1352456.6908139,380.9277040091,2704861.0665908,46.859455945595,0,0
-144.71915633401,-174.54271747579,41.663886388639,1352456.6908139,380.9277040091,2704861.0665908,46.863886388639,0,0
-144.71915622611,-174.55707157852,41.668316831683,1352456.6908139,380.9277040091,2704861.0665908,46.868316831683,0,0
-144.71915611821,-174.57142568125,41.672747274727,1352456.6908139,380.9277040091,2704861.0665908,46.872747274727,0,0
-144.71915601031,-174.58577978398,41.677177717772,1352456.6908139,380.9277040091,2704861.0665908,46.877177717772,0,0
-144.71915590241,-174.60013388671,41.681608160816,1352456.6908139,380.9277040091,2704861.0665908,46.881608160816,0,0
-144.71915579451,-174.61448798944,41.68603860386,1352456.6908139,380.9277040091,2704861.0665908,46.88603860386,0,0
-144.71915568661,-174.62884209217,41.690469046905,1352456.6908139,380.9277040091,2704861.0665908,46.890469046905,0,0
-144.71915557871,-174.6431961949,41.694899489949,1352456.6908139,380.9277040091,2704861.0665908,46.894899489949,0,0
-144.71915547081,-174.65755029763,41.699329932993,1352456.6908139,380.9277040091,2704861.0665908,46.899329932993,0,0
-144.71915536292,-174.67190440036,41.703760376038,1352456.6908139,380.9277040091,2704861.0665908,46.903760376038,0,0
-144.71915525502,-174.68625850309,41.708190819082,1352456.6908139,380.9277040091,2704861.0665908,46.908190819082,0,0
-144.71915514712,-174.70061260582,41.712621262126,1352456.6908139,380.9277040091,2704861.0665908,46.912621262126,0,0
-144.71915503922,-174.71496670855,41.717051705171,1352456.6908139,380.9277040091,2704861.0665908,46.917051705171,0,0
-144.71915493132,-174.72932081128,41.721482148215,1352456.6908139,380.9277040091,2704861.0665908,46.921482148215,0,0
-144.71915482342,-174.74367491401,41.725912591259,1352456.6908139,380.9277040091,2704861.0665908,46.925912591259,0,0
-144.71915471552,-174.75802901674,41.730343034303,1352456.6908139,380.9277040091,2704861.0665908,46.930343034303,0,0
-144.71915460762,-174.77238311947,41.734773477348,1352456.6908139,380.9277040091,2704861.0665908,46.934773477348,0,0
-144.71915449972,-174.7867372222,41.739203920392,1352456.6908139,380.9277040091,2704861.0665908,46.939203920392,0,0
-144.71915439182,-174.80109132493,41.743634363436,1352456.6908139,380.9277040091,2704861.0665908,46.943634363436,0,0
-144.71915428392,-174.81544542766,41.748064806481,1352456.6908139,380.9277040091,2704861.0665908,46.948064806481,0,0
-144.71915417603,-174.82979953039,41.752495249525,1352456.6908139,380.9277040091,2704861.0665908,46.952495249525,0,0
-144.71915406813,-174.84415363312,41.756925692569,1352456.6908139,380.9277040091,2704861.0665908,46.956925692569,0,0
-144.71915396023,-174.85850773585,41.761356135614,1352456.6908139,380.9277040091,2704861.0665908,46.961356135614,0,0
-144.71915385233,-174.87286183858,41.765786578658,1352456.6908139,380.9277040091,2704861.0665908,46.965786578658,0,0
-144.71915374443,-174.88721594131,41.770217021702,1352456.6908139,380.9277040091,2704861.0665908,46.970217021702,0,0
-144.71915363653,-174.90157004404,41.774647464746,1352456.6908139,380.9277040091,2704861.0665908,46.974647464746,0,0
-144.71915352863,-174.91592414677,41.779077907791,1352456.6908139,380.9277040091,2704861.0665908,46.979077907791,0,0
-144.71915342073,-174.9302782495,41.783508350835,1352456.6908139,380.9277040091,2704861.0665908,46.983508350835,0,0
-144.71915331283,-174.94463235223,41.787938793879,1352456.6908139,380.9277040091,2704861.0665908,46.987938793879,0,0
-144.71915320493,-174.95898645496,41.792369236924,1352456.6908139,380.9277040091,2704861.0665908,46.992369236924,0,0
-144.71915309703,-174.97334055769,41.796799679968,1352456.6908139,380.9277040091,2704861.0665908,46.996799679968,0,0
-144.71915298914,-174.98769466042,41.801230123012,1352456.6908139,380.9277040091,2704861.0665908,47.001230123012,0,0
-144.71915288124,-175.00204876315,41.805660566057,1352456.6908139,380.9277040091,2704861.0665908,47.005660566057,0,0
-144.71915277334,-175.01640286588,41.810091009101,1352456.6908139,380.9277040091,2704861.0665908,47.010091009101,0,0
-144.71915266544,-175.03075696861,41.814521452145,1352456.6908139,380.9277040091,2704861.0665908,47.014521452145,0,0
-144.71915255754,-175.04511107134,41.81895189519,1352456.6908139,380.9277040091,2704861.0665908,47.01895189519,0,0
-144.71915244964,-175.05946517407,41.823382338234,1352456.6908139,380.9277040091,2704861.0665908,47.023382338234,0,0
-144.71915234174,-175.0738192768,41.827812781278,1352456.6908139,380.9277040091,2704861.0665908,47.027812781278,0,0
-144.71915223384,-175.08817337953,41.832243224322,1352456.6908139,380.9277040091,2704861.0665908,47.032243224322,0,0
-144.71915212594,-175.10252748226,41.836673667367,1352456.6908139,380.9277040091,2704861.0665908,47.036673667367,0,0
-144.71915201804,-175.11688158499,41.841104110411,1352456.6908139,380.9277040091,2704861.0665908,47.041104110411,0,0
-144.71915191014,-175.13123568772,41.845534553455,1352456.6908139,380.9277040091,2704861.0665908,47.045534553455,0,0
-144.71915180225,-175.14558979045,41.8499649965,1352456.6908139,380.9277040091,2704861.0665908,47.0499649965,0,0
-144.71915169435,-175.15994389318,41.854395439544,1352456.6908139,380.9277040091,2704861.0665908,47.054395439544,0,0
-144.71915158645,-175.17429799591,41.858825882588,1352456.6908139,380.9277040091,2704861.0665908,47.058825882588,0,0
-144.71915147855,-175.18865209864,41.863256325633,1352456.6908139,380.9277040091,2704861.0665908,47.063256325633,0,0
-144.71915137065,-175.20300620137,41.867686768677,1352456.6908139,380.9277040091,2704861.0665908,47.067686768677,0,0
-144.71915126275,-175.2173603041,41.872117211721,1352456.6908139,380.9277040091,2704861.0665908,47.072117211721,0,0
-144.71915115485,-175.23171440683,41.876547654765,1352456.6908139,380.9277040091,2704861.0665908,47.076547654765,0,0
-144.71915104695,-175.24606850956,41.88097809781,1352456.6908139,380.9277040091,2704861.0665908,47.08097809781,0,0
-144.71915093905,-175.26042261229,41.885408540854,1352456.6908139,380.9277040091,2704861.0665908,47.085408540854,0,0
-144.71915083115,-175.27477671502,41.889838983898,1352456.6908139,380.9277040091,2704861.0665908,47.089838983898,0,0
-144.71915072325,-175.28913081775,41.894269426943,1352456.6908139,380.9277040091,2704861.0665908,47.094269426943,0,0
-144.71915061536,-175.30348492048,41.898699869987,1352456.6908139,380.9277040091,2704861.0665908,47.098699869987,0,0
-144.71915050746,-175.31783902321,41.903130313031,1352456.6908139,380.9277040091,2704861.0665908,47.103130313031,0,0
-144.71915039956,-175.33219312594,41.907560756076,1352456.6908139,380.9277040091,2704861.0665908,47.107560756076,0,0
-144.71915029166,-175.34654722867,41.91199119912,1352456.6908139,380.9277040091,2704861.0665908,47.11199119912,0,0
-144.71915018376,-175.3609013314,41.916421642164,1352456.6908139,380.9277040091,2704861.0665908,47.116421642164,0,0
-144.71915007586,-175.37525543413,41.920852085209,1352456.6908139,380.9277040091,2704861.0665908,47.120852085209,0,0
-144.71914996796,-175.38960953686,41.925282528253,1352456.6908139,380.9277040091,2704861.0665908,47.125282528253,0,0
-144.71914986006,-175.40396363959,41.929712971297,1352456.6908139,380.9277040091,2704861.0665908,47.129712971297,0,0
-144.71914975216,-175.41831774232,41.934143414341,1352456.6908139,380.9277040091,2704861.0665908,47.134143414341,0,0
-144.71914964426,-175.43267184505,41.938573857386,1352456.6908139,380.9277040091,2704861.0665908,47.138573857386,0,0
-144.71914953636,-175.44702594778,41.94300430043,1352456.6908139,380.9277040091,2704861.0665908,47.14300430043,0,0
-144.71914942847,-175.46138005051,41.947434743474,1352456.6908139,380.9277040091,2704861.0665908,47.147434743474,0,0
-144.71914932057,-175.47573415324,41.951865186519,1352456.6908139,380.9277040091,2704861.0665908,47.151865186519,0,0
-144.71914921267,-175.49008825597,41.956295629563,1352456.6908139,380.9277040091,2704861.0665908,47.156295629563,0,0
-144.71914910477,-175.5044423587,41.960726072607,1352456.6908139,380.9277040091,2704861.0665908,47.160726072607,0,0
-144.71914899687,-175.51879646143,41.965156515652,1352456.6908139,380.9277040091,2704861.0665908,47.165156515652,0,0
-144.71914888897,-175.53315056416,41.969586958696,1352456.6908139,380.9277040091,2704861.0665908,47.169586958696,0,0
-144.71914878107,-175.54750466689,41.97401740174,1352456.6908139,380.9277040091,2704861.0665908,47.17401740174,0,0
-144.71914867317,-175.56185876962,41.978447844784,1352456.6908139,380.9277040091,2704861.0665908,47.178447844784,0,0
-144.71914856527,-175.57621287235,41.982878287829,1352456.6908139,380.9277040091,2704861.0665908,47.182878287829,0,0
-144.71914845737,-175.59056697508,41.987308730873,1352456.6908139,380.9277040091,2704861.0665908,47.187308730873,0,0
-144.71914834947,-175.60492107781,41.991739173917,1352456.6908139,380.9277040091,2704861.0665908,47.191739173917,0,0
-144.71914824158,-175.61927518054,41.996169616962,1352456.6908139,380.9277040091,2704861.0665908,47.196169616962,0,0
-144.71914813368,-175.63362928327,42.000600060006,1352456.6908139,380.9277040091,2704861.0665908,47.200600060006,0,0
-144.71914802578,-175.647983386,42.00503050305,1352456.6908139,380.9277040091,2704861.0665908,47.20503050305,0,0
-144.71914791788,-175.66233748873,42.009460946095,1352456.6908139,380.9277040091,2704861.0665908,47.209460946095,0,0
-144.71914780998,-175.67669159146,42.013891389139,1352456.6908139,380.9277040091,2704861.0665908,47.213891389139,0,0
-144.71914770208,-175.69104569419,42.018321832183,1352456.6908139,380.9277040091,2704861.0665908,47.218321832183,0,0
-144.71914759418,-175.70539979692,42.022752275228,1352456.6908139,380.9277040091,2704861.0665908,47.222752275228,0,0
-144.71914748628,-175.71975389965,42.027182718272,1352456.6908139,380.9277040091,2704861.0665908,47.227182718272,0,0
-144.71914737838,-175.73410800238,42.031613161316,1352456.6908139,380.9277040091,2704861.0665908,47.231613161316,0,0
-144.71914727048,-175.74846210511,42.03604360436,1352456.6908139,380.9277040091,2704861.0665908,47.23604360436,0,0
-144.71914716258,-175.76281620784,42.040474047405,1352456.6908139,380.9277040091,2704861.0665908,47.240474047405,0,0
-144.71914705469,-175.77717031057,42.044904490449,1352456.6908139,380.9277040091,2704861.0665908,47.244904490449,0,0
-144.71914694679,-175.7915244133,42.049334933493,1352456.6908139,380.9277040091,2704861.0665908,47.249334933493,0,0
-144.71914683889,-175.80587851604,42.053765376538,1352456.6908139,380.9277040091,2704861.0665908,47.253765376538,0,0
-144.71914673099,-175.82023261877,42.058195819582,1352456.6908139,380.9277040091,2704861.0665908,47.258195819582,0,0
-144.71914662309,-175.8345867215,42.062626262626,1352456.6908139,380.9277040091,2704861.0665908,47.262626262626,0,0
-144.71914651519,-175.84894082423,42.067056705671,1352456.6908139,380.9277040091,2704861.0665908,47.267056705671,0,0
-144.71914640729,-175.86329492696,42.071487148715,1352456.6908139,380.9277040091,2704861.0665908,47.271487148715,0,0
-144.71914629939,-175.87764902969,42.075917591759,1352456.6908139,380.9277040091,2704861.0665908,47.275917591759,0,0
-144.71914619149,-175.89200313242,42.080348034803,1352456.6908139,380.9277040091,2704861.0665908,47.280348034803,0,0
-144.71914608359,-175.90635723515,42.084778477848,1352456.6908139,380.9277040091,2704861.0665908,47.284778477848,0,0
-144.71914597569,-175.92071133788,42.089208920892,1352456.6908139,380.9277040091,2704861.0665908,47.289208920892,0,0
-144.7191458678,-175.93506544061,42.093639363936,1352456.6908139,380.9277040091,2704861.0665908,47.293639363936,0,0
-144.7191457599,-175.94941954334,42.098069806981,1352456.6908139,380.9277040091,2704861.0665908,47.298069806981,0,0
-144.719145652,-175.96377364607,42.102500250025,1352456.6908139,380.9277040091,2704861.0665908,47.302500250025,0,0
-144.7191455441,-175.9781277488,42.106930693069,1352456.6908139,380.9277040091,2704861.0665908,47.306930693069,0,0
-144.7191454362,-175.99248185153,42.111361136114,1352456.6908139,380.9277040091,2704861.0665908,47.311361136114,0,0
-144.7191453283,-176.00683595426,42.115791579158,1352456.6908139,380.9277040091,2704861.0665908,47.315791579158,0,0
-144.7191452204,-176.02119005699,42.120222022202,1352456.6908139,380.9277040091,2704861.0665908,47.320222022202,0,0
-144.7191451125,-176.03554415972,42.124652465247,1352456.6908139,380.9277040091,2704861.0665908,47.324652465247,0,0
-144.7191450046,-176.04989826245,42.129082908291,1352456.6908139,380.9277040091,2704861.0665908,47.329082908291,0,0
-144.7191448967,-176.06425236518,42.133513351335,1352456.6908139,380.9277040091,2704861.0665908,47.333513351335,0,0
-144.7191447888,-176.07860646791,42.137943794379,1352456.6908139,380.9277040091,2704861.0665908,47.337943794379,0,0
-144.7191446809,-176.09296057064,42.142374237424,1352456.6908139,380.9277040091,2704861.0665908,47.342374237424,0,0
-144.71914457301,-176.10731467337,42.146804680468,1352456.6908139,380.9277040091,2704861.0665908,47.346804680468,0,0
-144.71914446511,-176.1216687761,42.151235123512,1352456.6908139,380.9277040091,2704861.0665908,47.351235123512,0,0
-144.71914435721,-176.13602287883,42.155665566557,1352456.6908139,380.9277040091,2704861.0665908,47.355665566557,0,0
-144.71914424931,-176.15037698156,42.160096009601,1352456.6908139,380.9277040091,2704861.0665908,47.360096009601,0,0
-144.71914414141,-176.16473108429,42.164526452645,1352456.6908139,380.9277040091,2704861.0665908,47.364526452645,0,0
-144.71914403351,-176.17908518702,42.16895689569,1352456.6908139,380.9277040091,2704861.0665908,47.36895689569,0,0
-144.71914392561,-176.19343928975,42.173387338734,1352456.6908139,380.9277040091,2704861.0665908,47.373387338734,0,0
-144.71914381771,-176.20779339248,42.177817781778,1352456.6908139,380.9277040091,2704861.0665908,47.377817781778,0,0
-144.71914370981,-176.22214749521,42.182248224822,1352456.6908139,380.9277040091,2704861.0665908,47.382248224822,0,0
-144.71914360191,-176.23650159794,42.186678667867,1352456.6908139,380.9277040091,2704861.0665908,47.386678667867,0,0
-144.71914349401,-176.25085570067,42.191109110911,1352456.6908139,380.9277040091,2704861.0665908,47.391109110911,0,0
-144.71914338612,-176.2652098034,42.195539553955,1352456.6908139,380.9277040091,2704861.0665908,47.395539553955,0,0
-144.71914327822,-176.27956390613,42.199969997,1352456.6908139,380.9277040091,2704861.0665908,47.399969997,0,0
-144.71914317032,-176.29391800886,42.204400440044,1352456.6908139,380.9277040091,2704861.0665908,47.404400440044,0,0
-144.71914306242,-176.30827211159,42.208830883088,1352456.6908139,380.9277040091,2704861.0665908,47.408830883088,0,0
-144.71914295452,-176.32262621432,42.213261326133,1352456.6908139,380.9277040091,2704861.0665908,47.413261326133,0,0
-144.71914284662,-176.33698031705,42.217691769177,1352456.6908139,380.9277040091,2704861.0665908,47.417691769177,0,0
-144.71914273872,-176.35133441978,42.222122212221,1352456.6908139,380.9277040091,2704861.0665908,47.422122212221,0,0
-144.71914263082,-176.36568852251,42.226552655266,1352456.6908139,380.9277040091,2704861.0665908,47.426552655266,0,0
-144.71914252292,-176.38004262524,42.23098309831,1352456.6908139,380.9277040091,2704861.0665908,47.43098309831,0,0
-144.71914241502,-176.39439672797,42.235413541354,1352456.6908139,380.9277040091,2704861.0665908,47.435413541354,0,0
-144.71914230712,-176.4087508307,42.239843984398,1352456.6908139,380.9277040091,2704861.0665908,47.439843984398,0,0
-144.71914219923,-176.42310493343,42.244274427443,1352456.6908139,380.9277040091,2704861.0665908,47.444274427443,0,0
-144.71914209133,-176.43745903616,42.248704870487,1352456.6908139,380.9277040091,2704861.0665908,47.448704870487,0,0
-144.71914198343,-176.45181313889,42.253135313531,1352456.6908139,380.9277040091,2704861.0665908,47.453135313531,0,0
-144.71914187553,-176.46616724162,42.257565756576,1352456.6908139,380.9277040091,2704861.0665908,47.457565756576,0,0
-144.71914176763,-176.48052134435,42.26199619962,1352456.6908139,380.9277040091,2704861.0665908,47.46199619962,0,0
-144.71914165973,-176.49487544708,42.266426642664,1352456.6908139,380.9277040091,2704861.0665908,47.466426642664,0,0
-144.71914155183,-176.50922954981,42.270857085709,1352456.6908139,380.9277040091,2704861.0665908,47.470857085709,0,0
-144.71914144393,-176.52358365254,42.275287528753,1352456.6908139,380.9277040091,2704861.0665908,47.475287528753,0,0
-144.71914133603,-176.53793775527,42.279717971797,1352456.6908139,380.9277040091,2704861.0665908,47.479717971797,0,0
-144.71914122813,-176.552291858,42.284148414841,1352456.6908139,380.9277040091,2704861.0665908,47.484148414841,0,0
-144.71914112023,-176.56664596073,42.288578857886,1352456.6908139,380.9277040091,2704861.0665908,47.488578857886,0,0
-144.71914101234,-176.58100006346,42.29300930093,1352456.6908139,380.9277040091,2704861.0665908,47.49300930093,0,0
-144.71914090444,-176.59535416619,42.297439743974,1352456.6908139,380.9277040091,2704861.0665908,47.497439743974,0,0
-144.71914079654,-176.60970826892,42.301870187019,1352456.6908139,380.9277040091,2704861.0665908,47.501870187019,0,0
-144.71914068864,-176.62406237165,42.306300630063,1352456.6908139,380.9277040091,2704861.0665908,47.506300630063,0,0
-144.71914058074,-176.63841647438,42.310731073107,1352456.6908139,380.9277040091,2704861.0665908,47.510731073107,0,0
-144.71914047284,-176.65277057711,42.315161516152,1352456.6908139,380.9277040091,2704861.0665908,47.515161516152,0,0
-144.71914036494,-176.66712467984,42.319591959196,1352456.6908139,380.9277040091,2704861.0665908,47.519591959196,0,0
-144.71914025704,-176.68147878257,42.32402240224,1352456.6908139,380.9277040091,2704861.0665908,47.52402240224,0,0
-144.71914014914,-176.6958328853,42.328452845285,1352456.6908139,380.9277040091,2704861.0665908,47.528452845285,0,0
-144.71914004124,-176.71018698803,42.332883288329,1352456.6908139,380.9277040091,2704861.0665908,47.532883288329,0,0
-144.71913993334,-176.72454109076,42.337313731373,1352456.6908139,380.9277040091,2704861.0665908,47.537313731373,0,0
-144.71913982545,-176.73889519349,42.341744174417,1352456.6908139,380.9277040091,2704861.0665908,47.541744174417,0,0
-144.71913971755,-176.75324929622,42.346174617462,1352456.6908139,380.9277040091,2704861.0665908,47.546174617462,0,0
-144.71913960965,-176.76760339895,42.350605060506,1352456.6908139,380.9277040091,2704861.0665908,47.550605060506,0,0
-144.71913950175,-176.78195750168,42.35503550355,1352456.6908139,380.9277040091,2704861.0665908,47.55503550355,0,0
-144.71913939385,-176.79631160441,42.359465946595,1352456.6908139,380.9277040091,2704861.0665908,47.559465946595,0,0
-144.71913928595,-176.81066570714,42.363896389639,1352456.6908139,380.9277040091,2704861.0665908,47.563896389639,0,0
-144.71913917805,-176.82501980987,42.368326832683,1352456.6908139,380.9277040091,2704861.0665908,47.568326832683,0,0
-144.71913907015,-176.8393739126,42.372757275728,1352456.6908139,380.9277040091,2704861.0665908,47.572757275728,0,0
-144.71913896225,-176.85372801533,42.377187718772,1352456.6908139,380.9277040091,2704861.0665908,47.577187718772,0,0
-144.71913885435,-176.86808211806,42.381618161816,1352456.6908139,380.9277040091,2704861.0665908,47.581618161816,0,0
-144.71913874645,-176.88243622079,42.38604860486,1352456.6908139,380.9277040091,2704861.0665908,47.58604860486,0,0
-144.71913863856,-176.89679032352,42.390479047905,1352456.6908139,380.9277040091,2704861.0665908,47.590479047905,0,0
-144.71913853066,-176.91114442625,42.394909490949,1352456.6908139,380.9277040091,2704861.0665908,47.594909490949,0,0
-144.71913842276,-176.92549852898,42.399339933993,1352456.6908139,380.9277040091,2704861.0665908,47.599339933993,0,0
-144.71913831486,-176.93985263171,42.403770377038,1352456.6908139,380.9277040091,2704861.0665908,47.603770377038,0,0
-144.71913820696,-176.95420673444,42.408200820082,1352456.6908139,380.9277040091,2704861.0665908,47.608200820082,0,0
-144.71913809906,-176.96856083717,42.412631263126,1352456.6908139,380.9277040091,2704861.0665908,47.612631263126,0,0
-144.71913799116,-176.9829149399,42.417061706171,1352456.6908139,380.9277040091,2704861.0665908,47.617061706171,0,0
-144.71913788326,-176.99726904263,42.421492149215,1352456.6908139,380.9277040091,2704861.0665908,47.621492149215,0,0
-144.71913777536,-177.01162314536,42.425922592259,1352456.6908139,380.9277040091,2704861.0665908,47.625922592259,0,0
-144.71913766757,-177.02597724812,42.430353035304,1349854.8453491,81.484088150334,2703957.4397883,47.630353035304,0,0
-144.71913755985,-177.04033135091,42.434783478348,1349854.8453491,81.484088150334,2703957.4397883,47.634783478348,0,0
-144.71913745214,-177.05468545369,42.439213921392,1349854.8453491,81.484088150334,2703957.4397883,47.639213921392,0,0
-144.71913734442,-177.06903955647,42.443644364436,1349854.8453491,81.484088150334,2703957.4397883,47.643644364436,0,0
-144.7191372367,-177.08339365926,42.448074807481,1349854.8453491,81.484088150334,2703957.4397883,47.648074807481,0,0
-144.71913712899,-177.09774776204,42.452505250525,1349854.8453491,81.484088150334,2703957.4397883,47.652505250525,0,0
-144.71913702127,-177.11210186483,42.456935693569,1349854.8453491,81.484088150334,2703957.4397883,47.656935693569,0,0
-144.71913691356,-177.12645596761,42.461366136614,1349854.8453491,81.484088150334,2703957.4397883,47.661366136614,0,0
-144.71913680584,-177.14081007039,42.465796579658,1349854.8453491,81.484088150334,2703957.4397883,47.665796579658,0,0
-144.71913669813,-177.15516417318,42.470227022702,1349854.8453491,81.484088150334,2703957.4397883,47.670227022702,0,0
-144.71913659041,-177.16951827596,42.474657465747,1349854.8453491,81.484088150334,2703957.4397883,47.674657465747,0,0
-144.7191364827,-177.18387237875,42.479087908791,1349854.8453491,81.484088150334,2703957.4397883,47.679087908791,0,0
-144.71913637498,-177.19822648153,42.483518351835,1349854.8453491,81.484088150334,2703957.4397883,47.683518351835,0,0
-144.71913626727,-177.21258058431,42.487948794879,1349854.8453491,81.484088150334,2703957.4397883,47.687948794879,0,0
-144.71913615955,-177.2269346871,42.492379237924,1349854.8453491,81.484088150334,2703957.4397883,47.692379237924,0,0
-144.71913605184,-177.24128878988,42.496809680968,1349854.8453491,81.484088150334,2703957.4397883,47.696809680968,0,0
-144.71913594412,-177.25564289267,42.501240124012,1349854.8453491,81.484088150334,2703957.4397883,47.701240124012,0,0
-144.71913583641,-177.26999699545,42.505670567057,1349854.8453491,81.484088150334,2703957.4397883,47.705670567057,0,0
-144.71913572869,-177.28435109823,42.510101010101,1349854.8453491,81.484088150334,2703957.4397883,47.710101010101,0,0
-144.71913562097,-177.29870520102,42.514531453145,1349854.8453491,81.484088150334,2703957.4397883,47.714531453145,0,0
-144.71913551326,-177.3130593038,42.51896189619,1349854.8453491,81.484088150334,2703957.4397883,47.71896189619,0,0
-144.71913540554,-177.32741340659,42.523392339234,1349854.8453491,81.484088150334,2703957.4397883,47.723392339234,0,0
-144.71913529783,-177.34176750937,42.527822782278,1349854.8453491,81.484088150334,2703957.4397883,47.727822782278,0,0
-144.71913519011,-177.35612161215,42.532253225323,1349854.8453491,81.484088150334,2703957.4397883,47.732253225323,0,0
-144.7191350824,-177.37047571494,42.536683668367,1349854.8453491,81.484088150334,2703957.4397883,47.736683668367,0,0
-144.71913497468,-177.38482981772,42.541114111411,1349854.8453491,81.484088150334,2703957.4397883,47.741114111411,0,0
-144.71913486697,-177.39918392051,42.545544554455,1349854.8453491,81.484088150334,2703957.4397883,47.745544554455,0,0
-144.71913475925,-177.41353802329,42.5499749975,1349854.8453491,81.484088150334,2703957.4397883,47.7499749975,0,0
-144.71913465154,-177.42789212607,42.554405440544,1349854.8453491,81.484088150334,2703957.4397883,47.754405440544,0,0
-144.71913454382,-177.44224622886,42.558835883588,1349854.8453491,81.484088150334,2703957.4397883,47.758835883588,0,0
-144.71913443611,-177.45660033164,42.563266326633,1349854.8453491,81.484088150334,2703957.4397883,47.763266326633,0,0
-144.71913432839,-177.47095443443,42.567696769677,1349854.8453491,81.484088150334,2703957.4397883,47.767696769677,0,0
-144.71913422068,-177.48530853721,42.572127212721,1349854.8453491,81.484088150334,2703957.4397883,47.772127212721,0,0
-144.71913411296,-177.49966263999,42.576557655766,1349854.8453491,81.484088150334,2703957.4397883,47.776557655766,0,0
-144.71913400524,-177.51401674278,42.58098809881,1349854.8453491,81.484088150334,2703957.4397883,47.78098809881,0,0
-144.71913389753,-177.52837084556,42.585418541854,1349854.8453491,81.484088150334,2703957.4397883,47.785418541854,0,0
-144.71913378981,-177.54272494835,42.589848984898,1349854.8453491,81.484088150334,2703957.4397883,47.789848984898,0,0
-144.7191336821,-177.55707905113,42.594279427943,1349854.8453491,81.484088150334,2703957.4397883,47.794279427943,0,0
-144.71913357438,-177.57143315391,42.598709870987,1349854.8453491,81.484088150334,2703957.4397883,47.798709870987,0,0
-144.71913346667,-177.5857872567,42.603140314031,1349854.8453491,81.484088150334,2703957.4397883,47.803140314031,0,0
-144.71913335895,-177.60014135948,42.607570757076,1349854.8453491,81.484088150334,2703957.4397883,47.807570757076,0,0
-144.71913325124,-177.61449546227,42.61200120012,1349854.8453491,81.484088150334,2703957.4397883,47.81200120012,0,0
-144.71913314352,-177.62884956505,42.616431643164,1349854.8453491,81.484088150334,2703957.4397883,47.816431643164,0,0
-144.71913303581,-177.64320366783,42.620862086209,1349854.8453491,81.484088150334,2703957.4397883,47.820862086209,0,0
-144.71913292809,-177.65755777062,42.625292529253,1349854.8453491,81.484088150334,2703957.4397883,47.825292529253,0,0
-144.71913282038,-177.6719118734,42.629722972297,1349854.8453491,81.484088150334,2703957.4397883,47.829722972297,0,0
-144.71913271266,-177.68626597619,42.634153415342,1349854.8453491,81.484088150334,2703957.4397883,47.834153415342,0,0
-144.71913260495,-177.70062007897,42.638583858386,1349854.8453491,81.484088150334,2703957.4397883,47.838583858386,0,0
-144.71913249723,-177.71497418175,42.64301430143,1349854.8453491,81.484088150334,2703957.4397883,47.84301430143,0,0
-144.71913238951,-177.72932828454,42.647444744474,1349854.8453491,81.484088150334,2703957.4397883,47.847444744474,0,0
-144.7191322818,-177.74368238732,42.651875187519,1349854.8453491,81.484088150334,2703957.4397883,47.851875187519,0,0
-144.71913217408,-177.75803649011,42.656305630563,1349854.8453491,81.484088150334,2703957.4397883,47.856305630563,0,0
-144.71913206637,-177.77239059289,42.660736073607,1349854.8453491,81.484088150334,2703957.4397883,47.860736073607,0,0
-144.71913195865,-177.78674469567,42.665166516652,1349854.8453491,81.484088150334,2703957.4397883,47.865166516652,0,0
-144.71913185094,-177.80109879846,42.669596959696,1349854.8453491,81.484088150334,2703957.4397883,47.869596959696,0,0
-144.71913174322,-177.81545290124,42.67402740274,1349854.8453491,81.484088150334,2703957.4397883,47.87402740274,0,0
-144.71913163551,-177.82980700403,42.678457845785,1349854.8453491,81.484088150334,2703957.4397883,47.878457845785,0,0
-144.71913152779,-177.84416110681,42.682888288829,1349854.8453491,81.484088150334,2703957.4397883,47.882888288829,0,0
-144.71913142008,-177.85851520959,42.687318731873,1349854.8453491,81.484088150334,2703957.4397883,47.887318731873,0,0
-144.71913131236,-177.87286931238,42.691749174917,1349854.8453491,81.484088150334,2703957.4397883,47.891749174917,0,0
-144.71913120465,-177.88722341516,42.696179617962,1349854.8453491,81.484088150334,2703957.4397883,47.896179617962,0,0
-144.71913109693,-177.90157751795,42.700610061006,1349854.8453491,81.484088150334,2703957.4397883,47.900610061006,0,0
-144.71913098922,-177.91593162073,42.70504050405,1349854.8453491,81.484088150334,2703957.4397883,47.90504050405,0,0
-144.7191308815,-177.93028572351,42.709470947095,1349854.8453491,81.484088150334,2703957.4397883,47.909470947095,0,0
-144.71913077378,-177.9446398263,42.713901390139,1349854.8453491,81.484088150334,2703957.4397883,47.913901390139,0,0
-144.71913066607,-177.95899392908,42.718331833183,1349854.8453491,81.484088150334,2703957.4397883,47.918331833183,0,0
-144.71913055835,-177.97334803187,42.722762276228,1349854.8453491,81.484088150334,2703957.4397883,47.922762276228,0,0
-144.71913045064,-177.98770213465,42.727192719272,1349854.8453491,81.484088150334,2703957.4397883,47.927192719272,0,0
-144.71913034292,-178.00205623743,42.731623162316,1349854.8453491,81.484088150334,2703957.4397883,47.931623162316,0,0
-144.71913023521,-178.01641034022,42.736053605361,1349854.8453491,81.484088150334,2703957.4397883,47.936053605361,0,0
-144.71913012749,-178.030764443,42.740484048405,1349854.8453491,81.484088150334,2703957.4397883,47.940484048405,0,0
-144.71913001978,-178.04511854579,42.744914491449,1349854.8453491,81.484088150334,2703957.4397883,47.944914491449,0,0
-144.71912991206,-178.05947264857,42.749344934493,1349854.8453491,81.484088150334,2703957.4397883,47.949344934493,0,0
-144.71912980435,-178.07382675135,42.753775377538,1349854.8453491,81.484088150334,2703957.4397883,47.953775377538,0,0
-144.71912969663,-178.08818085414,42.758205820582,1349854.8453491,81.484088150334,2703957.4397883,47.958205820582,0,0
-144.71912958892,-178.10253495692,42.762636263626,1349854.8453491,81.484088150334,2703957.4397883,47.962636263626,0,0
-144.7191294812,-178.11688905971,42.767066706671,1349854.8453491,81.484088150334,2703957.4397883,47.967066706671,0,0
-144.71912937349,-178.13124316249,42.771497149715,1349854.8453491,81.484088150334,2703957.4397883,47.971497149715,0,0
-144.71912926577,-178.14559726527,42.775927592759,1349854.8453491,81.484088150334,2703957.4397883,47.975927592759,0,0
-144.71912915805,-178.15995136806,42.780358035804,1349854.8453491,81.484088150334,2703957.4397883,47.980358035804,0,0
-144.71912905034,-178.17430547084,42.784788478848,1349854.8453491,81.484088150334,2703957.4397883,47.984788478848,0,0
-144.71912894262,-178.18865957362,42.789218921892,1349854.8453491,81.484088150334,2703957.4397883,47.989218921892,0,0
-144.71912883491,-178.20301367641,42.793649364936,1349854.8453491,81.484088150334,2703957.4397883,47.993649364936,0,0
-144.71912872719,-178.21736777919,42.798079807981,1349854.8453491,81.484088150334,2703957.4397883,47.998079807981,0,0
-144.71912861948,-178.23172188198,42.802510251025,1349854.8453491,81.484088150334,2703957.4397883,48.002510251025,0,0
-144.71912851176,-178.24607598476,42.806940694069,1349854.8453491,81.484088150334,2703957.4397883,48.006940694069,0,0
-144.71912840405,-178.26043008754,42.811371137114,1349854.8453491,81.484088150334,2703957.4397883,48.011371137114,0,0
-144.71912829633,-178.27478419033,42.815801580158,1349854.8453491,81.484088150334,2703957.4397883,48.015801580158,0,0
-144.71912818862,-178.28913829311,42.820232023202,1349854.8453491,81.484088150334,2703957.4397883,48.020232023202,0,0
-144.7191280809,-178.3034923959,42.824662466247,1349854.8453491,81.484088150334,2703957.4397883,48.024662466247,0,0
-144.71912797319,-178.31784649868,42.829092909291,1349854.8453491,81.484088150334,2703957.4397883,48.029092909291,0,0
-144.71912786547,-178.33220060146,42.833523352335,1349854.8453491,81.484088150334,2703957.4397883,48.033523352335,0,0
-144.71912775776,-178.34655470425,42.83795379538,1349854.8453491,81.484088150334,2703957.4397883,48.03795379538,0,0
-144.71912765004,-178.36090880703,42.842384238424,1349854.8453491,81.484088150334,2703957.4397883,48.042384238424,0,0
-144.71912754232,-178.37526290982,42.846814681468,1349854.8453491,81.484088150334,2703957.4397883,48.046814681468,0,0
-144.71912743461,-178.3896170126,42.851245124512,1349854.8453491,81.484088150334,2703957.4397883,48.051245124512,0,0
-144.71912732689,-178.40397111538,42.855675567557,1349854.8453491,81.484088150334,2703957.4397883,48.055675567557,0,0
-144.71912721918,-178.41832521817,42.860106010601,1349854.8453491,81.484088150334,2703957.4397883,48.060106010601,0,0
-144.71912711146,-178.43267932095,42.864536453645,1349854.8453491,81.484088150334,2703957.4397883,48.064536453645,0,0
-144.71912700375,-178.44703342374,42.86896689669,1349854.8453491,81.484088150334,2703957.4397883,48.06896689669,0,0
-144.71912689603,-178.46138752652,42.873397339734,1349854.8453491,81.484088150334,2703957.4397883,48.073397339734,0,0
-144.71912678832,-178.4757416293,42.877827782778,1349854.8453491,81.484088150334,2703957.4397883,48.077827782778,0,0
-144.7191266806,-178.49009573209,42.882258225823,1349854.8453491,81.484088150334,2703957.4397883,48.082258225823,0,0
-144.71912657289,-178.50444983487,42.886688668867,1349854.8453491,81.484088150334,2703957.4397883,48.086688668867,0,0
-144.71912646517,-178.51880393766,42.891119111911,1349854.8453491,81.484088150334,2703957.4397883,48.091119111911,0,0
-144.71912635746,-178.53315804044,42.895549554955,1349854.8453491,81.484088150334,2703957.4397883,48.095549554955,0,0
-144.71912624974,-178.54751214322,42.899979998,1349854.8453491,81.484088150334,2703957.4397883,48.099979998,0,0
-144.71912614203,-178.56186624601,42.904410441044,1349854.8453491,81.484088150334,2703957.4397883,48.104410441044,0,0
-144.71912603431,-178.57622034879,42.908840884088,1349854.8453491,81.484088150334,2703957.4397883,48.108840884088,0,0
-144.71912592659,-178.59057445158,42.913271327133,1349854.8453491,81.484088150334,2703957.4397883,48.113271327133,0,0
-144.71912581888,-178.60492855436,42.917701770177,1349854.8453491,81.484088150334,2703957.4397883,48.117701770177,0,0
-144.71912571116,-178.61928265714,42.922132213221,1349854.8453491,81.484088150334,2703957.4397883,48.122132213221,0,0
-144.71912560345,-178.63363675993,42.926562656266,1349854.8453491,81.484088150334,2703957.4397883,48.126562656266,0,0
-144.71912549573,-178.64799086271,42.93099309931,1349854.8453491,81.484088150334,2703957.4397883,48.13099309931,0,0
-144.71912538802,-178.6623449655,42.935423542354,1349854.8453491,81.484088150334,2703957.4397883,48.135423542354,0,0
-144.7191252803,-178.67669906828,42.939853985399,1349854.8453491,81.484088150334,2703957.4397883,48.139853985399,0,0
-144.71912517259,-178.69105317106,42.944284428443,1349854.8453491,81.484088150334,2703957.4397883,48.144284428443,0,0
-144.71912506487,-178.70540727385,42.948714871487,1349854.8453491,81.484088150334,2703957.4397883,48.148714871487,0,0
-144.71912495716,-178.71976137663,42.953145314531,1349854.8453491,81.484088150334,2703957.4397883,48.153145314531,0,0
-144.71912484944,-178.73411547942,42.957575757576,1349854.8453491,81.484088150334,2703957.4397883,48.157575757576,0,0
-144.71912474173,-178.7484695822,42.96200620062,1349854.8453491,81.484088150334,2703957.4397883,48.16200620062,0,0
-144.71912463401,-178.76282368498,42.966436643664,1349854.8453491,81.484088150334,2703957.4397883,48.166436643664,0,0
-144.7191245263,-178.77717778777,42.970867086709,1349854.8453491,81.484088150334,2703957.4397883,48.170867086709,0,0
-144.71912441858,-178.79153189055,42.975297529753,1349854.8453491,81.484088150334,2703957.4397883,48.175297529753,0,0
-144.71912431086,-178.80588599334,42.979727972797,1349854.8453491,81.484088150334,2703957.4397883,48.179727972797,0,0
-144.71912420315,-178.82024009612,42.984158415842,1349854.8453491,81.484088150334,2703957.4397883,48.184158415842,0,0
-144.71912409543,-178.8345941989,42.988588858886,1349854.8453491,81.484088150334,2703957.4397883,48.188588858886,0,0
-144.71912398772,-178.84894830169,42.99301930193,1349854.8453491,81.484088150334,2703957.4397883,48.19301930193,0,0
-144.71912388,-178.86330240447,42.997449744974,1349854.8453491,81.484088150334,2703957.4397883,48.197449744974,0,0
-144.71912377229,-178.87765650726,43.001880188019,1349854.8453491,81.484088150334,2703957.4397883,48.201880188019,0,0
-144.71912366457,-178.89201061004,43.006310631063,1349854.8453491,81.484088150334,2703957.4397883,48.206310631063,0,0
-144.71912355686,-178.90636471282,43.010741074107,1349854.8453491,81.484088150334,2703957.4397883,48.210741074107,0,0
-144.71912344914,-178.92071881561,43.015171517152,1349854.8453491,81.484088150334,2703957.4397883,48.215171517152,0,0
-144.71912334143,-178.93507291839,43.019601960196,1349854.8453491,81.484088150334,2703957.4397883,48.219601960196,0,0
-144.71912323371,-178.94942702118,43.02403240324,1349854.8453491,81.484088150334,2703957.4397883,48.22403240324,0,0
-144.719123126,-178.96378112396,43.028462846285,1349854.8453491,81.484088150334,2703957.4397883,48.228462846285,0,0
-144.71912301828,-178.97813522674,43.032893289329,1349854.8453491,81.484088150334,2703957.4397883,48.232893289329,0,0
-144.71912291057,-178.99248932953,43.037323732373,1349854.8453491,81.484088150334,2703957.4397883,48.237323732373,0,0
-144.71912280285,-179.00684343231,43.041754175418,1349854.8453491,81.484088150334,2703957.4397883,48.241754175418,0,0
-144.71912269513,-179.0211975351,43.046184618462,1349854.8453491,81.484088150334,2703957.4397883,48.246184618462,0,0
-144.71912258742,-179.03555163788,43.050615061506,1349854.8453491,81.484088150334,2703957.4397883,48.250615061506,0,0
-144.7191224797,-179.04990574066,43.05504550455,1349854.8453491,81.484088150334,2703957.4397883,48.25504550455,0,0
-144.71912237199,-179.06425984345,43.059475947595,1349854.8453491,81.484088150334,2703957.4397883,48.259475947595,0,0
-144.71912226427,-179.07861394623,43.063906390639,1349854.8453491,81.484088150334,2703957.4397883,48.263906390639,0,0
-144.71912215656,-179.09296804902,43.068336833683,1349854.8453491,81.484088150334,2703957.4397883,48.268336833683,0,0
-144.71912204884,-179.1073221518,43.072767276728,1349854.8453491,81.484088150334,2703957.4397883,48.272767276728,0,0
-144.71912194113,-179.12167625458,43.077197719772,1349854.8453491,81.484088150334,2703957.4397883,48.277197719772,0,0
-144.71912183341,-179.13603035737,43.081628162816,1349854.8453491,81.484088150334,2703957.4397883,48.281628162816,0,0
-144.7191217257,-179.15038446015,43.086058605861,1349854.8453491,81.484088150334,2703957.4397883,48.286058605861,0,0
-144.71912161798,-179.16473856294,43.090489048905,1349854.8453491,81.484088150334,2703957.4397883,48.290489048905,0,0
-144.71912151027,-179.17909266572,43.094919491949,1349854.8453491,81.484088150334,2703957.4397883,48.294919491949,0,0
-144.71912140255,-179.1934467685,43.099349934993,1349854.8453491,81.484088150334,2703957.4397883,48.299349934994,0,0
-144.71912129484,-179.20780087129,43.103780378038,1349854.8453491,81.484088150334,2703957.4397883,48.303780378038,0,0
-144.71912118712,-179.22215497407,43.108210821082,1349854.8453491,81.484088150334,2703957.4397883,48.308210821082,0,0
-144.7191210794,-179.23650907686,43.112641264126,1349854.8453491,81.484088150334,2703957.4397883,48.312641264126,0,0
-144.71912097169,-179.25086317964,43.117071707171,1349854.8453491,81.484088150334,2703957.4397883,48.317071707171,0,0
-144.71912086397,-179.26521728242,43.121502150215,1349854.8453491,81.484088150334,2703957.4397883,48.321502150215,0,0
-144.71912075626,-179.27957138521,43.125932593259,1349854.8453491,81.484088150334,2703957.4397883,48.325932593259,0,0
-144.71912064854,-179.29392548799,43.130363036304,1349854.8453491,81.484088150334,2703957.4397883,48.330363036304,0,0
-144.71912054083,-179.30827959077,43.134793479348,1349854.8453491,81.484088150334,2703957.4397883,48.334793479348,0,0
-144.71912043311,-179.32263369356,43.139223922392,1349854.8453491,81.484088150334,2703957.4397883,48.339223922392,0,0
-144.7191203254,-179.33698779634,43.143654365437,1349854.8453491,81.484088150334,2703957.4397883,48.343654365437,0,0
-144.71912021768,-179.35134189913,43.148084808481,1349854.8453491,81.484088150334,2703957.4397883,48.348084808481,0,0
-144.71912010997,-179.36569600191,43.152515251525,1349854.8453491,81.484088150334,2703957.4397883,48.352515251525,0,0
-144.71912000225,-179.38005010469,43.156945694569,1349854.8453491,81.484088150334,2703957.4397883,48.356945694569,0,0
-144.71911989454,-179.39440420748,43.161376137614,1349854.8453491,81.484088150334,2703957.4397883,48.361376137614,0,0
-144.71911978682,-179.40875831026,43.165806580658,1349854.8453491,81.484088150334,2703957.4397883,48.365806580658,0,0
-144.71911967911,-179.42311241305,43.170237023702,1349854.8453491,81.484088150334,2703957.4397883,48.370237023702,0,0
-144.71911957139,-179.43746651583,43.174667466747,1349854.8453491,81.484088150334,2703957.4397883,48.374667466747,0,0
-144.71911946367,-179.45182061861,43.179097909791,1349854.8453491,81.484088150334,2703957.4397883,48.379097909791,0,0
-144.71911935596,-179.4661747214,43.183528352835,1349854.8453491,81.484088150334,2703957.4397883,48.383528352835,0,0
-144.71911924824,-179.48052882418,43.18795879588,1349854.8453491,81.484088150334,2703957.4397883,48.38795879588,0,0
-144.71911914053,-179.49488292697,43.192389238924,1349854.8453491,81.484088150334,2703957.4397883,48.392389238924,0,0
-144.71911903281,-179.50923702975,43.196819681968,1349854.8453491,81.484088150334,2703957.4397883,48.396819681968,0,0
-144.7191189251,-179.52359113253,43.201250125012,1349854.8453491,81.484088150334,2703957.4397883,48.401250125013,0,0
-144.71911881738,-179.53794523532,43.205680568057,1349854.8453491,81.484088150334,2703957.4397883,48.405680568057,0,0
-144.71911870967,-179.5522993381,43.210111011101,1349854.8453491,81.484088150334,2703957.4397883,48.410111011101,0,0
-144.71911860195,-179.56665344089,43.214541454145,1349854.8453491,81.484088150334,2703957.4397883,48.414541454145,0,0
-144.71911849424,-179.58100754367,43.21897189719,1349854.8453491,81.484088150334,2703957.4397883,48.41897189719,0,0
-144.71911838652,-179.59536164645,43.223402340234,1349854.8453491,81.484088150334,2703957.4397883,48.423402340234,0,0
-144.71911827881,-179.60971574924,43.227832783278,1349854.8453491,81.484088150334,2703957.4397883,48.427832783278,0,0
-144.71911817109,-179.62406985202,43.232263226323,1349854.8453491,81.484088150334,2703957.4397883,48.432263226323,0,0
-144.71911806338,-179.63842395481,43.236693669367,1349854.8453491,81.484088150334,2703957.4397883,48.436693669367,0,0
-144.71911795566,-179.65277805759,43.241124112411,1349854.8453491,81.484088150334,2703957.4397883,48.441124112411,0,0
-144.71911784794,-179.66713216037,43.245554555456,1349854.8453491,81.484088150334,2703957.4397883,48.445554555456,0,0
-144.71911774023,-179.68148626316,43.2499849985,1349854.8453491,81.484088150334,2703957.4397883,48.4499849985,0,0
-144.71911763251,-179.69584036594,43.254415441544,1349854.8453491,81.484088150334,2703957.4397883,48.454415441544,0,0
-144.7191175248,-179.71019446873,43.258845884588,1349854.8453491,81.484088150334,2703957.4397883,48.458845884588,0,0
-144.71911741708,-179.72454857151,43.263276327633,1349854.8453491,81.484088150334,2703957.4397883,48.463276327633,0,0
-144.71911730937,-179.73890267429,43.267706770677,1349854.8453491,81.484088150334,2703957.4397883,48.467706770677,0,0
-144.71911720165,-179.75325677708,43.272137213721,1349854.8453491,81.484088150334,2703957.4397883,48.472137213721,0,0
-144.71911709394,-179.76761087986,43.276567656766,1349854.8453491,81.484088150334,2703957.4397883,48.476567656766,0,0
-144.71911698622,-179.78196498265,43.28099809981,1349854.8453491,81.484088150334,2703957.4397883,48.48099809981,0,0
-144.71911687851,-179.79631908543,43.285428542854,1349854.8453491,81.484088150334,2703957.4397883,48.485428542854,0,0
-144.71911677079,-179.81067318821,43.289858985899,1349854.8453491,81.484088150334,2703957.4397883,48.489858985899,0,0
-144.71911666308,-179.825027291,43.294289428943,1349854.8453491,81.484088150334,2703957.4397883,48.494289428943,0,0
-144.71911655536,-179.83938139378,43.298719871987,1349854.8453491,81.484088150334,2703957.4397883,48.498719871987,0,0
-144.71911644765,-179.85373549657,43.303150315032,1349854.8453491,81.484088150334,2703957.4397883,48.503150315032,0,0
-144.71911633993,-179.86808959935,43.307580758076,1349854.8453491,81.484088150334,2703957.4397883,48.507580758076,0,0
-144.71911623221,-179.88244370213,43.31201120112,1349854.8453491,81.484088150334,2703957.4397883,48.51201120112,0,0
-144.7191161245,-179.89679780492,43.316441644164,1349854.8453491,81.484088150334,2703957.4397883,48.516441644164,0,0
-144.71911601678,-179.9111519077,43.320872087209,1349854.8453491,81.484088150334,2703957.4397883,48.520872087209,0,0
-144.71911590907,-179.92550601049,43.325302530253,1349854.8453491,81.484088150334,2703957.4397883,48.525302530253,0,0
-144.71911580135,-179.93986011327,43.329732973297,1349854.8453491,81.484088150334,2703957.4397883,48.529732973297,0,0
-144.71911569364,-179.95421421605,43.334163416342,1349854.8453491,81.484088150334,2703957.4397883,48.534163416342,0,0
-144.71911558592,-179.96856831884,43.338593859386,1349854.8453491,81.484088150334,2703957.4397883,48.538593859386,0,0
-144.71911547821,-179.98292242162,43.34302430243,1349854.8453491,81.484088150334,2703957.4397883,48.54302430243,0,0
-144.71911537049,-179.99727652441,43.347454745475,1349854.8453491,81.484088150334,2703957.4397883,48.547454745475,0,0
-144.71911526278,-180.01163062719,43.351885188519,1349854.8453491,81.484088150334,2703957.4397883,48.551885188519,0,0
-144.71911515506,-180.02598472997,43.356315631563,1349854.8453491,81.484088150334,2703957.4397883,48.556315631563,0,0
-144.71911504735,-180.04033883276,43.360746074607,1349854.8453491,81.484088150334,2703957.4397883,48.560746074607,0,0
-144.71911493963,-180.05469293554,43.365176517652,1349854.8453491,81.484088150334,2703957.4397883,48.565176517652,0,0
-144.71911483192,-180.06904703833,43.369606960696,1349854.8453491,81.484088150334,2703957.4397883,48.569606960696,0,0
-144.7191147242,-180.08340114111,43.37403740374,1349854.8453491,81.484088150334,2703957.4397883,48.57403740374,0,0
-144.71911461648,-180.09775524389,43.378467846785,1349854.8453491,81.484088150334,2703957.4397883,48.578467846785,0,0
-144.71911450877,-180.11210934668,43.382898289829,1349854.8453491,81.484088150334,2703957.4397883,48.582898289829,0,0
-144.71911440105,-180.12646344946,43.387328732873,1349854.8453491,81.484088150334,2703957.4397883,48.587328732873,0,0
-144.71911429334,-180.14081755225,43.391759175918,1349854.8453491,81.484088150334,2703957.4397883,48.591759175918,0,0
-144.71911418562,-180.15517165503,43.396189618962,1349854.8453491,81.484088150334,2703957.4397883,48.596189618962,0,0
-144.71911407791,-180.16952575781,43.400620062006,1349854.8453491,81.484088150334,2703957.4397883,48.600620062006,0,0
-144.71911397019,-180.1838798606,43.405050505051,1349854.8453491,81.484088150334,2703957.4397883,48.605050505051,0,0
-144.71911386248,-180.19823396338,43.409480948095,1349854.8453491,81.484088150334,2703957.4397883,48.609480948095,0,0
-144.71911375476,-180.21258806617,43.413911391139,1349854.8453491,81.484088150334,2703957.4397883,48.613911391139,0,0
-144.71911364705,-180.22694216895,43.418341834183,1349854.8453491,81.484088150334,2703957.4397883,48.618341834183,0,0
-144.71911353933,-180.24129627173,43.422772277228,1349854.8453491,81.484088150334,2703957.4397883,48.622772277228,0,0
-144.71911343162,-180.25565037452,43.427202720272,1349854.8453491,81.484088150334,2703957.4397883,48.627202720272,0,0
-144.7191133239,-180.2700044773,43.431633163316,1349854.8453491,81.484088150334,2703957.4397883,48.631633163316,0,0
-144.71911321619,-180.28435858009,43.436063606361,1349854.8453491,81.484088150334,2703957.4397883,48.636063606361,0,0
-144.71911310847,-180.29871268287,43.440494049405,1349854.8453491,81.484088150334,2703957.4397883,48.640494049405,0,0
-144.71911300075,-180.31306678565,43.444924492449,1349854.8453491,81.484088150334,2703957.4397883,48.644924492449,0,0
-144.71911289304,-180.32742088844,43.449354935494,1349854.8453491,81.484088150334,2703957.4397883,48.649354935494,0,0
-144.71911278532,-180.34177499122,43.453785378538,1349854.8453491,81.484088150334,2703957.4397883,48.653785378538,0,0
-144.71911267761,-180.356129094,43.458215821582,1349854.8453491,81.484088150334,2703957.4397883,48.658215821582,0,0
-144.71911256989,-180.37048319679,43.462646264626,1349854.8453491,81.484088150334,2703957.4397883,48.662646264626,0,0
-144.71911246218,-180.38483729957,43.467076707671,1349854.8453491,81.484088150334,2703957.4397883,48.667076707671,0,0
-144.71911235446,-180.39919140236,43.471507150715,1349854.8453491,81.484088150334,2703957.4397883,48.671507150715,0,0
-144.71911224675,-180.41354550514,43.475937593759,1349854.8453491,81.484088150334,2703957.4397883,48.675937593759,0,0
-144.71911213903,-180.42789960792,43.480368036804,1349854.8453491,81.484088150334,2703957.4397883,48.680368036804,0,0
-144.71911203132,-180.44225371071,43.484798479848,1349854.8453491,81.484088150334,2703957.4397883,48.684798479848,0,0
-144.7191119236,-180.45660781349,43.489228922892,1349854.8453491,81.484088150334,2703957.4397883,48.689228922892,0,0
-144.71911181589,-180.47096191628,43.493659365937,1349854.8453491,81.484088150334,2703957.4397883,48.693659365937,0,0
-144.71911170817,-180.48531601906,43.498089808981,1349854.8453491,81.484088150334,2703957.4397883,48.698089808981,0,0
-144.71911160046,-180.49967012184,43.502520252025,1349854.8453491,81.484088150334,2703957.4397883,48.702520252025,0,0
-144.71911149274,-180.51402422463,43.50695069507,1349854.8453491,81.484088150334,2703957.4397883,48.70695069507,0,0
-144.71911138502,-180.52837832741,43.511381138114,1349854.8453491,81.484088150334,2703957.4397883,48.711381138114,0,0
-144.71911127731,-180.5427324302,43.515811581158,1349854.8453491,81.484088150334,2703957.4397883,48.715811581158,0,0
-144.71911116959,-180.55708653298,43.520242024202,1349854.8453491,81.484088150334,2703957.4397883,48.720242024202,0,0
-144.71911106188,-180.57144063576,43.524672467247,1349854.8453491,81.484088150334,2703957.4397883,48.724672467247,0,0
-144.71911095416,-180.58579473855,43.529102910291,1349854.8453491,81.484088150334,2703957.4397883,48.729102910291,0,0
-144.71911084645,-180.60014884133,43.533533353335,1349854.8453491,81.484088150334,2703957.4397883,48.733533353335,0,0
-144.71911073873,-180.61450294412,43.53796379638,1349854.8453491,81.484088150334,2703957.4397883,48.73796379638,0,0
-144.71911063102,-180.6288570469,43.542394239424,1349854.8453491,81.484088150334,2703957.4397883,48.742394239424,0,0
-144.7191105233,-180.64321114968,43.546824682468,1349854.8453491,81.484088150334,2703957.4397883,48.746824682468,0,0
-144.71911041559,-180.65756525247,43.551255125513,1349854.8453491,81.484088150334,2703957.4397883,48.751255125513,0,0
-144.71911030787,-180.67191935525,43.555685568557,1349854.8453491,81.484088150334,2703957.4397883,48.755685568557,0,0
-144.71911020016,-180.68627345804,43.560116011601,1349854.8453491,81.484088150334,2703957.4397883,48.760116011601,0,0
-144.71911009244,-180.70062756082,43.564546454645,1349854.8453491,81.484088150334,2703957.4397883,48.764546454645,0,0
-144.71910998473,-180.7149816636,43.56897689769,1349854.8453491,81.484088150334,2703957.4397883,48.76897689769,0,0
-144.71910987701,-180.72933576639,43.573407340734,1349854.8453491,81.484088150334,2703957.4397883,48.773407340734,0,0
-144.71910976929,-180.74368986917,43.577837783778,1349854.8453491,81.484088150334,2703957.4397883,48.777837783778,0,0
-144.71910966158,-180.75804397196,43.582268226823,1349854.8453491,81.484088150334,2703957.4397883,48.782268226823,0,0
-144.71910955386,-180.77239807474,43.586698669867,1349854.8453491,81.484088150334,2703957.4397883,48.786698669867,0,0
-144.71910944615,-180.78675217752,43.591129112911,1349854.8453491,81.484088150334,2703957.4397883,48.791129112911,0,0
-144.71910933843,-180.80110628031,43.595559555956,1349854.8453491,81.484088150334,2703957.4397883,48.795559555956,0,0
-144.71910923072,-180.81546038309,43.599989999,1349854.8453491,81.484088150334,2703957.4397883,48.799989999,0,0
-144.719109123,-180.82981448588,43.604420442044,1349854.8453491,81.484088150334,2703957.4397883,48.804420442044,0,0
-144.71910901529,-180.84416858866,43.608850885089,1349854.8453491,81.484088150334,2703957.4397883,48.808850885089,0,0
-144.71910890757,-180.85852269144,43.613281328133,1349854.8453491,81.484088150334,2703957.4397883,48.813281328133,0,0
-144.71910879986,-180.87287679423,43.617711771177,1349854.8453491,81.484088150334,2703957.4397883,48.817711771177,0,0
-144.71910869214,-180.88723089701,43.622142214221,1349854.8453491,81.484088150334,2703957.4397883,48.822142214221,0,0
-144.71910858443,-180.9015849998,43.626572657266,1349854.8453491,81.484088150334,2703957.4397883,48.826572657266,0,0
-144.71910847671,-180.91593910258,43.63100310031,1349854.8453491,81.484088150334,2703957.4397883,48.83100310031,0,0
-144.71910836899,-180.93029320536,43.635433543354,1349854.8453491,81.484088150334,2703957.4397883,48.835433543354,0,0
-144.71910826128,-180.94464730815,43.639863986399,1349854.8453491,81.484088150334,2703957.4397883,48.839863986399,0,0
-144.71910815356,-180.95900141093,43.644294429443,1349854.8453491,81.484088150334,2703957.4397883,48.844294429443,0,0
-144.71910804585,-180.97335551372,43.648724872487,1349854.8453491,81.484088150334,2703957.4397883,48.848724872487,0,0
-144.71910793813,-180.9877096165,43.653155315532,1349854.8453491,81.484088150334,2703957.4397883,48.853155315532,0,0
-144.71910783042,-181.00206371928,43.657585758576,1349854.8453491,81.484088150334,2703957.4397883,48.857585758576,0,0
-144.7191077227,-181.01641782207,43.66201620162,1349854.8453491,81.484088150334,2703957.4397883,48.86201620162,0,0
-144.71910761499,-181.03077192485,43.666446644664,1349854.8453491,81.484088150334,2703957.4397883,48.866446644664,0,0
-144.71910750727,-181.04512602764,43.670877087709,1349854.8453491,81.484088150334,2703957.4397883,48.870877087709,0,0
-144.71910739956,-181.05948013042,43.675307530753,1349854.8453491,81.484088150334,2703957.4397883,48.875307530753,0,0
-144.71910729184,-181.0738342332,43.679737973797,1349854.8453491,81.484088150334,2703957.4397883,48.879737973797,0,0
-144.71910718413,-181.08818833599,43.684168416842,1349854.8453491,81.484088150334,2703957.4397883,48.884168416842,0,0
-144.71910707641,-181.10254243877,43.688598859886,1349854.8453491,81.484088150334,2703957.4397883,48.888598859886,0,0
-144.7191069687,-181.11689654156,43.69302930293,1349854.8453491,81.484088150334,2703957.4397883,48.89302930293,0,0
-144.71910686098,-181.13125064434,43.697459745975,1349854.8453491,81.484088150334,2703957.4397883,48.897459745975,0,0
-144.71910675326,-181.14560474712,43.701890189019,1349854.8453491,81.484088150334,2703957.4397883,48.901890189019,0,0
-144.71910664555,-181.15995884991,43.706320632063,1349854.8453491,81.484088150334,2703957.4397883,48.906320632063,0,0
-144.71910653783,-181.17431295269,43.710751075108,1349854.8453491,81.484088150334,2703957.4397883,48.910751075108,0,0
-144.71910643012,-181.18866705548,43.715181518152,1349854.8453491,81.484088150334,2703957.4397883,48.915181518152,0,0
-144.7191063224,-181.20302115826,43.719611961196,1349854.8453491,81.484088150334,2703957.4397883,48.919611961196,0,0
-144.71910621469,-181.21737526104,43.72404240424,1349854.8453491,81.484088150334,2703957.4397883,48.92404240424,0,0
-144.71910610697,-181.23172936383,43.728472847285,1349854.8453491,81.484088150334,2703957.4397883,48.928472847285,0,0
-144.71910599926,-181.24608346661,43.732903290329,1349854.8453491,81.484088150334,2703957.4397883,48.932903290329,0,0
-144.71910589154,-181.2604375694,43.737333733373,1349854.8453491,81.484088150334,2703957.4397883,48.937333733373,0,0
-144.71910578383,-181.27479167218,43.741764176418,1349854.8453491,81.484088150334,2703957.4397883,48.941764176418,0,0
-144.71910567611,-181.28914577496,43.746194619462,1349854.8453491,81.484088150334,2703957.4397883,48.946194619462,0,0
-144.7191055684,-181.30349987775,43.750625062506,1349854.8453491,81.484088150334,2703957.4397883,48.950625062506,0,0
-144.71910546068,-181.31785398053,43.755055505551,1349854.8453491,81.484088150334,2703957.4397883,48.955055505551,0,0
-144.71910535297,-181.33220808332,43.759485948595,1349854.8453491,81.484088150334,2703957.4397883,48.959485948595,0,0
-144.71910524525,-181.3465621861,43.763916391639,1349854.8453491,81.484088150334,2703957.4397883,48.963916391639,0,0
-144.71910513753,-181.36091628888,43.768346834683,1349854.8453491,81.484088150334,2703957.4397883,48.968346834683,0,0
-144.71910502982,-181.37527039167,43.772777277728,1349854.8453491,81.484088150334,2703957.4397883,48.972777277728,0,0
-144.7191049221,-181.38962449445,43.777207720772,1349854.8453491,81.484088150334,2703957.4397883,48.977207720772,0,0
-144.71910481439,-181.40397859724,43.781638163816,1349854.8453491,81.484088150334,2703957.4397883,48.981638163816,0,0
-144.71910470667,-181.41833270002,43.786068606861,1349854.8453491,81.484088150334,2703957.4397883,48.986068606861,0,0
-144.71910459896,-181.4326868028,43.790499049905,1349854.8453491,81.484088150334,2703957.4397883,48.990499049905,0,0
-144.71910449124,-181.44704090559,43.794929492949,1349854.8453491,81.484088150334,2703957.4397883,48.994929492949,0,0
-144.71910438353,-181.46139500837,43.799359935994,1349854.8453491,81.484088150334,2703957.4397883,48.999359935994,0,0
-144.71910427581,-181.47574911115,43.803790379038,1349854.8453491,81.484088150334,2703957.4397883,49.003790379038,0,0
-144.7191041681,-181.49010321394,43.808220822082,1349854.8453491,81.484088150334,2703957.4397883,49.008220822082,0,0
-144.71910406038,-181.50445731672,43.812651265127,1349854.8453491,81.484088150334,2703957.4397883,49.012651265127,0,0
-144.71910395267,-181.51881141951,43.817081708171,1349854.8453491,81.484088150334,2703957.4397883,49.017081708171,0,0
-144.71910384495,-181.53316552229,43.821512151215,1349854.8453491,81.484088150334,2703957.4397883,49.021512151215,0,0
-144.71910373724,-181.54751962507,43.825942594259,1349854.8453491,81.484088150334,2703957.4397883,49.025942594259,0,0
-144.71910362952,-181.56187372786,43.830373037304,1349854.8453491,81.484088150334,2703957.4397883,49.030373037304,0,0
-144.7191035218,-181.57622783064,43.834803480348,1349854.8453491,81.484088150334,2703957.4397883,49.034803480348,0,0
-144.71910341409,-181.59058193343,43.839233923392,1349854.8453491,81.484088150334,2703957.4397883,49.039233923392,0,0
-144.71910330637,-181.60493603621,43.843664366437,1349854.8453491,81.484088150334,2703957.4397883,49.043664366437,0,0
-144.71910319866,-181.61929013899,43.848094809481,1349854.8453491,81.484088150334,2703957.4397883,49.048094809481,0,0
-144.71910309094,-181.63364424178,43.852525252525,1349854.8453491,81.484088150334,2703957.4397883,49.052525252525,0,0
-144.71910298323,-181.64799834456,43.85695569557,1349854.8453491,81.484088150334,2703957.4397883,49.05695569557,0,0
-144.71910287551,-181.66235244735,43.861386138614,1349854.8453491,81.484088150334,2703957.4397883,49.061386138614,0,0
-144.7191027678,-181.67670655013,43.865816581658,1349854.8453491,81.484088150334,2703957.4397883,49.065816581658,0,0
-144.71910266008,-181.69106065291,43.870247024702,1349854.8453491,81.484088150334,2703957.4397883,49.070247024702,0,0
-144.71910255237,-181.7054147557,43.874677467747,1349854.8453491,81.484088150334,2703957.4397883,49.074677467747,0,0
-144.71910244465,-181.71976885848,43.879107910791,1349854.8453491,81.484088150334,2703957.4397883,49.079107910791,0,0
-144.71910233694,-181.73412296127,43.883538353835,1349854.8453491,81.484088150334,2703957.4397883,49.083538353835,0,0
-144.71910222922,-181.74847706405,43.88796879688,1349854.8453491,81.484088150334,2703957.4397883,49.08796879688,0,0
-144.71910212151,-181.76283116683,43.892399239924,1349854.8453491,81.484088150334,2703957.4397883,49.092399239924,0,0
-144.71910201379,-181.77718526962,43.896829682968,1349854.8453491,81.484088150334,2703957.4397883,49.096829682968,0,0
-144.71910190607,-181.7915393724,43.901260126013,1349854.8453491,81.484088150334,2703957.4397883,49.101260126013,0,0
-144.71910179836,-181.80589347519,43.905690569057,1349854.8453491,81.484088150334,2703957.4397883,49.105690569057,0,0
-144.71910169064,-181.82024757797,43.910121012101,1349854.8453491,81.484088150334,2703957.4397883,49.110121012101,0,0
-144.71910158293,-181.83460168075,43.914551455146,1349854.8453491,81.484088150334,2703957.4397883,49.114551455146,0,0
-144.71910147521,-181.84895578354,43.91898189819,1349854.8453491,81.484088150334,2703957.4397883,49.11898189819,0,0
-144.7191013675,-181.86330988632,43.923412341234,1349854.8453491,81.484088150334,2703957.4397883,49.123412341234,0,0
-144.71910125978,-181.87766398911,43.927842784278,1349854.8453491,81.484088150334,2703957.4397883,49.127842784278,0,0
-144.71910115207,-181.89201809189,43.932273227323,1349854.8453491,81.484088150334,2703957.4397883,49.132273227323,0,0
-144.71910104435,-181.90637219467,43.936703670367,1349854.8453491,81.484088150334,2703957.4397883,49.136703670367,0,0
-144.71910093664,-181.92072629746,43.941134113411,1349854.8453491,81.484088150334,2703957.4397883,49.141134113411,0,0
-144.71910082892,-181.93508040024,43.945564556456,1349854.8453491,81.484088150334,2703957.4397883,49.145564556456,0,0
-144.71910072121,-181.94943450303,43.9499949995,1349854.8453491,81.484088150334,2703957.4397883,49.1499949995,0,0
-144.71910061349,-181.96378860581,43.954425442544,1349854.8453491,81.484088150334,2703957.4397883,49.154425442544,0,0
-144.71910050578,-181.97814270859,43.958855885589,1349854.8453491,81.484088150334,2703957.4397883,49.158855885589,0,0
-144.71910039806,-181.99249681138,43.963286328633,1349854.8453491,81.484088150334,2703957.4397883,49.163286328633,0,0
-144.71910029034,-182.00685091416,43.967716771677,1349854.8453491,81.484088150334,2703957.4397883,49.167716771677,0,0
-144.71910018263,-182.02120501695,43.972147214721,1349854.8453491,81.484088150334,2703957.4397883,49.172147214721,0,0
-144.71910007491,-182.03555911973,43.976577657766,1349854.8453491,81.484088150334,2703957.4397883,49.176577657766,0,0
-144.7190999672,-182.04991322251,43.98100810081,1349854.8453491,81.484088150334,2703957.4397883,49.18100810081,0,0
-144.71909985948,-182.0642673253,43.985438543854,1349854.8453491,81.484088150334,2703957.4397883,49.185438543854,0,0
-144.71909975177,-182.07862142808,43.989868986899,1349854.8453491,81.484088150334,2703957.4397883,49.189868986899,0,0
-144.71909964405,-182.09297553087,43.994299429943,1349854.8453491,81.484088150334,2703957.4397883,49.194299429943,0,0
-144.71909953634,-182.10732963365,43.998729872987,1349854.8453491,81.484088150334,2703957.4397883,49.198729872987,0,0
-144.71909942862,-182.12168373643,44.003160316032,1349854.8453491,81.484088150334,2703957.4397883,49.203160316032,0,0
-144.71909932091,-182.13603783922,44.007590759076,1349854.8453491,81.484088150334,2703957.4397883,49.207590759076,0,0
-144.71909921319,-182.150391942,44.01202120212,1349854.8453491,81.484088150334,2703957.4397883,49.21202120212,0,0
-144.71909910548,-182.16474604479,44.016451645165,1349854.8453491,81.484088150334,2703957.4397883,49.216451645165,0,0
-144.71909899776,-182.17910014757,44.020882088209,1349854.8453491,81.484088150334,2703957.4397883,49.220882088209,0,0
-144.71909889005,-182.19345425035,44.025312531253,1349854.8453491,81.484088150334,2703957.4397883,49.225312531253,0,0
-144.71909878233,-182.20780835314,44.029742974297,1349854.8453491,81.484088150334,2703957.4397883,49.229742974297,0,0
-144.71909867461,-182.22216245592,44.034173417342,1349854.8453491,81.484088150334,2703957.4397883,49.234173417342,0,0
-144.7190985669,-182.23651655871,44.038603860386,1349854.8453491,81.484088150334,2703957.4397883,49.238603860386,0,0
-144.71909845918,-182.25087066149,44.04303430343,1349854.8453491,81.484088150334,2703957.4397883,49.24303430343,0,0
-144.71909835147,-182.26522476427,44.047464746475,1349854.8453491,81.484088150334,2703957.4397883,49.247464746475,0,0
-144.71909824375,-182.27957886706,44.051895189519,1349854.8453491,81.484088150334,2703957.4397883,49.251895189519,0,0
-144.71909813604,-182.29393296984,44.056325632563,1349854.8453491,81.484088150334,2703957.4397883,49.256325632563,0,0
-144.71909802832,-182.30828707263,44.060756075608,1349854.8453491,81.484088150334,2703957.4397883,49.260756075608,0,0
-144.71909792061,-182.32264117541,44.065186518652,1349854.8453491,81.484088150334,2703957.4397883,49.265186518652,0,0
-144.71909781289,-182.33699527819,44.069616961696,1349854.8453491,81.484088150334,2703957.4397883,49.269616961696,0,0
-144.71909770518,-182.35134938098,44.07404740474,1349854.8453491,81.484088150334,2703957.4397883,49.27404740474,0,0
-144.71909759746,-182.36570348376,44.078477847785,1349854.8453491,81.484088150334,2703957.4397883,49.278477847785,0,0
-144.71909748975,-182.38005758655,44.082908290829,1349854.8453491,81.484088150334,2703957.4397883,49.282908290829,0,0
-144.71909738203,-182.39441168933,44.087338733873,1349854.8453491,81.484088150334,2703957.4397883,49.287338733873,0,0
-144.71909727432,-182.40876579211,44.091769176918,1349854.8453491,81.484088150334,2703957.4397883,49.291769176918,0,0
-144.7190971666,-182.4231198949,44.096199619962,1349854.8453491,81.484088150334,2703957.4397883,49.296199619962,0,0
-144.71909705888,-182.43747399768,44.100630063006,1349854.8453491,81.484088150334,2703957.4397883,49.300630063006,0,0
-144.71909695117,-182.45182810047,44.105060506051,1349854.8453491,81.484088150334,2703957.4397883,49.305060506051,0,0
-144.71909684345,-182.46618220325,44.109490949095,1349854.8453491,81.484088150334,2703957.4397883,49.309490949095,0,0
-144.71909673574,-182.48053630603,44.113921392139,1349854.8453491,81.484088150334,2703957.4397883,49.313921392139,0,0
-144.71909662802,-182.49489040882,44.118351835184,1349854.8453491,81.484088150334,2703957.4397883,49.318351835184,0,0
-144.71909652031,-182.5092445116,44.122782278228,1349854.8453491,81.484088150334,2703957.4397883,49.322782278228,0,0
-144.71909641259,-182.52359861439,44.127212721272,1349854.8453491,81.484088150334,2703957.4397883,49.327212721272,0,0
-144.71909630488,-182.53795271717,44.131643164316,1349854.8453491,81.484088150334,2703957.4397883,49.331643164316,0,0
-144.71909619716,-182.55230681995,44.136073607361,1349854.8453491,81.484088150334,2703957.4397883,49.336073607361,0,0
-144.71909608945,-182.56666092274,44.140504050405,1349854.8453491,81.484088150334,2703957.4397883,49.340504050405,0,0
-144.71909598173,-182.58101502552,44.144934493449,1349854.8453491,81.484088150334,2703957.4397883,49.344934493449,0,0
-144.71909587402,-182.5953691283,44.149364936494,1349854.8453491,81.484088150334,2703957.4397883,49.349364936494,0,0
-144.7190957663,-182.60972323109,44.153795379538,1349854.8453491,81.484088150334,2703957.4397883,49.353795379538,0,0
-144.71909565859,-182.62407733387,44.158225822582,1349854.8453491,81.484088150334,2703957.4397883,49.358225822582,0,0
-144.71909555087,-182.63843143666,44.162656265627,1349854.8453491,81.484088150334,2703957.4397883,49.362656265627,0,0
-144.71909544315,-182.65278553944,44.167086708671,1349854.8453491,81.484088150334,2703957.4397883,49.367086708671,0,0
-144.71909533544,-182.66713964222,44.171517151715,1349854.8453491,81.484088150334,2703957.4397883,49.371517151715,0,0
-144.71909522772,-182.68149374501,44.175947594759,1349854.8453491,81.484088150334,2703957.4397883,49.375947594759,0,0
-144.71909512001,-182.69584784779,44.180378037804,1349854.8453491,81.484088150334,2703957.4397883,49.380378037804,0,0
-144.71909501229,-182.71020195058,44.184808480848,1349854.8453491,81.484088150334,2703957.4397883,49.384808480848,0,0
-144.71909490458,-182.72455605336,44.189238923892,1349854.8453491,81.484088150334,2703957.4397883,49.389238923892,0,0
-144.71909479686,-182.73891015614,44.193669366937,1349854.8453491,81.484088150334,2703957.4397883,49.393669366937,0,0
-144.71909468915,-182.75326425893,44.198099809981,1349854.8453491,81.484088150334,2703957.4397883,49.398099809981,0,0
-144.71909458143,-182.76761836171,44.202530253025,1349854.8453491,81.484088150334,2703957.4397883,49.402530253025,0,0
-144.71909447372,-182.7819724645,44.20696069607,1349854.8453491,81.484088150334,2703957.4397883,49.40696069607,0,0
-144.719094366,-182.79632656728,44.211391139114,1349854.8453491,81.484088150334,2703957.4397883,49.411391139114,0,0
-144.71909425829,-182.81068067006,44.215821582158,1349854.8453491,81.484088150334,2703957.4397883,49.415821582158,0,0
-144.71909415057,-182.82503477285,44.220252025203,1349854.8453491,81.484088150334,2703957.4397883,49.420252025203,0,0
-144.71909404286,-182.83938887563,44.224682468247,1349854.8453491,81.484088150334,2703957.4397883,49.424682468247,0,0
-144.71909393514,-182.85374297842,44.229112911291,1349854.8453491,81.484088150334,2703957.4397883,49.429112911291,0,0
-144.71909382742,-182.8680970812,44.233543354335,1349854.8453491,81.484088150334,2703957.4397883,49.433543354335,0,0
-144.71909371971,-182.88245118398,44.23797379738,1349854.8453491,81.484088150334,2703957.4397883,49.43797379738,0,0
-144.71909361199,-182.89680528677,44.242404240424,1349854.8453491,81.484088150334,2703957.4397883,49.442404240424,0,0
-144.71909350428,-182.91115938955,44.246834683468,1349854.8453491,81.484088150334,2703957.4397883,49.446834683468,0,0
-144.71909339656,-182.92551349234,44.251265126513,1349854.8453491,81.484088150334,2703957.4397883,49.451265126513,0,0
-144.71909328885,-182.93986759512,44.255695569557,1349854.8453491,81.484088150334,2703957.4397883,49.455695569557,0,0
-144.71909318113,-182.9542216979,44.260126012601,1349854.8453491,81.484088150334,2703957.4397883,49.460126012601,0,0
-144.71909307342,-182.96857580069,44.264556455646,1349854.8453491,81.484088150334,2703957.4397883,49.464556455646,0,0
-144.7190929657,-182.98292990347,44.26898689869,1349854.8453491,81.484088150334,2703957.4397883,49.46898689869,0,0
-144.71909285799,-182.99728400626,44.273417341734,1349854.8453491,81.484088150334,2703957.4397883,49.473417341734,0,0
-144.71909275027,-183.01163810904,44.277847784778,1349854.8453491,81.484088150334,2703957.4397883,49.477847784778,0,0
-144.71909264256,-183.02599221182,44.282278227823,1349854.8453491,81.484088150334,2703957.4397883,49.482278227823,0,0
-144.71909253484,-183.04034631461,44.286708670867,1349854.8453491,81.484088150334,2703957.4397883,49.486708670867,0,0
-144.71909242713,-183.05470041739,44.291139113911,1349854.8453491,81.484088150334,2703957.4397883,49.491139113911,0,0
-144.71909231941,-183.06905452018,44.295569556956,1349854.8453491,81.484088150334,2703957.4397883,49.495569556956,0,0
-144.71909221169,-183.08340862296,44.3,1349854.8453491,81.484088150334,2703957.4397883,49.5,0,0
