disp_x,disp_y,id,stress_xx,stress_xy,stress_yy,x,y,z
-0.00071251011534794,0.035919836740998,0,-4837.3706672369,-1393193.322877,6158418.0941843,5.2,0,0
-0.0007363707656086,0.035796589192884,0.44747474747475,-4837.3706672369,-1393193.322877,6158418.0941843,5.6474747474747,0,0
-0.00075331551496214,0.03565506964911,0.8949494949495,1510420.7779853,-2626347.6583003,7201408.9737319,6.0949494949495,0,0
-0.00076203675743757,0.035495020629766,1.3424242424242,2007827.0999752,-3069124.6873082,6155114.4159525,6.5424242424242,0,0
-0.0007717957625588,0.03532894676716,1.789898989899,2392112.4721504,-3504638.4105196,5588780.3287328,6.989898989899,0,0
-0.00077507248226533,0.03515088769996,2.2373737373737,2108964.5748908,-3567375.1069016,5631905.2813122,7.4373737373737,0,0
-0.00077994579187984,0.034970078956348,2.6848484848485,2502716.3532907,-3613819.7626761,5179207.8326378,7.8848484848485,0,0
-0.00078041025930709,0.034782090331255,3.1323232323232,2711107.9616386,-3897779.1548993,5370211.585166,8.3323232323232,0,0
-0.00078049149572522,0.034590963765194,3.579797979798,2203214.1167355,-3525458.6635599,4936222.5763633,8.779797979798,0,0
-0.00078122550763956,0.034396196439206,4.0272727272727,2772691.8953758,-3703356.3723288,4894560.4016747,9.2272727272727,0,0
-0.00077927986569723,0.034197909600578,4.4747474747475,2772691.8953758,-3703356.3723288,4894560.4016747,9.6747474747475,0,0
-0.00077777810279723,0.033997315390291,4.9222222222222,2710102.212273,-3851019.8607466,4941581.4056874,10.122222222222,0,0
-0.00077521796995586,0.033795227144033,5.369696969697,3110473.490527,-3722926.9962926,4858257.5017616,10.569696969697,0,0
-0.00077138262727489,0.033590332002735,5.8171717171717,2959357.162413,-3828189.9581469,4858585.7941155,11.017171717172,0,0
-0.00076884716675188,0.033384728015368,6.2646464646465,2777582.9363644,-3655585.6217397,4859292.0638588,11.464646464646,0,0
-0.0007667269946841,0.033177524589252,6.7121212121212,2979663.5733259,-3599747.8120942,4847109.5578817,11.912121212121,0,0
-0.00076298401588889,0.032969547256778,7.159595959596,2979663.5733259,-3599747.8120942,4847109.5578817,12.359595959596,0,0
-0.00076027480497347,0.032760293081769,7.6070707070707,2824078.5265261,-3659388.2771768,4824839.9665854,12.807070707071,0,0
-0.00075706938860663,0.032550766146801,8.0545454545455,3151016.8197139,-3530827.7351491,4891855.0577992,13.254545454545,0,0
-0.00075375876171578,0.032339754523268,8.5020202020202,2854569.733677,-3471248.7515303,4967696.4676186,13.70202020202,0,0
-0.00075134924806423,0.032128295871997,8.949494949495,2854569.733677,-3471248.7515303,4967696.4676186,14.149494949495,0,0
-0.0007497456318091,0.03191608785072,9.3969696969697,2971045.7636337,-3376087.9068947,5007887.9325851,14.59696969697,0,0
-0.00074650453413928,0.031703771722632,9.8444444444444,2971045.7636337,-3376087.9068947,5007887.9325851,15.044444444444,0,0
-0.00074465566575276,0.031490760721222,10.291919191919,2781392.8637032,-3397490.9568433,4959401.9679025,15.491919191919,0,0
-0.00074250088811309,0.031277721026113,10.739393939394,2857649.5278114,-3290502.1762779,4988397.1120956,15.939393939394,0,0
-0.00074073760350921,0.031063842975973,11.186868686869,2819159.1386549,-3220849.3430645,5160617.1013612,16.386868686869,0,0
-0.0007392901086752,0.03084983400863,11.634343434343,2612236.5830262,-3216429.9702806,5094811.7568171,16.834343434343,0,0
-0.00073886185564042,0.030635710774501,12.081818181818,2880287.9555161,-3104542.6850488,5204693.4339064,17.281818181818,0,0
-0.00073710542043984,0.030421708592658,12.529292929293,2686302.8508517,-3091536.9171712,5139020.5356663,17.729292929293,0,0
-0.00073651410833148,0.030207747610286,12.976767676768,2686302.8508517,-3091536.9171712,5139020.5356663,18.176767676768,0,0
-0.00073617256780121,0.029993610380643,13.424242424242,2728934.7058713,-2917965.4668832,5332826.585913,18.624242424242,0,0
-0.00073575849894836,0.029779150027104,13.871717171717,2728934.7058713,-2917965.4668831,5332826.585913,19.071717171717,0,0
-0.00073569766089842,0.029564737072599,14.319191919192,2545500.1107422,-2899737.6098608,5268073.5093563,19.519191919192,0,0
-0.0007363455138755,0.029350439007482,14.766666666667,2810163.6432218,-2795147.8043764,5340836.0316298,19.966666666667,0,0
-0.0007357524882075,0.029136126043801,15.214141414141,2618635.4490442,-2774255.6996799,5272394.0265425,20.414141414141,0,0
-0.00073606574118183,0.028921962488665,15.661616161616,2618635.4490442,-2774255.6996799,5272394.0265425,20.861616161616,0,0
-0.00073709258855681,0.028707574995062,16.109090909091,2648792.8719834,-2576943.7703382,5462795.6947871,21.309090909091,0,0
-0.0007376745667882,0.028493368633806,16.556565656566,2648792.8719834,-2576943.7703382,5462795.6947871,21.756565656566,0,0
-0.00073889884141293,0.028279172888588,17.00404040404,2438492.140094,-2564698.6585503,5392206.7660192,22.20404040404,0,0
-0.00074023557279817,0.028064929582969,17.451515151515,2724380.9889015,-2462643.09707,5463347.1371765,22.651515151515,0,0
-0.00074086642830209,0.027850794465394,17.89898989899,2511659.0228438,-2426931.6791999,5381348.7107161,23.09898989899,0,0
-0.00074233570421924,0.027636940386164,18.346464646465,2511659.0228438,-2426931.6791999,5381348.7107161,23.546464646465,0,0
-0.00074393025700115,0.027422759336553,18.793939393939,2547321.0486125,-2224634.6916762,5423777.0713232,23.993939393939,0,0
-0.0007452259274617,0.027208242648056,19.241414141414,2547321.0486125,-2224634.6916761,5423777.0713232,24.441414141414,0,0
-0.00074723915774447,0.026993801334417,19.688888888889,2360359.7940954,-2207727.8398837,5358543.8005593,24.888888888889,0,0
-0.00074890022254199,0.026779152572124,20.136363636364,2665642.5716348,-2099913.4904314,5355218.0326382,25.336363636364,0,0
-0.00074979227156435,0.026564250875831,20.583838383838,2490075.9918435,-2076980.4936472,5290795.3037388,25.783838383838,0,0
-0.00075132295575613,0.026349399258826,21.031313131313,2424570.8558181,-1990786.2703544,5415906.8158046,26.231313131313,0,0
-0.00075362010348857,0.026134056719438,21.478787878788,2534578.6661806,-1853196.2196699,5332251.5045191,26.678787878788,0,0
-0.00075477244644426,0.025918315663509,21.926262626263,2534578.6661806,-1853196.2196699,5332251.5045191,27.126262626263,0,0
-0.00075682266371412,0.025702541431508,22.373737373737,2354526.8896139,-1845585.2707785,5273203.1162597,27.573737373737,0,0
-0.00075834894728482,0.025486420487631,22.821212121212,2686419.0163524,-1734150.5357568,5231479.0932449,28.021212121212,0,0
-0.00075906500763059,0.025269586307395,23.268686868687,2487485.3477332,-1725665.2315678,5166212.1812963,28.468686868687,0,0
-0.0007608835330706,0.025052526967359,23.716161616162,2375835.8970461,-1607092.8390369,5231563.2695972,28.916161616162,0,0
-0.0007632515309234,0.024834682716458,24.163636363636,2561545.1049089,-1484457.8877918,5112180.6989998,29.363636363636,0,0
-0.00076359451973722,0.024615869546042,24.611111111111,2561545.1049089,-1484457.8877918,5112180.6989998,29.811111111111,0,0
-0.00076548720701477,0.024396742029398,25.058585858586,2307433.2074292,-1487546.7312567,5035205.7602167,30.258585858586,0,0
-0.00076630144492468,0.024177016639089,25.506060606061,2738925.6614838,-1354472.1658291,4969955.9911622,30.706060606061,0,0
-0.00076634168644232,0.023955610502673,25.953535353535,2503750.5195413,-1382440.7389377,4910902.4162366,31.153535353535,0,0
-0.00076759329973879,0.023733905644938,26.40101010101,2365760.0565199,-1224617.2664335,4947200.6847207,31.60101010101,0,0
-0.00076908571784377,0.023510245270478,26.848484848485,2581797.1456325,-1106245.1715748,4812011.2341917,32.048484848485,0,0
-0.00076845812320873,0.023285571234477,27.29595959596,2581797.1456325,-1106245.1715748,4812011.2341917,32.49595959596,0,0
-0.00076994477538391,0.023059451284985,27.743434343434,2277826.5900597,-1160995.7389533,4742109.8335426,32.943434343434,0,0
-0.00076961296752727,0.022832364297664,28.190909090909,2804576.2621708,-994890.94506083,4613332.160927,33.390909090909,0,0
-0.0007684552368797,0.022601864945859,28.638383838384,2378408.5129432,-871616.20116089,4573440.516209,33.838383838384,0,0
-0.00076890090250934,0.02237110614776,29.085858585859,2033635.1851265,-980740.54724534,4515769.8171007,34.285858585859,0,0
-0.0007696560828662,0.022136731689753,29.533333333333,2697436.750818,-766091.64993324,4388201.2124218,34.733333333333,0,0
-0.00076713746261234,0.021900704568952,29.980808080808,2379909.5508587,-904639.4637877,4352041.1925732,35.180808080808,0,0
-0.00076690165778048,0.021661537827566,30.428282828283,2379909.5508587,-904639.4637877,4352041.1925732,35.628282828283,0,0
-0.00076474385264145,0.02142087249701,30.875757575758,2819046.0281369,-871496.50149554,4168608.3673278,36.075757575758,0,0
-0.00076228056280336,0.021174366999909,31.323232323232,2484016.2673495,-562194.23343168,4125863.3700641,36.523232323232,0,0
-0.00076119147707078,0.020926940769794,31.770707070707,2013485.5048347,-779616.77603734,4078028.1233912,36.970707070707,0,0
-0.00076068736999151,0.020674095853353,32.218181818182,2959134.6699023,-472051.34111731,3908863.1330261,37.418181818182,0,0
-0.00075533034258876,0.020417683831847,32.665656565657,2506301.9837791,-747045.05958813,3892233.6335164,37.865656565657,0,0
-0.00075283838068125,0.020156098187716,33.113131313131,2506301.9837791,-747045.05958812,3892233.6335164,38.313131313131,0,0
-0.00074959954777759,0.019891475917574,33.560606060606,2661276.8920489,-277973.3972125,3630337.136952,38.760606060606,0,0
-0.00074515305376376,0.019617923561641,34.008080808081,2661276.8920489,-277973.3972125,3630337.136952,39.208080808081,0,0
-0.00074239472231887,0.01934143306903,34.455555555556,1934417.9670596,-700088.60760676,3594523.1820506,39.655555555556,0,0
-0.00074095830038312,0.01905684432934,34.90303030303,3393394.8084244,-213066.06179842,3411484.332075,40.10303030303,0,0
-0.00073173789009571,0.018764621944367,35.350505050505,2775064.2310356,-753873.50543685,3462081.8802453,40.550505050505,0,0
-0.00072592095821623,0.01846410770509,35.79797979798,2775064.2310356,-753873.50543685,3462081.8802453,40.99797979798,0,0
-0.00072432398782931,0.018156371849332,36.245454545455,3018088.4997618,-26297.362902827,3116702.4155303,41.445454545455,0,0
-0.00071561769141502,0.017834178383993,36.692929292929,3018088.4997617,-26297.362902827,3116702.4155303,41.892929292929,0,0
-0.00071113492954052,0.017503515008765,37.140404040404,1777594.2361214,-881828.66721523,3116179.5854583,42.340404040404,0,0
-0.00070947149598925,0.017160246383196,37.587878787879,4316486.7427286,-17458.598983679,2874516.0398325,42.787878787879,0,0
-0.00069333377957466,0.016798460399311,38.035353535354,3410776.1660861,-1192375.1041721,3120577.05765,43.235353535354,0,0
-0.00068405911328577,0.016422266225517,38.482828282828,2055909.5315818,37003.598936758,2851437.7917154,43.682828282828,0,0
-0.00069006181907779,0.016027025111271,38.930303030303,3839053.1907689,142740.29235285,2585859.5225884,44.130303030303,0,0
-0.00067330491152859,0.015604712813642,39.377777777778,3839053.1907689,142740.29235285,2585859.5225884,44.577777777778,0,0
-0.00066776748436091,0.015155420507478,39.825252525253,1359677.7711915,-1991468.0937273,2774149.1063461,45.025252525253,0,0
-0.00066988008087078,0.014683222156397,40.272727272727,6791614.9493647,-157007.49820963,2214318.6755326,45.472727272727,0,0
-0.00063554402170776,0.01415319394879,40.720202020202,5635051.834262,-3436166.5477751,3322574.7412237,45.920202020202,0,0
-0.00062679125290118,0.013592631666862,41.167676767677,1980757.454525,-66702.294682588,2384779.7877402,46.367676767677,0,0
-0.00066215949187295,0.012956371547693,41.615151515152,6451467.6078978,-426485.67571539,1971177.4619764,46.815151515152,0,0
-0.00062267407984862,0.012252535712066,42.062626262626,6451467.6078978,-426485.67571539,1971177.4619764,47.262626262626,0,0
-0.00060798078209474,0.011394511122943,42.510101010101,2833651.7918523,-10047903.777409,3723446.0525746,47.710101010101,0,0
-0.00060239404555822,0.010479850407212,42.957575757576,2833651.7918523,-10047903.777409,3723446.0525746,48.157575757576,0,0
-0.00060240589504413,0.0090824616265454,43.405050505051,2649084.7281404,-2230049.6153038,1363376.9581822,48.605050505051,0,0
-0.00059196156222542,0.0075645761833893,43.852525252525,2649084.7281404,-2230049.6153038,1363376.9581822,49.052525252525,0,0
-0.00058556777453157,0.0042161601697396,44.3,2696088.7510991,-107064693.44806,3360218.6810802,49.5,0,0
