disp_x,disp_y,id,stress_xx,stress_xy,stress_yy,x,y,z
-0.00072828621469266,-0.018741960864408,0,105737.56595036,689833.03723687,3059483.197304,5.2,0,0
-0.00073929094851683,-0.018674868933926,0.44747474747475,105737.56595036,689833.03723687,3059483.197304,5.6474747474747,0,0
-0.00074682026130421,-0.018597231304482,0.8949494949495,909011.4380099,1445707.7476133,3548587.9136561,6.0949494949495,0,0
-0.00075265989711323,-0.018514466576892,1.3424242424242,909011.4380099,1445707.7476133,3548587.9136561,6.5424242424242,0,0
-0.00075594000051671,-0.01842363726379,1.789898989899,964451.53250852,1706123.5750204,2910763.1962744,6.989898989899,0,0
-0.00075961716889063,-0.018331163520937,2.2373737373737,964451.53250852,1706123.5750204,2910763.1962744,7.4373737373737,0,0
-0.00076068343561413,-0.018234222182065,2.6848484848485,1218420.6807707,1868823.0830659,2706451.3793649,7.8848484848485,0,0
-0.00076176229437187,-0.018135400391592,3.1323232323232,1218420.6807707,1868823.0830659,2706451.3793649,8.3323232323232,0,0
-0.00076169291292875,-0.018034148752686,3.579797979798,1356457.4024515,1913622.0123516,2539067.672839,8.779797979798,0,0
-0.00076155391335753,-0.017931318176957,4.0272727272727,1277273.2124496,1809089.1045579,2430558.5976321,9.2272727272727,0,0
-0.00076161038107378,-0.01782756247626,4.4747474747475,1408717.2623198,1829093.0423051,2423251.9206183,9.6747474747475,0,0
-0.00076039246488795,-0.017722001651279,4.9222222222222,1408717.2623198,1829093.0423051,2423251.9206183,10.122222222222,0,0
-0.00075976010041237,-0.017615906933511,5.369696969697,1252326.3372505,1859694.8144561,2428063.2653167,10.569696969697,0,0
-0.00075837613975965,-0.017508540490336,5.8171717171717,1495991.0608229,1825671.8234516,2419591.3715415,11.017171717172,0,0
-0.00075702100163709,-0.017400576418732,6.2646464646465,1311530.7209521,1840634.3252398,2400370.2887177,11.464646464646,0,0
-0.00075612324907399,-0.017291979758061,6.7121212121212,1540866.2575378,1794918.2840538,2429181.1988583,11.912121212121,0,0
-0.00075433960524553,-0.01718270139686,7.159595959596,1362723.8330232,1813138.86574,2412730.6362206,12.359595959596,0,0
-0.00075346444558255,-0.017072824510103,7.6070707070707,1362723.8330232,1813138.86574,2412730.6362206,12.807070707071,0,0
-0.00075182907720623,-0.016962570994154,8.0545454545455,1393779.7571498,1771739.9698829,2427314.1712167,13.254545454545,0,0
-0.00075074259265274,-0.016851816635879,8.5020202020202,1393779.7571498,1771739.9698829,2427314.1712167,13.70202020202,0,0
-0.00074962495599421,-0.016740895435749,8.949494949495,1417752.6347831,1691377.5918058,2512183.8942469,14.149494949495,0,0
-0.00074857329887934,-0.016629456537181,9.3969696969697,1417752.6347831,1691377.5918058,2512183.8942469,14.59696969697,0,0
-0.00074775960008177,-0.016517902509957,9.8444444444444,1264241.7762809,1697208.0981376,2487498.9901715,15.044444444444,0,0
-0.00074698740697109,-0.016406053329469,10.291919191919,1429905.5064946,1644680.1951932,2562989.2626071,15.491919191919,0,0
-0.00074614651580018,-0.016294195624379,10.739393939394,1278934.1441415,1640432.8621862,2528156.6073185,15.939393939394,0,0
-0.00074591968370723,-0.016182088262314,11.186868686869,1438459.8610736,1592993.1934511,2591900.5698931,16.386868686869,0,0
-0.00074502795093811,-0.016070016464611,11.634343434343,1290548.5842258,1590441.6601114,2559409.7352948,16.834343434343,0,0
-0.00074512950399451,-0.015957620583493,12.081818181818,1290548.5842258,1590441.6601114,2559409.7352948,17.281818181818,0,0
-0.00074443768116992,-0.015845392941913,12.529292929293,1293157.8778855,1529680.6671737,2591297.3712319,17.729292929293,0,0
-0.00074460393454348,-0.015733029035678,12.976767676768,1293157.8778855,1529680.6671737,2591297.3712319,18.176767676768,0,0
-0.00074448597598199,-0.015620680982499,13.424242424242,1452825.3203874,1481219.0485162,2651293.6756325,18.624242424242,0,0
-0.00074460543956618,-0.015508319579357,13.871717171717,1296086.7886316,1464157.8453071,2602027.8643454,19.071717171717,0,0
-0.00074482856789,-0.015395876238093,14.319191919192,1320131.7289649,1446765.842365,2705364.7000214,19.519191919192,0,0
-0.00074521141851311,-0.015283290718764,14.766666666667,1329707.2620932,1391119.257754,2717079.8141576,19.966666666667,0,0
-0.00074542105943161,-0.015170698897835,15.214141414141,1329707.2620932,1391119.257754,2717079.8141576,20.414141414141,0,0
-0.00074623879793591,-0.015058062818751,15.661616161616,1342625.358265,1330570.4030881,2722915.4942683,20.861616161616,0,0
-0.00074635991574153,-0.014945413208263,16.109090909091,1342625.358265,1330570.4030881,2722915.4942683,21.309090909091,0,0
-0.00074737657457255,-0.014832784244917,16.556565656566,1186260.95791,1309764.6134125,2669588.5276845,21.756565656566,0,0
-0.00074764873235899,-0.014720181494241,17.00404040404,1356984.8374175,1262691.181605,2729161.5009124,22.20404040404,0,0
-0.00074850426685797,-0.01460755859139,17.451515151515,1202530.4449515,1244799.5301756,2679272.4839959,22.651515151515,0,0
-0.00074923623967128,-0.014494918252456,17.89898989899,1372911.0646946,1199650.1723632,2733331.2611908,23.09898989899,0,0
-0.00074993487406345,-0.014382310060984,18.346464646465,1213062.3111585,1176412.6016329,2676680.9397858,23.546464646465,0,0
-0.00075097690400709,-0.014269723682266,18.793939393939,1213062.3111585,1176412.6016329,2676680.9397858,23.993939393939,0,0
-0.000751679892081,-0.014157010620083,19.241414141414,1215906.6846164,1107322.7120689,2651109.3212308,24.441414141414,0,0
-0.00075269725826061,-0.014044211185046,19.688888888889,1237433.544403,1085534.1558348,2752242.7902333,24.888888888889,0,0
-0.00075391569431253,-0.013931254626698,20.136363636364,1267707.5724994,1022862.5887429,2734631.7061811,25.336363636364,0,0
-0.00075467271452661,-0.013818104317962,20.583838383838,1267707.5724994,1022862.5887429,2734631.7061811,25.783838383838,0,0
-0.00075612006131747,-0.01370505326715,21.031313131313,1081887.812926,991071.18678002,2663856.0723959,26.231313131313,0,0
-0.00075679928555261,-0.013591780186296,21.478787878788,1293510.130863,946845.36138378,2697875.7033607,26.678787878788,0,0
-0.00075785587539342,-0.013478435607832,21.926262626263,1113434.6013817,925983.07472962,2639870.0211457,27.126262626263,0,0
-0.00075897817136371,-0.013364863961531,22.373737373737,1337879.0711906,885413.64961391,2655881.2094706,27.573737373737,0,0
-0.00075951055248601,-0.013250947163198,22.821212121212,1147474.4328003,858389.81693165,2589132.0047029,28.021212121212,0,0
-0.00076084627726318,-0.013137071967774,23.268686868687,1147474.4328003,858389.81693165,2589132.0047029,28.468686868687,0,0
-0.00076112078655475,-0.013022626210163,23.716161616162,1177275.8148377,797399.47582546,2545480.2516073,28.916161616162,0,0
-0.00076209870391065,-0.012907992330551,24.163636363636,1177275.8148377,797399.47582546,2545480.2516073,29.363636363636,0,0
-0.0007627665558209,-0.012793024130778,24.611111111111,1229141.1574263,737972.70757985,2499719.4343651,29.811111111111,0,0
-0.00076333114481125,-0.012677333493918,25.058585858586,1241397.5207449,703729.7982855,2587456.3126646,30.258585858586,0,0
-0.00076434902616634,-0.012561577162512,25.506060606061,987750.72092596,682914.8881974,2514209.8181718,30.706060606061,0,0
-0.00076458103793275,-0.012444693184104,25.953535353535,1290257.6943904,638225.30425794,2507381.4052955,31.153535353535,0,0
-0.00076489352454856,-0.012327627082441,26.40101010101,1027283.0110231,621515.31026842,2437075.8006049,31.60101010101,0,0
-0.00076576034711568,-0.012209828637583,26.848484848485,1339988.2597153,573986.8066251,2434200.4004969,32.048484848485,0,0
-0.0007653595833283,-0.012091326956054,27.29595959596,1077317.3028056,570164.31780165,2377685.3456801,32.49595959596,0,0
-0.00076669268545963,-0.011972241807061,27.743434343434,1077317.3028056,570164.31780165,2377685.3456801,32.943434343434,0,0
-0.00076552918066431,-0.011851956958004,28.190909090909,1130983.3048415,519266.70313616,2306802.4180321,33.390909090909,0,0
-0.00076623871992139,-0.011730779898665,28.638383838384,1130983.3048415,519266.70313616,2306802.4180321,33.838383838384,0,0
-0.00076557132095031,-0.011608957048681,29.085858585859,1526375.484618,466147.69850312,2283482.458473,34.285858585859,0,0
-0.00076538571201066,-0.011485175106704,29.533333333333,1215360.2060279,475098.50286154,2230380.715335,34.733333333333,0,0
-0.00076520903504316,-0.011361389074795,29.980808080808,1215360.2060279,475098.50286154,2230380.715335,35.180808080808,0,0
-0.0007643750729536,-0.011234690454118,30.428282828283,1292546.9598754,359225.28337579,2187635.3149803,35.628282828283,0,0
-0.00076346074660636,-0.011107781323728,30.875757575758,1292546.9598754,359225.28337579,2187635.3149803,36.075757575758,0,0
-0.00076341663544372,-0.010978576777226,31.323232323232,1403186.1829304,305534.45477921,2105391.4976585,36.523232323232,0,0
-0.00076138856626849,-0.010848118388982,31.770707070707,1403186.1829304,305534.45477921,2105391.4976585,36.970707070707,0,0
-0.00076200571990481,-0.010715526160938,32.218181818182,1511472.9232344,264264.66645905,2009462.5662782,37.418181818182,0,0
-0.0007588460851066,-0.010580564991487,32.665656565657,1511472.9232344,264264.66645905,2009462.5662782,37.865656565657,0,0
-0.00075900403593473,-0.010443494171629,33.113131313131,956936.98342403,307177.98803105,1970884.409784,38.313131313131,0,0
-0.00075616743454652,-0.01030377722135,33.560606060606,1651298.0047632,218469.80469551,1916776.9160392,38.760606060606,0,0
-0.00075483032653758,-0.010161001533377,34.008080808081,1019784.6469351,282836.81531932,1888366.2233213,39.208080808081,0,0
-0.00075370795809834,-0.010016175368251,34.455555555556,1863545.2915993,173984.74055649,1820539.499431,39.655555555556,0,0
-0.00075024358753903,-0.0098663171766102,34.90303030303,1158163.6668617,278834.50241261,1798607.0622225,40.10303030303,0,0
-0.00074936723637903,-0.0097144194484779,35.350505050505,1158163.6668617,278834.50241261,1798607.0622225,40.550505050505,0,0
-0.00074523840399726,-0.0095568187580863,35.79797979798,1383999.2567955,308978.88721149,1723886.6529078,40.99797979798,0,0
-0.00074243326770405,-0.0093950403533238,36.245454545455,1287440.5115522,113621.79192269,1690908.844359,41.445454545455,0,0
-0.000741096904889,-0.0092290676372671,36.692929292929,1569836.5876063,71084.499458337,1597535.330294,41.892929292929,0,0
-0.00073635868935865,-0.0090546715527861,37.140404040404,1569836.5876063,71084.499458337,1597535.330294,42.340404040404,0,0
-0.00073555749862215,-0.0088770620281283,37.587878787879,87430.095689947,312822.89007792,1555480.7009159,42.787878787879,0,0
-0.00073102121053377,-0.0086878876839877,38.035353535354,2007240.773104,35998.218283471,1498206.7618806,43.235353535354,0,0
-0.00072646394421001,-0.0084934453399826,38.482828282828,162994.26528405,386208.3964755,1498100.455703,43.682828282828,0,0
-0.00072766135459558,-0.0082870702691472,38.930303030303,2722309.3700691,24530.556126581,1402350.9503556,44.130303030303,0,0
-0.00071696221924112,-0.0080699163488404,39.377777777778,385803.51682596,547803.19489975,1485913.1244783,44.577777777778,0,0
-0.00072147596632908,-0.0078380474724101,39.825252525253,385803.51682596,547803.19489975,1485913.1244783,45.025252525253,0,0
-0.0007078093112703,-0.0075921888082823,40.272727272727,1021605.3501143,958460.26385624,1629094.9853504,45.472727272727,0,0
-0.00070757879437179,-0.007318764021504,40.720202020202,1021605.3501143,958460.26385624,1629094.9853504,45.920202020202,0,0
-0.000699442160494,-0.0070367930742557,41.167676767677,2865656.129075,2136924.1698122,2307531.50698,46.367676767677,0,0
-0.00068777641042306,-0.0066940162554513,41.615151515152,1618799.5740273,312912.82850098,881799.36502903,46.815151515152,0,0
-0.00068071846610503,-0.006352230129703,42.062626262626,1618799.5740273,312912.82850098,881799.36502903,47.262626262626,0,0
-0.00068083517484989,-0.0058968308434573,42.510101010101,4426297.90381,58391.186151453,-105579.76863449,47.710101010101,0,0
-0.00064847265693232,-0.0054255542609255,42.957575757576,4426297.90381,58391.186151453,-105579.76863449,48.157575757576,0,0
-0.00074606868160465,-0.0047409313063151,43.405050505051,10762008.160328,1882917.7945012,-3875438.410131,48.605050505051,0,0
-0.00065245539695064,-0.0039336197089953,43.852525252525,10762008.160328,1882917.7945012,-3875438.410131,49.052525252525,0,0
-0.00065330319812152,-0.0022094108600515,44.3,-1018461.5051018,55750067.491071,5606340.6296165,49.5,0,0
